Name: 8-Prenylnaringenin
Synon: $:00in-source
DB#: MetaboBASE0001
InChIKey: LPEPZZAVFJPLNZ-SFHVURJKSA-N
Precursor_type: [M-H]-
Spectrum_type: MS2
PrecursorMZ: 339.1
Instrument_type: LC-ESI-TOF
Instrument: impact HD
Ion_mode: N
Collision_energy: 40
Formula: C20H20O5
MW: 340
ExactMass: 340.13107374
Comments: "cas number=53846-50-7" "SMILES=CC(=CCc1c(cc(c2c1O[C@@H](CC2=O)c3ccc(cc3)O)O)O)C" "InChI=InChI=1S/C20H20O5/c1-11(2)3-8-14-15(22)9-16(23)19-17(24)10-18(25-20(14)19)12-4-6-13(21)7-5-12/h3-7,9,18,21-23H,8,10H2,1-2H3/t18-/m0/s1" "computed SMILES=O=C1C2=C(O)C=C(O)C(=C2OC(C3=CC=C(O)C=C3)C1)CC=C(C)C" "license=License CC-BY-NC-SA 4.0 International" "author=Plant Biology, The Noble Foundation, Ardmore, OK, US/Dennis Fine, Daniel Wherritt, and Lloyd Sumner" "ionization=ESI" "isolation width=5" "collision gas=Nitrogen" "peak width=0.017" "date=2013-11-16 00:25:35+01:00" "column=Waters Acquity BEH C18 1.7um x 2.1 x 150 mm" "retention time=952.8" "raw data file=C:\Data\Confirmed Standards\Confirmed stds MSMS 14Nov13\8-Prenylnaringenin MSMS v47.d" "computed mass accuracy=70.17912120307754" "computed mass error=-0.023797739999963596" "SPLASH=splash10-014i-0900000000-b82e4dee810c10665056" "submitter=Aiko Barsch (Bruker)" "MoNA Rating=4.545454545454546"
Num Peaks: 16
109.0679 4.204204
117.0366 2.802803
119.0517 100.000000
120.0537 5.805806
129.0735 2.102102
131.0876 5.005005
133.0662 24.624625
134.0659 3.803804
136.0164 2.802803
147.0774 2.002002
148.0182 2.502503
151.0780 6.906907
175.0741 3.803804
176.0148 7.507508
219.0694 9.209209
233.0848 2.202202


Name: 8-Prenylnaringenin
Synon: $:00in-source
DB#: MetaboBASE0002
InChIKey: LPEPZZAVFJPLNZ-SFHVURJKSA-N
Precursor_type: [M-H]-
Spectrum_type: MS2
PrecursorMZ: 339.1281
Instrument_type: LC-ESI-TOF
Instrument: impact HD
Ion_mode: N
Collision_energy: 20
Formula: C20H20O5
MW: 340
ExactMass: 340.13107374
Comments: "cas number=53846-50-7" "SMILES=CC(=CCc1c(cc(c2c1O[C@@H](CC2=O)c3ccc(cc3)O)O)O)C" "InChI=InChI=1S/C20H20O5/c1-11(2)3-8-14-15(22)9-16(23)19-17(24)10-18(25-20(14)19)12-4-6-13(21)7-5-12/h3-7,9,18,21-23H,8,10H2,1-2H3/t18-/m0/s1" "computed SMILES=O=C1C2=C(O)C=C(O)C(=C2OC(C3=CC=C(O)C=C3)C1)CC=C(C)C" "license=License CC-BY-NC-SA 4.0 International" "author=Plant Biology, The Noble Foundation, Ardmore, OK, US/Dennis Fine, Daniel Wherritt, and Lloyd Sumner" "ionization=ESI" "isolation width=5" "collision gas=Nitrogen" "peak width=0.013" "date=2013-11-16 00:25:35+01:00" "column=Waters Acquity BEH C18 1.7um x 2.1 x 150 mm" "retention time=952.8" "raw data file=C:\Data\Confirmed Standards\Confirmed stds MSMS 14Nov13\8-Prenylnaringenin MSMS v47.d" "computed mass accuracy=12.686238622017198" "computed mass error=0.0043022600000313105" "SPLASH=splash10-000i-0039000000-1a68000feccaaebcdb67" "submitter=Aiko Barsch (Bruker)" "MoNA Rating=4.545454545454546"
Num Peaks: 8
119.0516 9.409409
219.0694 28.428428
220.0725 3.603604
233.0859 3.003003
245.0850 4.504505
339.1281 100.000000
340.1314 14.414414
341.1337 2.502503


Name: 8-Prenylnaringenin
Synon: $:00in-source
DB#: MetaboBASE0003
InChIKey: LPEPZZAVFJPLNZ-SFHVURJKSA-N
Precursor_type: [M-H]-
Spectrum_type: MS2
PrecursorMZ: 339.1283
Instrument_type: LC-ESI-TOF
Instrument: impact HD
Ion_mode: N
Collision_energy: 10
Formula: C20H20O5
MW: 340
ExactMass: 340.13107374
Comments: "cas number=53846-50-7" "SMILES=CC(=CCc1c(cc(c2c1O[C@@H](CC2=O)c3ccc(cc3)O)O)O)C" "InChI=InChI=1S/C20H20O5/c1-11(2)3-8-14-15(22)9-16(23)19-17(24)10-18(25-20(14)19)12-4-6-13(21)7-5-12/h3-7,9,18,21-23H,8,10H2,1-2H3/t18-/m0/s1" "computed SMILES=O=C1C2=C(O)C=C(O)C(=C2OC(C3=CC=C(O)C=C3)C1)CC=C(C)C" "license=License CC-BY-NC-SA 4.0 International" "author=Plant Biology, The Noble Foundation, Ardmore, OK, US/Dennis Fine, Daniel Wherritt, and Lloyd Sumner" "ionization=ESI" "isolation width=5" "collision gas=Nitrogen" "peak width=0.0094" "date=2013-11-16 00:25:35+01:00" "column=Waters Acquity BEH C18 1.7um x 2.1 x 150 mm" "retention time=952.8" "raw data file=C:\Data\Confirmed Standards\Confirmed stds MSMS 14Nov13\8-Prenylnaringenin MSMS v47.d" "computed mass accuracy=13.275978442489022" "computed mass error=0.00450226000003795" "SPLASH=splash10-000i-0009000000-511c5eba590f52e7c5ac" "submitter=Aiko Barsch (Bruker)" "MoNA Rating=3.846153846153846"
Num Peaks: 2
339.1283 100.000000
340.1317 11.811812


Name: 8-Prenylnaringenin
Synon: $:00in-source
DB#: MetaboBASE0004
InChIKey: LPEPZZAVFJPLNZ-SFHVURJKSA-N
Precursor_type: [M-H]-
Spectrum_type: MS2
PrecursorMZ: 339.1277
Instrument_type: LC-ESI-TOF
Instrument: impact HD
Ion_mode: N
Collision_energy: 30
Formula: C20H20O5
MW: 340
ExactMass: 340.13107374
Comments: "cas number=53846-50-7" "SMILES=CC(=CCc1c(cc(c2c1O[C@@H](CC2=O)c3ccc(cc3)O)O)O)C" "InChI=InChI=1S/C20H20O5/c1-11(2)3-8-14-15(22)9-16(23)19-17(24)10-18(25-20(14)19)12-4-6-13(21)7-5-12/h3-7,9,18,21-23H,8,10H2,1-2H3/t18-/m0/s1" "computed SMILES=O=C1C2=C(O)C=C(O)C(=C2OC(C3=CC=C(O)C=C3)C1)CC=C(C)C" "license=License CC-BY-NC-SA 4.0 International" "author=Plant Biology, The Noble Foundation, Ardmore, OK, US/Dennis Fine, Daniel Wherritt, and Lloyd Sumner" "ionization=ESI" "isolation width=5" "collision gas=Nitrogen" "peak width=0.016" "date=2013-11-16 00:25:35+01:00" "column=Waters Acquity BEH C18 1.7um x 2.1 x 150 mm" "retention time=952.8" "raw data file=C:\Data\Confirmed Standards\Confirmed stds MSMS 14Nov13\8-Prenylnaringenin MSMS v47.d" "computed mass accuracy=11.506756894285049" "computed mass error=0.003902260000018032" "SPLASH=splash10-014i-0930000000-4487926a00e47414c95a" "submitter=Aiko Barsch (Bruker)" "MoNA Rating=4.545454545454546"
Num Peaks: 18
119.0516 100.000000
120.0553 7.307307
131.0880 4.304304
133.0678 24.724725
134.0715 2.902903
137.0252 2.502503
145.0341 2.302302
151.0777 12.012012
164.0146 2.402402
175.0784 9.209209
176.0132 9.609610
177.0266 2.302302
191.0731 2.902903
219.0692 52.352352
220.0732 5.605606
233.0851 6.506507
245.0863 4.704705
339.1277 6.906907


Name: 1,8,9-Anthracenetriol
Synon: $:00in-source
DB#: MetaboBASE0005
InChIKey: YUTJCNNFTOIOGT-UHFFFAOYSA-N
Spectrum_type: MS2
PrecursorMZ: 449.1028
Instrument_type: LC-ESI-TOF
Instrument: impact HD
Ion_mode: N
Collision_energy: 10
Formula: C14H10O3
MW: 226
ExactMass: 226.06299417999998
Comments: "cas number=480-22-8" "SMILES=c1cc2cc3cccc(c3c(c2c(c1)O)O)O" "InChI=InChI=1S/C14H10O3/c15-10-5-1-3-8-7-9-4-2-6-11(16)13(9)14(17)12(8)10/h1-7,15-17H" "computed SMILES=OC1=CC=CC=2C=C3C=CC=C(O)C3=C(O)C12" "license=License CC-BY-NC-SA 4.0 International" "author=Plant Biology, The Noble Foundation, Ardmore, OK, US/Dennis Fine, Daniel Wherritt, and Lloyd Sumner" "ionization=ESI" "isolation width=5" "collision gas=Nitrogen" "peak width=0.017" "date=2014-07-26 01:11:21+02:00" "column=Waters Acquity BEH C18 1.7um x 2.1 x 150 mm" "retention time=819" "raw data file=C:\Data\Confirmed standards 24_July_2014\MSMS\1,8,9-Anthracenetriol vial 28_1-A,4_01_484.d" "SPLASH=splash10-0002-0000900000-9f3e2937c51d6775e3c5" "submitter=Aiko Barsch (Bruker)" "MoNA Rating=3.125"
Num Peaks: 5
224.0434 2.802803
242.9399 1.701702
449.1028 100.000000
450.1069 29.829830
451.1076 2.402402


Name: 1,8,9-Anthracenetriol
Synon: $:00in-source
DB#: MetaboBASE0006
InChIKey: YUTJCNNFTOIOGT-UHFFFAOYSA-N
Spectrum_type: MS2
PrecursorMZ: 449.1017
Instrument_type: LC-ESI-TOF
Instrument: impact HD
Ion_mode: N
Collision_energy: 30
Formula: C14H10O3
MW: 226
ExactMass: 226.06299417999998
Comments: "cas number=480-22-8" "SMILES=c1cc2cc3cccc(c3c(c2c(c1)O)O)O" "InChI=InChI=1S/C14H10O3/c15-10-5-1-3-8-7-9-4-2-6-11(16)13(9)14(17)12(8)10/h1-7,15-17H" "computed SMILES=OC1=CC=CC=2C=C3C=CC=C(O)C3=C(O)C12" "license=License CC-BY-NC-SA 4.0 International" "author=Plant Biology, The Noble Foundation, Ardmore, OK, US/Dennis Fine, Daniel Wherritt, and Lloyd Sumner" "ionization=ESI" "isolation width=5" "collision gas=Nitrogen" "peak width=0.016" "date=2014-07-26 01:11:21+02:00" "column=Waters Acquity BEH C18 1.7um x 2.1 x 150 mm" "retention time=819" "raw data file=C:\Data\Confirmed standards 24_July_2014\MSMS\1,8,9-Anthracenetriol vial 28_1-A,4_01_484.d" "SPLASH=splash10-0002-0000900000-446b7a0f78daebb78c02" "submitter=Aiko Barsch (Bruker)" "MoNA Rating=3.125"
Num Peaks: 9
174.9512 1.401401
224.0438 11.111111
225.0477 3.003003
431.0919 2.602603
432.0993 1.401401
448.0937 6.206206
449.1017 100.000000
450.1050 35.235235
451.1061 2.302302


Name: 1,8,9-Anthracenetriol
Synon: $:00in-source
DB#: MetaboBASE0007
InChIKey: YUTJCNNFTOIOGT-UHFFFAOYSA-N
Spectrum_type: MS2
PrecursorMZ: 449.1031
Instrument_type: LC-ESI-TOF
Instrument: impact HD
Ion_mode: N
Collision_energy: 20
Formula: C14H10O3
MW: 226
ExactMass: 226.06299417999998
Comments: "cas number=480-22-8" "SMILES=c1cc2cc3cccc(c3c(c2c(c1)O)O)O" "InChI=InChI=1S/C14H10O3/c15-10-5-1-3-8-7-9-4-2-6-11(16)13(9)14(17)12(8)10/h1-7,15-17H" "computed SMILES=OC1=CC=CC=2C=C3C=CC=C(O)C3=C(O)C12" "license=License CC-BY-NC-SA 4.0 International" "author=Plant Biology, The Noble Foundation, Ardmore, OK, US/Dennis Fine, Daniel Wherritt, and Lloyd Sumner" "ionization=ESI" "isolation width=5" "collision gas=Nitrogen" "peak width=0.016" "date=2014-07-26 01:11:21+02:00" "column=Waters Acquity BEH C18 1.7um x 2.1 x 150 mm" "retention time=819" "raw data file=C:\Data\Confirmed standards 24_July_2014\MSMS\1,8,9-Anthracenetriol vial 28_1-A,4_01_484.d" "SPLASH=splash10-0002-0000900000-b9dade3ad17712ada0ba" "submitter=Aiko Barsch (Bruker)" "MoNA Rating=3.125"
Num Peaks: 5
224.0430 5.505506
242.9401 1.501502
449.1031 100.000000
450.1054 29.429429
451.1093 3.103103


Name: 1,8,9-Anthracenetriol
Synon: $:00in-source
DB#: MetaboBASE0008
InChIKey: YUTJCNNFTOIOGT-UHFFFAOYSA-N
Instrument_type: LC-ESI-TOF
Instrument: impact HD
Ion_mode: N
Formula: C14H10O3
MW: 226
ExactMass: 226.06299417999998
Comments: "cas number=480-22-8" "SMILES=c1cc2cc3cccc(c3c(c2c(c1)O)O)O" "InChI=InChI=1S/C14H10O3/c15-10-5-1-3-8-7-9-4-2-6-11(16)13(9)14(17)12(8)10/h1-7,15-17H" "computed SMILES=OC1=CC=CC=2C=C3C=CC=C(O)C3=C(O)C12" "license=License CC-BY-NC-SA 4.0 International" "author=Plant Biology, The Noble Foundation, Ardmore, OK, US/Dennis Fine, Daniel Wherritt, and Lloyd Sumner" "ionization=ESI" "collision gas=Nitrogen" "peak width=0.012" "date=2013-06-22 20:05:13+02:00" "column=Waters Acquity BEH C18 1.7um x 2.1 x 150 mm" "retention time=819" "raw data file=D:\Data\Confirmed Standards\1,8,9-Anthracenetriol.d" "SPLASH=splash10-00di-0090000000-58786da83aea763f1691" "submitter=Aiko Barsch (Bruker)" "MoNA Rating=3.888888888888889"
Num Peaks: 10
221.0505 0.400400
223.0300 100.000000
224.0305 22.422422
225.0277 13.713714
226.0279 2.002002
227.0250 0.600601
239.0610 0.400400
241.0402 0.900901
242.0409 0.200200
294.9965 0.200200


Name: 1,8,9-Anthracenetriol
Synon: $:00in-source
DB#: MetaboBASE0009
InChIKey: YUTJCNNFTOIOGT-UHFFFAOYSA-N
Spectrum_type: MS2
PrecursorMZ: 448.0945
Instrument_type: LC-ESI-TOF
Instrument: impact HD
Ion_mode: N
Collision_energy: 50
Formula: C14H10O3
MW: 226
ExactMass: 226.06299417999998
Comments: "cas number=480-22-8" "SMILES=c1cc2cc3cccc(c3c(c2c(c1)O)O)O" "InChI=InChI=1S/C14H10O3/c15-10-5-1-3-8-7-9-4-2-6-11(16)13(9)14(17)12(8)10/h1-7,15-17H" "computed SMILES=OC1=CC=CC=2C=C3C=CC=C(O)C3=C(O)C12" "license=License CC-BY-NC-SA 4.0 International" "author=Plant Biology, The Noble Foundation, Ardmore, OK, US/Dennis Fine, Daniel Wherritt, and Lloyd Sumner" "ionization=ESI" "isolation width=5" "collision gas=Nitrogen" "peak width=0.016" "date=2014-07-26 01:11:21+02:00" "column=Waters Acquity BEH C18 1.7um x 2.1 x 150 mm" "retention time=819" "raw data file=C:\Data\Confirmed standards 24_July_2014\MSMS\1,8,9-Anthracenetriol vial 28_1-A,4_01_484.d" "SPLASH=splash10-0002-0030900000-57af84ac9eda79ceeb92" "submitter=Aiko Barsch (Bruker)" "MoNA Rating=3.125"
Num Peaks: 22
224.0439 51.551552
225.0496 38.738739
226.0538 3.803804
227.0313 9.009009
228.0375 3.403403
327.0652 3.603604
329.0796 2.902903
401.0840 2.702703
403.0973 4.304304
419.0878 4.204204
420.0982 3.303303
427.0615 3.203203
429.0746 9.209209
430.0814 9.509510
431.0845 9.809810
432.0987 26.526527
433.0988 6.706707
446.0765 7.307307
447.0801 4.704705
448.0945 100.000000
449.1013 50.350350
450.1072 7.207207


Name: 1,8,9-Anthracenetriol
Synon: $:00in-source
DB#: MetaboBASE0010
InChIKey: YUTJCNNFTOIOGT-UHFFFAOYSA-N
Spectrum_type: MS2
PrecursorMZ: 449.102
Instrument_type: LC-ESI-TOF
Instrument: impact HD
Ion_mode: N
Collision_energy: 40
Formula: C14H10O3
MW: 226
ExactMass: 226.06299417999998
Comments: "cas number=480-22-8" "SMILES=c1cc2cc3cccc(c3c(c2c(c1)O)O)O" "InChI=InChI=1S/C14H10O3/c15-10-5-1-3-8-7-9-4-2-6-11(16)13(9)14(17)12(8)10/h1-7,15-17H" "computed SMILES=OC1=CC=CC=2C=C3C=CC=C(O)C3=C(O)C12" "license=License CC-BY-NC-SA 4.0 International" "author=Plant Biology, The Noble Foundation, Ardmore, OK, US/Dennis Fine, Daniel Wherritt, and Lloyd Sumner" "ionization=ESI" "isolation width=5" "collision gas=Nitrogen" "peak width=0.018" "date=2014-07-26 01:11:21+02:00" "column=Waters Acquity BEH C18 1.7um x 2.1 x 150 mm" "retention time=819" "raw data file=C:\Data\Confirmed standards 24_July_2014\MSMS\1,8,9-Anthracenetriol vial 28_1-A,4_01_484.d" "SPLASH=splash10-0002-0020900000-2dbcc5b06309066d63b5" "submitter=Aiko Barsch (Bruker)" "MoNA Rating=3.125"
Num Peaks: 12
224.0430 30.730731
225.0502 13.613614
421.1082 2.102102
429.0790 3.803804
430.0848 3.703704
431.0927 5.205205
432.0995 9.709710
433.1024 2.802803
448.0947 40.340340
449.1020 100.000000
450.1077 27.727728
451.1123 2.102102


Name: Chrysin
Synon: $:00in-source
DB#: MetaboBASE0011
InChIKey: RTIXKCRFFJGDFG-UHFFFAOYSA-N
Instrument_type: LC-ESI-TOF
Instrument: impact HD
Ion_mode: N
Formula: C15H10O4
MW: 254
ExactMass: 254.0579088
Comments: "cas number=480-40-0" "SMILES=c1ccc(cc1)c2cc(=O)c3c(cc(cc3o2)O)O" "InChI=InChI=1S/C15H10O4/c16-10-6-11(17)15-12(18)8-13(19-14(15)7-10)9-4-2-1-3-5-9/h1-8,16-17H" "computed SMILES=O=C1C=C(OC=2C=C(O)C=C(O)C12)C=3C=CC=CC3" "license=License CC-BY-NC-SA 4.0 International" "author=Plant Biology, The Noble Foundation, Ardmore, OK, US/Dennis Fine, Daniel Wherritt, and Lloyd Sumner" "ionization=ESI" "collision gas=Nitrogen" "peak width=0.0067" "date=2013-06-22 02:20:10+02:00" "column=Waters Acquity BEH C18 1.7um x 2.1 x 150 mm" "retention time=835.2" "raw data file=D:\Data\Confirmed Standards\Chrysin (Vial 1).d" "SPLASH=splash10-0udi-0090000000-2f6b543a5679e285552a" "submitter=Aiko Barsch (Bruker)" "MoNA Rating=3.888888888888889"
Num Peaks: 5
253.0557 100.000000
253.5722 0.200200
254.0578 9.509510
255.0598 1.401401
507.1156 0.400400


Name: Chrysin
Synon: $:00in-source
DB#: MetaboBASE0012
InChIKey: RTIXKCRFFJGDFG-UHFFFAOYSA-N
Precursor_type: [M-H]-
Spectrum_type: MS2
PrecursorMZ: 253.052
Instrument_type: LC-ESI-TOF
Instrument: impact HD
Ion_mode: N
Collision_energy: 26.25
Formula: C15H10O4
MW: 254
ExactMass: 254.0579088
Comments: "cas number=480-40-0" "SMILES=c1ccc(cc1)c2cc(=O)c3c(cc(cc3o2)O)O" "InChI=InChI=1S/C15H10O4/c16-10-6-11(17)15-12(18)8-13(19-14(15)7-10)9-4-2-1-3-5-9/h1-8,16-17H" "computed SMILES=O=C1C=C(OC=2C=C(O)C=C(O)C12)C=3C=CC=CC3" "license=License CC-BY-NC-SA 4.0 International" "author=Plant Biology, The Noble Foundation, Ardmore, OK, US/Dennis Fine, Daniel Wherritt, and Lloyd Sumner" "ionization=ESI" "collision gas=Nitrogen" "collision energy 2=43.75" "peak width=0.0054" "date=2013-07-01 17:46:22+02:00" "column=Waters Acquity BEH C18 1.7um x 2.1 x 150 mm" "retention time=835.424" "raw data file=D:\Data\Confirmed Standards\MSMS confirmed standards\Chrysin (Vial 1) MSMS_1115.d" "computed mass accuracy=5.402842103503667" "computed mass error=0.00136719999997581" "SPLASH=splash10-0udi-0290000000-bdd70471bc805c9009b2" "submitter=Aiko Barsch (Bruker)" "MoNA Rating=4.545454545454546"
Num Peaks: 71
101.0396 0.100100
107.0136 0.900901
108.0160 0.200200
115.0541 0.800801
117.0329 0.300300
119.0496 2.102102
120.0536 0.200200
121.0288 0.200200
125.0386 0.100100
127.0518 0.100100
129.0381 0.100100
129.0757 0.100100
139.0547 0.300300
140.0585 0.100100
141.0317 0.100100
141.0725 0.100100
143.0499 7.907908
144.0539 0.900901
145.0292 4.304304
145.0580 0.100100
146.0325 0.300300
148.0160 0.500501
149.0184 0.100100
151.0032 1.401401
152.0049 0.200200
152.0649 0.100100
153.0704 0.400400
154.0743 0.100100
155.0490 0.500501
156.0512 0.100100
157.0641 0.300300
165.0705 1.201201
166.0752 0.200200
167.0498 1.201201
168.0526 0.300300
169.0294 0.100100
169.0648 0.100100
171.0798 0.100100
180.0588 1.001001
181.0651 1.801802
182.0682 0.200200
183.0431 0.500501
184.0515 0.100100
185.0603 1.601602
186.0632 0.300300
187.0392 0.600601
188.0369 0.100100
191.0517 0.100100
196.0466 0.100100
197.0586 0.200200
208.0517 0.400400
209.0602 6.506507
210.0656 0.900901
211.0388 1.801802
211.0746 0.100100
212.0409 0.200200
224.0541 0.100100
225.0542 1.301301
226.0600 0.100100
252.2708 0.100100
252.5695 0.100100
252.6893 0.100100
252.7910 0.100100
252.9831 0.200200
253.0507 100.000000
254.0539 14.414414
255.0563 2.102102
255.6313 0.100100
256.0414 0.100100
256.0652 0.100100
256.9513 0.100100


Name: Chrysin
Synon: $:00in-source
DB#: MetaboBASE0013
InChIKey: RTIXKCRFFJGDFG-UHFFFAOYSA-N
Precursor_type: [M-H]-
Spectrum_type: MS2
PrecursorMZ: 253.055
Instrument_type: LC-ESI-TOF
Instrument: impact HD
Ion_mode: N
Collision_energy: 40
Formula: C15H10O4
MW: 254
ExactMass: 254.0579088
Comments: "cas number=480-40-0" "SMILES=c1ccc(cc1)c2cc(=O)c3c(cc(cc3o2)O)O" "InChI=InChI=1S/C15H10O4/c16-10-6-11(17)15-12(18)8-13(19-14(15)7-10)9-4-2-1-3-5-9/h1-8,16-17H" "computed SMILES=O=C1C=C(OC=2C=C(O)C=C(O)C12)C=3C=CC=CC3" "license=License CC-BY-NC-SA 4.0 International" "author=Plant Biology, The Noble Foundation, Ardmore, OK, US/Dennis Fine, Daniel Wherritt, and Lloyd Sumner" "ionization=ESI" "collision gas=Nitrogen" "collision energy 2=40" "peak width=0.022" "date=2013-07-31 20:45:23+02:00" "column=Waters Acquity BEH C18 1.7um x 2.1 x 150 mm" "retention time=836.256" "raw data file=D:\Data\Confirmed Standards\Reanalyzed MRM multiple CID\Chrysin (Vial 1).d" "computed mass accuracy=17.25790835980374" "computed mass error=0.0043671999999901345" "SPLASH=splash10-0fr6-0900000000-eee4ea35750adc10ef1b" "submitter=Aiko Barsch (Bruker)" "MoNA Rating=4.545454545454546"
Num Peaks: 38
101.0413 40.040040
107.0154 34.034034
108.0198 2.502503
115.0573 17.917918
117.0357 8.208208
119.0523 64.764765
120.0252 2.402402
120.0553 3.903904
121.0330 6.606607
127.0577 2.102102
139.0571 2.602603
141.0353 4.004004
141.0724 1.801802
143.0527 100.000000
144.0555 8.308308
145.0319 46.546547
146.0348 2.602603
148.0184 2.202202
151.0070 11.211211
151.0597 2.002002
153.0721 4.204204
155.0532 5.505506
156.0543 1.801802
157.0691 4.704705
165.0745 10.110110
167.0556 8.408408
169.0336 2.302302
169.0736 2.002002
180.0617 3.003003
181.0677 6.706707
183.0497 2.902903
185.0617 3.403403
197.0643 2.602603
208.0568 1.901902
209.0609 7.007007
253.0546 20.320320
254.0570 4.704705
255.0592 1.901902


Name: Catechin
Synon: $:00in-source
DB#: MetaboBASE0014
InChIKey: PFTAWBLQPZVEMU-DZGCQCFKSA-N
Instrument_type: LC-ESI-TOF
Instrument: impact HD
Ion_mode: N
Collision_energy: 10
Formula: C15H14O6
MW: 290
ExactMass: 290.07903816799995
Comments: "cas number=154-23-4" "SMILES=c1cc(c(cc1[C@@H]2[C@H](Cc3c(cc(cc3O2)O)O)O)O)O" "InChI=InChI=1S/C15H14O6/c16-8-4-11(18)9-6-13(20)15(21-14(9)5-8)7-1-2-10(17)12(19)3-7/h1-5,13,15-20H,6H2/t13-,15+/m0/s1" "computed SMILES=OC=1C=C(O)C2=C(OC(C3=CC=C(O)C(O)=C3)C(O)C2)C1" "computed InChI=InChI=1S/C15H14O6/c16-8-4-11(18)9-6-13(20)15(21-14(9)5-8)7-1-2-10(17)12(19)3-7/h1-5,13,15-20H,6H2" "license=License CC-BY-NC-SA 4.0 International" "author=Plant Biology, The Noble Foundation, Ardmore, OK, US/Dennis Fine, Daniel Wherritt, and Lloyd Sumner" "ionization=ESI" "collision gas=Nitrogen" "peak width=0.014" "date=2013-11-19 09:46:44+01:00" "column=Waters Acquity BEH C18 1.7um x 2.1 x 150 mm" "retention time=123" "raw data file=C:\Data\Confirmed Standards\Confirmed stds MSMS 14Nov13\Catechin (vial 166).d" "SPLASH=splash10-000i-0090010000-6ebf1de8cc1ea492a630" "submitter=Aiko Barsch (Bruker)" "MoNA Rating=4.444444444444445"
Num Peaks: 12
245.0811 6.506507
259.0600 1.001001
287.0554 9.309309
288.0585 1.301301
289.0713 100.000000
290.0744 12.412412
291.0762 1.301301
577.1353 5.805806
578.1381 1.601602
579.1503 10.010010
580.1538 2.802803
867.2137 1.401401


Name: Catechin
Synon: $:00in-source
DB#: MetaboBASE0015
InChIKey: PFTAWBLQPZVEMU-DZGCQCFKSA-N
Precursor_type: [M-H]-
Spectrum_type: MS2
PrecursorMZ: 289.0769
Instrument_type: LC-ESI-TOF
Instrument: impact HD
Ion_mode: N
Collision_energy: 20
Formula: C15H14O6
MW: 290
ExactMass: 290.07903816799995
Comments: "cas number=154-23-4" "SMILES=c1cc(c(cc1[C@@H]2[C@H](Cc3c(cc(cc3O2)O)O)O)O)O" "InChI=InChI=1S/C15H14O6/c16-8-4-11(18)9-6-13(20)15(21-14(9)5-8)7-1-2-10(17)12(19)3-7/h1-5,13,15-20H,6H2/t13-,15+/m0/s1" "computed SMILES=OC=1C=C(O)C2=C(OC(C3=CC=C(O)C(O)=C3)C(O)C2)C1" "computed InChI=InChI=1S/C15H14O6/c16-8-4-11(18)9-6-13(20)15(21-14(9)5-8)7-1-2-10(17)12(19)3-7/h1-5,13,15-20H,6H2" "license=License CC-BY-NC-SA 4.0 International" "author=Plant Biology, The Noble Foundation, Ardmore, OK, US/Dennis Fine, Daniel Wherritt, and Lloyd Sumner" "ionization=ESI" "collision gas=Nitrogen" "collision energy 2=20" "peak width=0.015" "date=2013-07-31 21:26:16+02:00" "column=Waters Acquity BEH C18 1.7um x 2.1 x 150 mm" "retention time=120.152" "raw data file=D:\Data\Confirmed Standards\Reanalyzed MRM multiple CID\Catechin (vial 2).d" "computed mass accuracy=17.77323611834588" "computed mass error=0.005137832000059461" "SPLASH=splash10-052k-0960000000-77945100b7a1f6311aea" "submitter=Aiko Barsch (Bruker)" "MoNA Rating=4.545454545454546"
Num Peaks: 35
95.0532 12.512513
97.0310 30.630631
108.0602 9.309309
109.0320 67.067067
110.0333 12.112112
121.0308 12.112112
123.0488 22.822823
125.0283 68.368368
135.0468 8.808809
137.0268 55.555556
139.0485 9.909910
149.0274 48.248248
150.0355 17.017017
151.0426 31.631632
159.0471 10.310310
160.0524 12.912913
163.0447 12.712713
167.0403 11.611612
175.0474 17.417417
179.0395 16.116116
188.0492 10.810811
189.0591 13.313313
199.0565 10.110110
203.0748 22.022022
205.0543 29.929930
215.0798 9.509510
221.0860 29.529530
227.0771 28.428428
229.0572 9.309309
245.0856 100.000000
246.0900 15.515516
247.0674 12.512513
271.0620 8.608609
289.0769 84.284284
290.0836 8.808809


Name: Catechin
Synon: $:00in-source
DB#: MetaboBASE0016
InChIKey: PFTAWBLQPZVEMU-DZGCQCFKSA-N
Instrument_type: LC-ESI-TOF
Instrument: impact HD
Ion_mode: N
Formula: C15H14O6
MW: 290
ExactMass: 290.079038168
Comments: "cas number=154-23-4" "SMILES=c1cc(c(cc1[C@@H]2[C@H](Cc3c(cc(cc3O2)O)O)O)O)O" "InChI=InChI=1S/C15H14O6/c16-8-4-11(18)9-6-13(20)15(21-14(9)5-8)7-1-2-10(17)12(19)3-7/h1-5,13,15-20H,6H2/t13-,15+/m0/s1" "computed SMILES=OC=1C=C(O)C2=C(OC(C3=CC=C(O)C(O)=C3)C(O)C2)C1" "computed InChI=InChI=1S/C15H14O6/c16-8-4-11(18)9-6-13(20)15(21-14(9)5-8)7-1-2-10(17)12(19)3-7/h1-5,13,15-20H,6H2" "license=License CC-BY-NC-SA 4.0 International" "author=Plant Biology, The Noble Foundation, Ardmore, OK, US/Dennis Fine, Daniel Wherritt, and Lloyd Sumner" "ionization=ESI" "collision gas=Nitrogen" "peak width=0.0094" "date=2013-06-22 03:01:08+02:00" "column=Waters Acquity BEH C18 1.7um x 2.1 x 150 mm" "retention time=122.4" "raw data file=D:\Data\Confirmed Standards\Catechin (vial 2).d" "SPLASH=splash10-000i-0090000000-25414078e505f0193624" "submitter=Aiko Barsch (Bruker)" "MoNA Rating=3.888888888888889"
Num Peaks: 102
109.0299 0.400400
121.0298 0.300300
123.0445 0.200200
125.0241 2.002002
135.0450 0.200200
137.0242 1.801802
149.0240 0.600601
150.0320 0.200200
151.0398 1.301301
159.0455 0.400400
161.0243 1.001001
161.0617 0.200200
164.0113 0.400400
165.0189 1.401401
166.0239 0.200200
167.0353 0.200200
173.0596 0.400400
175.0395 0.700701
176.0437 0.200200
177.0193 0.500501
177.0561 0.500501
179.0344 0.800801
183.0442 0.200200
187.0394 0.300300
188.0491 0.200200
189.0560 0.200200
199.0758 0.200200
201.0556 1.601602
202.0610 0.300300
203.0350 0.400400
203.0711 1.001001
205.0501 0.900901
215.0708 0.600601
217.0505 0.800801
217.0850 0.200200
218.0544 0.200200
219.0660 1.701702
220.0696 0.200200
221.0816 1.301301
222.0854 0.200200
225.0545 0.500501
227.0358 0.200200
227.0713 0.400400
241.0499 0.700701
243.0306 0.500501
243.0661 2.702703
244.0355 0.200200
244.0695 0.500501
245.0456 0.800801
245.0822 15.015015
246.0857 2.002002
247.0615 0.800801
247.0879 0.300300
258.0533 0.800801
259.0610 7.607608
260.0650 1.101101
261.0692 0.300300
269.0446 2.402402
270.0497 0.500501
271.0588 0.700701
285.0401 1.601602
286.0440 0.300300
287.0565 27.927928
288.0599 4.804805
289.0723 100.000000
290.0753 19.019019
291.0770 2.602603
292.0812 0.300300
295.0825 0.300300
303.0508 0.700701
305.0651 0.300300
309.0369 0.300300
311.0532 3.103103
312.0583 0.500501
323.0320 0.700701
325.0475 1.001001
326.0558 0.200200
327.0463 0.300300
341.9844 0.200200
342.9853 0.200200
344.9933 0.200200
347.0288 0.200200
355.0408 0.200200
357.0581 0.900901
358.0581 0.200200
371.0081 0.600601
373.0233 1.501502
374.0290 0.300300
379.0402 0.400400
386.9827 0.200200
387.9939 0.200200
388.9938 0.400400
390.0054 0.200200
395.0742 0.200200
401.0853 0.500501
417.0159 0.200200
423.0319 0.200200
425.0903 0.300300
431.9884 0.200200
432.0084 0.300300
433.9935 0.600601
437.0839 0.200200


Name: Catechin
Synon: $:00in-source
DB#: MetaboBASE0017
InChIKey: PFTAWBLQPZVEMU-DZGCQCFKSA-N
Precursor_type: [M-H]-
Spectrum_type: MS2
PrecursorMZ: 289.0712
Instrument_type: LC-ESI-TOF
Instrument: impact HD
Ion_mode: N
Collision_energy: 26.25
Formula: C15H14O6
MW: 290
ExactMass: 290.079038168
Comments: "cas number=154-23-4" "SMILES=c1cc(c(cc1[C@@H]2[C@H](Cc3c(cc(cc3O2)O)O)O)O)O" "InChI=InChI=1S/C15H14O6/c16-8-4-11(18)9-6-13(20)15(21-14(9)5-8)7-1-2-10(17)12(19)3-7/h1-5,13,15-20H,6H2/t13-,15+/m0/s1" "computed SMILES=OC=1C=C(O)C2=C(OC(C3=CC=C(O)C(O)=C3)C(O)C2)C1" "computed InChI=InChI=1S/C15H14O6/c16-8-4-11(18)9-6-13(20)15(21-14(9)5-8)7-1-2-10(17)12(19)3-7/h1-5,13,15-20H,6H2" "license=License CC-BY-NC-SA 4.0 International" "author=Plant Biology, The Noble Foundation, Ardmore, OK, US/Dennis Fine, Daniel Wherritt, and Lloyd Sumner" "ionization=ESI" "collision gas=Nitrogen" "collision energy 2=43.75" "peak width=0.0044" "date=2013-07-01 18:40:59+02:00" "column=Waters Acquity BEH C18 1.7um x 2.1 x 150 mm" "retention time=122.43" "raw data file=D:\Data\Confirmed Standards\MSMS confirmed standards\Catechin (vial 2) MSMS_1117.d" "computed mass accuracy=1.944738874175269" "computed mass error=-5.62168000044494E-4" "SPLASH=splash10-05fr-0920000000-e829a07f24435afac743" "submitter=Aiko Barsch (Bruker)" "MoNA Rating=4.583333333333334"
Num Peaks: 92
108.0197 8.008008
109.0288 100.000000
110.0372 7.407407
111.0044 3.303303
119.0469 3.303303
121.0284 27.427427
122.0362 24.724725
123.0120 2.702703
123.0452 73.973974
124.0143 2.302302
124.0496 6.906907
125.0243 69.669670
126.0231 2.102102
129.0360 1.801802
130.0444 2.602603
133.0310 5.605606
134.0428 2.002002
135.0442 11.311311
136.4176 2.202202
137.0236 57.757758
138.0302 4.704705
139.0404 4.804805
140.0430 2.102102
143.0496 3.103103
144.0549 2.402402
145.0262 5.405405
145.0656 3.703704
146.0360 4.304304
147.0439 4.504505
149.0247 36.636637
149.0560 3.103103
150.0315 14.714715
151.0404 44.044044
152.0368 3.103103
158.0357 2.202202
159.0461 18.118118
160.0520 2.302302
160.0774 2.302302
161.0241 20.720721
161.0596 16.816817
162.0301 9.709710
163.0377 4.804805
163.9969 2.102102
164.0109 13.113113
165.0181 16.116116
166.0256 4.104104
167.0372 2.802803
171.0446 4.104104
172.0513 2.802803
173.0597 9.709710
174.0354 5.105105
175.0414 23.723724
176.0428 7.407407
177.0154 4.204204
177.0536 6.006006
179.0314 2.702703
183.0460 3.303303
183.4565 2.202202
184.0552 3.203203
185.0600 7.707708
187.0407 14.214214
188.0479 11.211211
189.0562 1.801802
199.0402 3.103103
199.0738 2.302302
201.0552 8.608609
202.0583 7.607608
203.0317 3.103103
203.0710 32.032032
205.0502 12.912913
206.0486 2.802803
213.0560 2.202202
215.0748 3.303303
216.0483 1.901902
217.0852 3.203203
219.0623 4.204204
221.0808 31.131131
222.0898 3.903904
225.0588 2.402402
227.0388 2.102102
227.0706 7.007007
230.0560 4.104104
231.0302 4.004004
241.0496 3.803804
245.0470 4.604605
245.0802 16.916917
247.0618 4.904905
258.0485 2.002002
269.0422 4.304304
271.0598 3.703704
289.0707 5.305305
290.0764 2.302302


Name: 6-Hydroxyflavone
Synon: $:00in-source
DB#: MetaboBASE0018
InChIKey: GPZYYYGYCRFPBU-UHFFFAOYSA-N
Precursor_type: [M-H]-
Spectrum_type: MS2
PrecursorMZ: 237.0603
Instrument_type: LC-ESI-TOF
Instrument: impact HD
Ion_mode: N
Collision_energy: 30
Formula: C15H10O3
MW: 238
ExactMass: 238.06299417999998
Comments: "cas number=6665-83-4" "SMILES=c1ccc(cc1)c2cc(=O)c3cc(ccc3o2)O" "InChI=InChI=1S/C15H10O3/c16-11-6-7-14-12(8-11)13(17)9-15(18-14)10-4-2-1-3-5-10/h1-9,16H" "computed SMILES=O=C1C=C(OC2=CC=C(O)C=C12)C=3C=CC=CC3" "license=License CC-BY-NC-SA 4.0 International" "author=Plant Biology, The Noble Foundation, Ardmore, OK, US/Dennis Fine, Daniel Wherritt, and Lloyd Sumner" "ionization=ESI" "collision gas=Nitrogen" "collision energy 2=30" "peak width=0.025" "date=2013-08-01 16:09:45+02:00" "column=Waters Acquity BEH C18 1.7um x 2.1 x 150 mm" "retention time=749.932" "raw data file=D:\Data\Confirmed Standards\Reanalyzed MRM multiple CID\6-Hydroxyflavone (vial 3)_1327.d" "computed mass accuracy=19.327656296844882" "computed mass error=0.004581820000026937" "SPLASH=splash10-0006-0930000000-9a5e9a8c9af42c465df1" "submitter=Aiko Barsch (Bruker)" "MoNA Rating=4.545454545454546"
Num Peaks: 31
95.016 1.401401
101.042 28.028028
102.045 2.902903
107.016 7.107107
108.022 1.301301
125.027 2.902903
127.059 4.604605
135.012 4.904905
152.066 2.502503
153.074 7.207207
154.080 1.201201
160.019 3.203203
165.075 16.416416
166.078 2.702703
167.053 1.901902
171.084 1.701702
180.062 14.614615
181.069 12.112112
182.072 2.402402
193.070 100.000000
194.073 9.309309
195.051 2.002002
197.061 1.801802
207.048 1.301301
208.057 32.132132
209.064 17.117117
210.068 2.102102
235.045 6.606607
236.052 8.208208
237.060 11.911912
238.063 1.801802


Name: 6-Hydroxyflavone
Synon: $:00in-source
DB#: MetaboBASE0019
InChIKey: GPZYYYGYCRFPBU-UHFFFAOYSA-N
Precursor_type: [M-H]-
Spectrum_type: MS2
PrecursorMZ: 237.056
Instrument_type: LC-ESI-TOF
Instrument: impact HD
Ion_mode: N
Collision_energy: 26.25
Formula: C15H10O3
MW: 238
ExactMass: 238.06299417999998
Comments: "cas number=6665-83-4" "SMILES=c1ccc(cc1)c2cc(=O)c3cc(ccc3o2)O" "InChI=InChI=1S/C15H10O3/c16-11-6-7-14-12(8-11)13(17)9-15(18-14)10-4-2-1-3-5-10/h1-9,16H" "computed SMILES=O=C1C=C(OC2=CC=C(O)C=C12)C=3C=CC=CC3" "license=License CC-BY-NC-SA 4.0 International" "author=Plant Biology, The Noble Foundation, Ardmore, OK, US/Dennis Fine, Daniel Wherritt, and Lloyd Sumner" "ionization=ESI" "collision gas=Nitrogen" "collision energy 2=43.75" "peak width=0.01" "date=2013-07-01 19:21:39+02:00" "column=Waters Acquity BEH C18 1.7um x 2.1 x 150 mm" "retention time=746.028" "raw data file=D:\Data\Confirmed Standards\MSMS confirmed standards\6-Hydroxyflavone (vial 3) MSMS.d" "computed mass accuracy=1.1888330184694775" "computed mass error=2.818200000263005E-4" "SPLASH=splash10-052o-0960000000-ed74c8694ce764b239aa" "submitter=Aiko Barsch (Bruker)" "MoNA Rating=4.583333333333334"
Num Peaks: 55
101.0389 1.301301
107.0151 0.600601
108.0186 0.600601
115.0532 0.300300
117.0346 0.400400
123.0021 0.400400
127.0540 3.503504
128.0569 0.600601
132.0214 0.300300
135.0080 1.201201
136.0111 0.200200
139.0530 0.400400
151.0549 0.500501
152.0615 2.302302
153.0700 6.606607
154.0768 0.400400
155.0488 0.700701
155.7707 0.200200
160.0152 1.601602
164.0552 0.300300
165.0699 11.011011
166.0735 2.402402
167.0502 1.501502
169.0687 0.600601
171.0795 1.101101
179.0501 0.700701
180.0573 13.413413
180.6686 0.300300
181.0651 18.118118
182.0691 1.601602
183.0422 0.800801
183.0759 0.400400
193.0658 100.000000
194.0694 12.912913
194.6084 0.200200
195.0433 2.502503
195.0744 0.800801
197.0619 1.301301
199.0757 3.203203
200.0777 0.800801
207.0424 1.401401
208.0527 34.134134
209.0142 0.300300
209.0594 25.325325
209.5862 0.300300
210.0631 4.504505
211.0379 0.300300
211.0657 0.700701
225.0524 0.300300
226.0627 0.400400
235.0381 13.513514
236.0452 9.109109
237.0547 43.643644
238.0594 5.505506
239.0653 1.001001


Name: 6-Hydroxyflavone
Synon: $:00in-source
DB#: MetaboBASE0020
InChIKey: GPZYYYGYCRFPBU-UHFFFAOYSA-N
Instrument_type: LC-ESI-TOF
Instrument: impact HD
Ion_mode: N
Formula: C15H10O3
MW: 238
ExactMass: 238.06299417999998
Comments: "cas number=6665-83-4" "SMILES=c1ccc(cc1)c2cc(=O)c3cc(ccc3o2)O" "InChI=InChI=1S/C15H10O3/c16-11-6-7-14-12(8-11)13(17)9-15(18-14)10-4-2-1-3-5-10/h1-9,16H" "computed SMILES=O=C1C=C(OC2=CC=C(O)C=C12)C=3C=CC=CC3" "license=License CC-BY-NC-SA 4.0 International" "author=Plant Biology, The Noble Foundation, Ardmore, OK, US/Dennis Fine, Daniel Wherritt, and Lloyd Sumner" "ionization=ESI" "collision gas=Nitrogen" "peak width=0.0078" "date=2013-06-22 03:42:05+02:00" "column=Waters Acquity BEH C18 1.7um x 2.1 x 150 mm" "retention time=746.4" "raw data file=D:\Data\Confirmed Standards\6-Hydroxyflavone (vial 3).d" "SPLASH=splash10-000i-0090000000-603f7ec7cc7f636296e8" "submitter=Aiko Barsch (Bruker)" "MoNA Rating=3.888888888888889"
Num Peaks: 12
181.0658 0.400400
193.0662 2.302302
194.0691 0.400400
208.0533 0.600601
209.0609 1.301301
210.0648 0.200200
235.0401 0.900901
236.0475 0.600601
237.0578 100.000000
237.5575 0.200200
238.0598 14.114114
239.0622 1.601602


Name: 7-Hydroxyflavone
Synon: $:00in-source
DB#: MetaboBASE0021
InChIKey: MQGPSCMMNJKMHQ-UHFFFAOYSA-N
Precursor_type: [M-H]-
Spectrum_type: MS2
PrecursorMZ: 237.0601
Instrument_type: LC-ESI-TOF
Instrument: impact HD
Ion_mode: N
Collision_energy: 40
Formula: C15H10O3
MW: 238
ExactMass: 238.06299417999998
Comments: "cas number=6665-86-7" "SMILES=InChI=1S/C15H10O3/c16-11-6-7-12-13(17)9-14(18-15(12)8-11)10-4-2-1-3-5-10/h1-9,16H" "InChI=InChI=1S/C15H10O3/c16-11-6-7-12-13(17)9-14(18-15(12)8-11)10-4-2-1-3-5-10/h1-9,16H" "computed SMILES=O=C1C=C(OC2=CC(O)=CC=C12)C=3C=CC=CC3" "license=License CC-BY-NC-SA 4.0 International" "author=Plant Biology, The Noble Foundation, Ardmore, OK, US/Dennis Fine, Daniel Wherritt, and Lloyd Sumner" "ionization=ESI" "collision gas=Nitrogen" "collision energy 2=40" "peak width=0.026" "date=2013-08-01 16:50:37+02:00" "column=Waters Acquity BEH C18 1.7um x 2.1 x 150 mm" "retention time=674.776" "raw data file=D:\Data\Confirmed Standards\Reanalyzed MRM multiple CID\7-Hydroxyflavone (vial 4)_1328.d" "computed mass accuracy=18.484004689191888" "computed mass error=0.004381820000020298" "SPLASH=splash10-05n3-0930000000-35889f86ba649049bfcf" "submitter=Aiko Barsch (Bruker)" "MoNA Rating=4.545454545454546"
Num Peaks: 31
101.042 29.929930
103.020 12.212212
104.030 21.221221
115.021 8.908909
115.058 15.015015
117.036 25.325325
132.024 23.223223
135.010 54.654655
139.059 17.417417
143.053 37.637638
144.058 6.706707
145.032 6.506507
152.064 11.611612
153.021 8.608609
153.073 13.113113
160.018 7.007007
165.074 42.242242
166.078 7.407407
167.054 60.760761
168.055 7.407407
169.032 6.806807
180.062 65.765766
181.068 22.122122
193.069 53.353353
194.071 8.508509
195.051 6.306306
208.058 99.899900
209.063 22.422422
236.053 8.908909
237.060 100.000000
238.062 12.712713


Name: 7-Hydroxyflavone
Synon: $:00in-source
DB#: MetaboBASE0022
InChIKey: MQGPSCMMNJKMHQ-UHFFFAOYSA-N
Instrument_type: LC-ESI-TOF
Instrument: impact HD
Ion_mode: N
Formula: C15H10O3
MW: 238
ExactMass: 238.06299417999998
Comments: "cas number=6665-86-7" "SMILES=InChI=1S/C15H10O3/c16-11-6-7-12-13(17)9-14(18-15(12)8-11)10-4-2-1-3-5-10/h1-9,16H" "InChI=InChI=1S/C15H10O3/c16-11-6-7-12-13(17)9-14(18-15(12)8-11)10-4-2-1-3-5-10/h1-9,16H" "computed SMILES=O=C1C=C(OC2=CC(O)=CC=C12)C=3C=CC=CC3" "license=License CC-BY-NC-SA 4.0 International" "author=Plant Biology, The Noble Foundation, Ardmore, OK, US/Dennis Fine, Daniel Wherritt, and Lloyd Sumner" "ionization=ESI" "collision gas=Nitrogen" "peak width=0.01" "date=2013-06-22 04:23:03+02:00" "column=Waters Acquity BEH C18 1.7um x 2.1 x 150 mm" "retention time=673.8" "raw data file=D:\Data\Confirmed Standards\7-Hydroxyflavone (vial 4).d" "SPLASH=splash10-000i-0090000000-72f45ca43d18a42ef953" "submitter=Aiko Barsch (Bruker)" "MoNA Rating=3.888888888888889"
Num Peaks: 10
237.0573 100.000000
237.5565 0.400400
238.0590 18.918919
239.0615 2.102102
240.0635 0.200200
497.1007 1.201201
498.1031 0.400400
751.1280 0.300300
757.1459 0.600601
758.1485 0.300300


Name: 3-Hydroxyflavone
Synon: $:00in-source
DB#: MetaboBASE0023
InChIKey: HVQAJTFOCKOKIN-UHFFFAOYSA-N
Instrument_type: LC-ESI-TOF
Instrument: impact HD
Ion_mode: N
Formula: C15H10O3
MW: 238
ExactMass: 238.06299417999998
Comments: "cas number=577-85-5" "SMILES=c1ccc(cc1)c2c(c(=O)c3ccccc3o2)O" "InChI=InChI=1S/C15H10O3/c16-13-11-8-4-5-9-12(11)18-15(14(13)17)10-6-2-1-3-7-10/h1-9,17H" "computed SMILES=O=C1C(O)=C(OC=2C=CC=CC21)C=3C=CC=CC3" "license=License CC-BY-NC-SA 4.0 International" "author=Plant Biology, The Noble Foundation, Ardmore, OK, US/Dennis Fine, Daniel Wherritt, and Lloyd Sumner" "ionization=ESI" "collision gas=Nitrogen" "peak width=0.021" "date=2013-08-03 00:43:09+02:00" "column=Waters Acquity BEH C18 1.7um x 2.1 x 150 mm" "retention time=992.4" "raw data file=D:\Data\Confirmed Standards\3-Hydroxyflavone (vial 5)_1341.d" "SPLASH=splash10-000i-0090000000-cfa015b97699d9b8d3a9" "submitter=Aiko Barsch (Bruker)" "MoNA Rating=3.888888888888889"
Num Peaks: 11
180.0584 1.701702
181.0664 3.403403
197.0612 3.803804
209.0611 2.402402
237.0563 100.000000
238.0590 11.011011
239.0627 1.801802
295.0091 1.101101
305.0440 3.003003
338.9964 2.502503
367.0130 3.003003


Name: 3-Hydroxyflavone
Synon: $:00in-source
DB#: MetaboBASE0024
InChIKey: HVQAJTFOCKOKIN-UHFFFAOYSA-N
Precursor_type: [M-H]-
Spectrum_type: MS2
PrecursorMZ: 237.053
Instrument_type: LC-ESI-TOF
Instrument: impact HD
Ion_mode: N
Collision_energy: 10
Formula: C15H10O3
MW: 238
ExactMass: 238.06299417999998
Comments: "cas number=577-85-5" "SMILES=c1ccc(cc1)c2c(c(=O)c3ccccc3o2)O" "InChI=InChI=1S/C15H10O3/c16-13-11-8-4-5-9-12(11)18-15(14(13)17)10-6-2-1-3-7-10/h1-9,17H" "computed SMILES=O=C1C(O)=C(OC=2C=CC=CC21)C=3C=CC=CC3" "license=License CC-BY-NC-SA 4.0 International" "author=Plant Biology, The Noble Foundation, Ardmore, OK, US/Dennis Fine, Daniel Wherritt, and Lloyd Sumner" "ionization=ESI" "isolation width=5" "collision gas=Nitrogen" "peak width=0.017" "date=2014-07-25 23:08:34+02:00" "column=Waters Acquity BEH C18 1.7um x 2.1 x 150 mm" "retention time=992.4" "raw data file=C:\Data\Confirmed standards 24_July_2014\MSMS\3-Hydroflavone vial 5_1-A,1_01_481.d" "computed mass accuracy=11.466549674494836" "computed mass error=-0.002718179999988024" "SPLASH=splash10-000i-0090000000-372c492e8d989ae65894" "submitter=Aiko Barsch (Bruker)" "MoNA Rating=4.545454545454546"
Num Peaks: 5
181.0649 1.901902
209.0576 1.601602
237.0530 100.000000
238.0561 11.611612
239.0596 0.900901


Name: 3-Hydroxyflavone
Synon: $:00in-source
DB#: MetaboBASE0025
InChIKey: HVQAJTFOCKOKIN-UHFFFAOYSA-N
Precursor_type: [M-H]-
Spectrum_type: MS2
PrecursorMZ: 237.0526
Instrument_type: LC-ESI-TOF
Instrument: impact HD
Ion_mode: N
Collision_energy: 20
Formula: C15H10O3
MW: 238
ExactMass: 238.06299417999998
Comments: "cas number=577-85-5" "SMILES=c1ccc(cc1)c2c(c(=O)c3ccccc3o2)O" "InChI=InChI=1S/C15H10O3/c16-13-11-8-4-5-9-12(11)18-15(14(13)17)10-6-2-1-3-7-10/h1-9,17H" "computed SMILES=O=C1C(O)=C(OC=2C=CC=CC21)C=3C=CC=CC3" "license=License CC-BY-NC-SA 4.0 International" "author=Plant Biology, The Noble Foundation, Ardmore, OK, US/Dennis Fine, Daniel Wherritt, and Lloyd Sumner" "ionization=ESI" "isolation width=5" "collision gas=Nitrogen" "peak width=0.019" "date=2014-07-25 23:08:34+02:00" "column=Waters Acquity BEH C18 1.7um x 2.1 x 150 mm" "retention time=992.4" "raw data file=C:\Data\Confirmed standards 24_July_2014\MSMS\3-Hydroflavone vial 5_1-A,1_01_481.d" "computed mass accuracy=13.153958235315203" "computed mass error=-0.003118179999972881" "SPLASH=splash10-0019-0490000000-028720cf2dae809285c2" "submitter=Aiko Barsch (Bruker)" "MoNA Rating=4.545454545454546"
Num Peaks: 8
153.0698 6.006006
180.0574 29.429429
181.0642 49.649650
208.0516 9.109109
209.0557 31.231231
210.0598 5.505506
237.0526 100.000000
238.0546 12.612613


Name: 3-Hydroxyflavone
Synon: $:00in-source
DB#: MetaboBASE0026
InChIKey: HVQAJTFOCKOKIN-UHFFFAOYSA-N
Precursor_type: [M-H]-
Spectrum_type: MS2
PrecursorMZ: 237.06
Instrument_type: LC-ESI-TOF
Instrument: impact HD
Ion_mode: N
Collision_energy: 30
Formula: C15H10O3
MW: 238
ExactMass: 238.06299417999998
Comments: "cas number=577-85-5" "SMILES=c1ccc(cc1)c2c(c(=O)c3ccccc3o2)O" "InChI=InChI=1S/C15H10O3/c16-13-11-8-4-5-9-12(11)18-15(14(13)17)10-6-2-1-3-7-10/h1-9,17H" "computed SMILES=O=C1C(O)=C(OC=2C=CC=CC21)C=3C=CC=CC3" "license=License CC-BY-NC-SA 4.0 International" "author=Plant Biology, The Noble Foundation, Ardmore, OK, US/Dennis Fine, Daniel Wherritt, and Lloyd Sumner" "ionization=ESI" "isolation width=5" "collision gas=Nitrogen" "peak width=0.019" "date=2014-07-25 23:08:34+02:00" "column=Waters Acquity BEH C18 1.7um x 2.1 x 150 mm" "retention time=992.4" "raw data file=C:\Data\Confirmed standards 24_July_2014\MSMS\3-Hydroflavone vial 5_1-A,1_01_481.d" "computed mass accuracy=18.06217835154382" "computed mass error=0.004281820000016978" "SPLASH=splash10-001i-0910000000-637b7b8e665ded7f7238" "submitter=Aiko Barsch (Bruker)" "MoNA Rating=4.545454545454546"
Num Peaks: 6
117.0330 21.121121
153.0655 20.220220
165.0709 16.716717
180.0565 100.000000
181.0634 41.441441
209.0597 32.332332


Name: Naringenin
Synon: $:00in-source
DB#: MetaboBASE0027
InChIKey: FTVWIRXFELQLPI-ZDUSSCGKSA-N
Instrument_type: LC-ESI-TOF
Instrument: impact HD
Ion_mode: N
Formula: C15H12O5
MW: 272
ExactMass: 272.068473484
Comments: "cas number=480-41-1" "SMILES=c1cc(ccc1[C@@H]2CC(=O)c3c(cc(cc3O2)O)O)O" "InChI=InChI=1S/C15H12O5/c16-9-3-1-8(2-4-9)13-7-12(19)15-11(18)5-10(17)6-14(15)20-13/h1-6,13,16-18H,7H2/t13-/m0/s1" "computed SMILES=O=C1C=2C(O)=CC(O)=CC2OC(C3=CC=C(O)C=C3)C1" "synonym=4',5,7-Trihydroxyflavanone" "license=License CC-BY-NC-SA 4.0 International" "author=Plant Biology, The Noble Foundation, Ardmore, OK, US/Dennis Fine, Daniel Wherritt, and Lloyd Sumner" "ionization=ESI" "collision gas=Nitrogen" "peak width=0.012" "date=2013-06-22 05:44:59+02:00" "column=Waters Acquity BEH C18 1.7um x 2.1 x 150 mm" "retention time=555" "raw data file=D:\Data\Confirmed Standards\Quercetin (vial 6).d" "SPLASH=splash10-00di-0090000000-dae76236c5699dabc079" "submitter=Aiko Barsch (Bruker)" "MoNA Rating=3.888888888888889"
Num Peaks: 4
245.0453 27.127127
271.0621 100.000000
272.0647 27.827828
273.0667 6.206206


Name: Naringenin
Synon: $:00in-source
DB#: MetaboBASE0028
InChIKey: FTVWIRXFELQLPI-ZDUSSCGKSA-N
Precursor_type: [M-H]-
Spectrum_type: MS2
PrecursorMZ: 271.065
Instrument_type: LC-ESI-TOF
Instrument: impact HD
Ion_mode: N
Collision_energy: 25
Formula: C15H12O5
MW: 272
ExactMass: 272.068473484
Comments: "cas number=480-41-1" "SMILES=c1cc(ccc1[C@@H]2CC(=O)c3c(cc(cc3O2)O)O)O" "InChI=InChI=1S/C15H12O5/c16-9-3-1-8(2-4-9)13-7-12(19)15-11(18)5-10(17)6-14(15)20-13/h1-6,13,16-18H,7H2/t13-/m0/s1" "computed SMILES=O=C1C=2C(O)=CC(O)=CC2OC(C3=CC=C(O)C=C3)C1" "synonym=4',5,7-Trihydroxyflavanone" "license=License CC-BY-NC-SA 4.0 International" "author=Plant Biology, The Noble Foundation, Ardmore, OK, US/Dennis Fine, Daniel Wherritt, and Lloyd Sumner" "ionization=ESI" "collision gas=Nitrogen" "peak width=0.024" "date=2013-07-27 04:02:05+02:00" "column=Waters Acquity BEH C18 1.7um x 2.1 x 150 mm" "retention time=554.4" "raw data file=D:\Data\Confirmed Standards\Reanalyzed 7_26_13\Quercetin (vial 6).d" "computed mass accuracy=14.02805969050771" "computed mass error=0.003802516000007472" "SPLASH=splash10-0gb9-0900000000-5295f7ce31d20a80235c" "submitter=Aiko Barsch (Bruker)" "MoNA Rating=4.545454545454546"
Num Peaks: 13
107.014 25.725726
119.051 100.000000
120.055 5.005005
145.031 2.302302
151.005 74.674675
152.007 4.104104
161.062 2.602603
165.021 4.904905
169.015 2.102102
177.021 3.603604
187.043 2.602603
227.073 2.102102
271.065 7.207207


Name: Naringenin
Synon: $:00in-source
DB#: MetaboBASE0029
InChIKey: FTVWIRXFELQLPI-ZDUSSCGKSA-N
Instrument_type: LC-ESI-TOF
Instrument: impact HD
Ion_mode: N
Formula: C15H12O5
MW: 272
ExactMass: 272.068473484
Comments: "cas number=480-41-1" "SMILES=c1cc(ccc1[C@@H]2CC(=O)c3c(cc(cc3O2)O)O)O" "InChI=InChI=1S/C15H12O5/c16-9-3-1-8(2-4-9)13-7-12(19)15-11(18)5-10(17)6-14(15)20-13/h1-6,13,16-18H,7H2/t13-/m0/s1" "computed SMILES=O=C1C=2C(O)=CC(O)=CC2OC(C3=CC=C(O)C=C3)C1" "synonym=4',5,7-Trihydroxyflavanone" "license=License CC-BY-NC-SA 4.0 International" "author=Plant Biology, The Noble Foundation, Ardmore, OK, US/Dennis Fine, Daniel Wherritt, and Lloyd Sumner" "ionization=ESI" "collision gas=Nitrogen" "peak width=0.01" "date=2014-01-10 00:24:33+01:00" "column=Waters Acquity BEH C18 1.7um x 2.1 x 150 mm" "retention time=554.4" "raw data file=C:\Data\Confirmed Standards\14Jan9 Confirmed stds MSMS\ZLei_Std_Mix_30_Oct_13_2485.d" "SPLASH=splash10-00di-0090010000-5e9a02398f13b71eccfb" "submitter=Aiko Barsch (Bruker)" "MoNA Rating=3.888888888888889"
Num Peaks: 4
271.0621 100.000000
272.0650 15.315315
543.1308 10.010010
544.1337 2.802803


Name: Naringenin
Synon: $:00in-source
DB#: MetaboBASE0030
InChIKey: FTVWIRXFELQLPI-ZDUSSCGKSA-N
Precursor_type: [M-H]-
Spectrum_type: MS2
PrecursorMZ: 271.1
Instrument_type: LC-ESI-TOF
Instrument: impact HD
Ion_mode: N
Collision_energy: 40
Formula: C15H12O5
MW: 272
ExactMass: 272.068473484
Comments: "cas number=480-41-1" "SMILES=c1cc(ccc1[C@@H]2CC(=O)c3c(cc(cc3O2)O)O)O" "InChI=InChI=1S/C15H12O5/c16-9-3-1-8(2-4-9)13-7-12(19)15-11(18)5-10(17)6-14(15)20-13/h1-6,13,16-18H,7H2/t13-/m0/s1" "computed SMILES=O=C1C=2C(O)=CC(O)=CC2OC(C3=CC=C(O)C=C3)C1" "synonym=4',5,7-Trihydroxyflavanone" "license=License CC-BY-NC-SA 4.0 International" "author=Plant Biology, The Noble Foundation, Ardmore, OK, US/Dennis Fine, Daniel Wherritt, and Lloyd Sumner" "ionization=ESI" "isolation width=5" "collision gas=Nitrogen" "peak width=0.015" "date=2014-01-10 00:24:33+01:00" "column=Waters Acquity BEH C18 1.7um x 2.1 x 150 mm" "retention time=554.4" "raw data file=C:\Data\Confirmed Standards\14Jan9 Confirmed stds MSMS\ZLei_Std_Mix_30_Oct_13_2485.d" "computed mass accuracy=143.12990040587414" "computed mass error=0.03880251600003248" "SPLASH=splash10-014i-0900000000-cf1a906caa2c625f5426" "submitter=Aiko Barsch (Bruker)" "MoNA Rating=4.545454545454546"
Num Peaks: 6
107.0140 3.903904
117.0349 5.305305
119.0505 100.000000
120.0535 5.105105
151.0042 6.606607
187.0401 2.102102


Name: Naringenin
Synon: $:00in-source
DB#: MetaboBASE0031
InChIKey: FTVWIRXFELQLPI-ZDUSSCGKSA-N
Precursor_type: [M-H]-
Spectrum_type: MS2
PrecursorMZ: 271.062
Instrument_type: LC-ESI-TOF
Instrument: impact HD
Ion_mode: N
Collision_energy: 10
Formula: C15H12O5
MW: 272
ExactMass: 272.068473484
Comments: "cas number=480-41-1" "SMILES=c1cc(ccc1[C@@H]2CC(=O)c3c(cc(cc3O2)O)O)O" "InChI=InChI=1S/C15H12O5/c16-9-3-1-8(2-4-9)13-7-12(19)15-11(18)5-10(17)6-14(15)20-13/h1-6,13,16-18H,7H2/t13-/m0/s1" "computed SMILES=O=C1C=2C(O)=CC(O)=CC2OC(C3=CC=C(O)C=C3)C1" "synonym=4',5,7-Trihydroxyflavanone" "license=License CC-BY-NC-SA 4.0 International" "author=Plant Biology, The Noble Foundation, Ardmore, OK, US/Dennis Fine, Daniel Wherritt, and Lloyd Sumner" "ionization=ESI" "isolation width=5" "collision gas=Nitrogen" "peak width=0.0088" "date=2014-01-10 00:24:33+01:00" "column=Waters Acquity BEH C18 1.7um x 2.1 x 150 mm" "retention time=554.4" "raw data file=C:\Data\Confirmed Standards\14Jan9 Confirmed stds MSMS\ZLei_Std_Mix_30_Oct_13_2485.d" "computed mass accuracy=2.960636312067236" "computed mass error=8.025160000215692E-4" "SPLASH=splash10-00di-0090000000-8f18a8cf32f1d24745d1" "submitter=Aiko Barsch (Bruker)" "MoNA Rating=3.9285714285714284"
Num Peaks: 2
271.0620 100.000000
272.0649 9.909910


Name: Naringenin
Synon: $:00in-source
DB#: MetaboBASE0032
InChIKey: FTVWIRXFELQLPI-ZDUSSCGKSA-N
Precursor_type: [M-H]-
Spectrum_type: MS2
PrecursorMZ: 271.1
Instrument_type: LC-ESI-TOF
Instrument: impact HD
Ion_mode: N
Collision_energy: 30
Formula: C15H12O5
MW: 272
ExactMass: 272.068473484
Comments: "cas number=480-41-1" "SMILES=c1cc(ccc1[C@@H]2CC(=O)c3c(cc(cc3O2)O)O)O" "InChI=InChI=1S/C15H12O5/c16-9-3-1-8(2-4-9)13-7-12(19)15-11(18)5-10(17)6-14(15)20-13/h1-6,13,16-18H,7H2/t13-/m0/s1" "computed SMILES=O=C1C=2C(O)=CC(O)=CC2OC(C3=CC=C(O)C=C3)C1" "synonym=4',5,7-Trihydroxyflavanone" "license=License CC-BY-NC-SA 4.0 International" "author=Plant Biology, The Noble Foundation, Ardmore, OK, US/Dennis Fine, Daniel Wherritt, and Lloyd Sumner" "ionization=ESI" "isolation width=5" "collision gas=Nitrogen" "peak width=0.015" "date=2014-01-10 00:24:33+01:00" "column=Waters Acquity BEH C18 1.7um x 2.1 x 150 mm" "retention time=554.4" "raw data file=C:\Data\Confirmed Standards\14Jan9 Confirmed stds MSMS\ZLei_Std_Mix_30_Oct_13_2485.d" "computed mass accuracy=143.12990040587414" "computed mass error=0.03880251600003248" "SPLASH=splash10-014i-0900000000-bfa606b2e93e4b1d2801" "submitter=Aiko Barsch (Bruker)" "MoNA Rating=4.545454545454546"
Num Peaks: 6
107.0139 3.803804
119.0505 100.000000
120.0539 5.505506
151.0038 33.533534
165.0195 2.002002
177.0206 3.203203


Name: Naringenin
Synon: $:00in-source
DB#: MetaboBASE0033
InChIKey: FTVWIRXFELQLPI-ZDUSSCGKSA-N
Precursor_type: [M-H]-
Spectrum_type: MS2
PrecursorMZ: 271.0617
Instrument_type: LC-ESI-TOF
Instrument: impact HD
Ion_mode: N
Collision_energy: 20
Formula: C15H12O5
MW: 272
ExactMass: 272.068473484
Comments: "cas number=480-41-1" "SMILES=c1cc(ccc1[C@@H]2CC(=O)c3c(cc(cc3O2)O)O)O" "InChI=InChI=1S/C15H12O5/c16-9-3-1-8(2-4-9)13-7-12(19)15-11(18)5-10(17)6-14(15)20-13/h1-6,13,16-18H,7H2/t13-/m0/s1" "computed SMILES=O=C1C=2C(O)=CC(O)=CC2OC(C3=CC=C(O)C=C3)C1" "synonym=4',5,7-Trihydroxyflavanone" "license=License CC-BY-NC-SA 4.0 International" "author=Plant Biology, The Noble Foundation, Ardmore, OK, US/Dennis Fine, Daniel Wherritt, and Lloyd Sumner" "ionization=ESI" "isolation width=5" "collision gas=Nitrogen" "peak width=0.013" "date=2014-01-10 00:24:33+01:00" "column=Waters Acquity BEH C18 1.7um x 2.1 x 150 mm" "retention time=554.4" "raw data file=C:\Data\Confirmed Standards\14Jan9 Confirmed stds MSMS\ZLei_Std_Mix_30_Oct_13_2485.d" "computed mass accuracy=1.853880500207844" "computed mass error=5.025159999831885E-4" "SPLASH=splash10-0uk9-0930000000-9a38a8949493a958cc14" "submitter=Aiko Barsch (Bruker)" "MoNA Rating=4.583333333333334"
Num Peaks: 8
119.0506 45.545546
120.0537 3.103103
151.0042 100.000000
152.0075 4.704705
165.0194 2.102102
177.0197 6.906907
271.0617 51.751752
272.0641 5.305305


Name: 4'-Hydroxyflavone
Synon: $:00in-source
DB#: MetaboBASE0034
InChIKey: SHGLJXBLXNNCTE-UHFFFAOYSA-N
Instrument_type: LC-ESI-TOF
Instrument: impact HD
Ion_mode: N
Formula: C15H10O3
MW: 238
ExactMass: 238.06299417999998
Comments: "cas number=4143-63-9" "SMILES=c1ccc2c(c1)c(=O)cc(o2)c3ccc(cc3)O" "InChI=InChI=1S/C15H10O3/c16-11-7-5-10(6-8-11)15-9-13(17)12-3-1-2-4-14(12)18-15/h1-9,16H" "computed SMILES=O=C1C=C(OC=2C=CC=CC12)C=3C=CC(O)=CC3" "license=License CC-BY-NC-SA 4.0 International" "author=Plant Biology, The Noble Foundation, Ardmore, OK, US/Dennis Fine, Daniel Wherritt, and Lloyd Sumner" "ionization=ESI" "collision gas=Nitrogen" "peak width=0.0057" "date=2013-07-02 03:40:21+02:00" "column=Waters Acquity BEH C18 1.7um x 2.1 x 150 mm" "retention time=652.2" "raw data file=D:\Data\Confirmed Standards\Reinjection_1uL\4'-Hydroxyflavone (vial 8).d" "SPLASH=splash10-000i-0090000000-44e29f171a3eebad2927" "submitter=Aiko Barsch (Bruker)" "MoNA Rating=3.888888888888889"
Num Peaks: 4
237.0579 100.000000
238.0599 12.712713
239.0625 1.401401
367.0155 0.200200


Name: 4'-Hydroxyflavone
Synon: $:00in-source
DB#: MetaboBASE0035
InChIKey: SHGLJXBLXNNCTE-UHFFFAOYSA-N
Precursor_type: [M-H]-
Spectrum_type: MS2
PrecursorMZ: 237.0617
Instrument_type: LC-ESI-TOF
Instrument: impact HD
Ion_mode: N
Collision_energy: 30
Formula: C15H10O3
MW: 238
ExactMass: 238.06299417999998
Comments: "cas number=4143-63-9" "SMILES=c1ccc2c(c1)c(=O)cc(o2)c3ccc(cc3)O" "InChI=InChI=1S/C15H10O3/c16-11-7-5-10(6-8-11)15-9-13(17)12-3-1-2-4-14(12)18-15/h1-9,16H" "computed SMILES=O=C1C=C(OC=2C=CC=CC12)C=3C=CC(O)=CC3" "license=License CC-BY-NC-SA 4.0 International" "author=Plant Biology, The Noble Foundation, Ardmore, OK, US/Dennis Fine, Daniel Wherritt, and Lloyd Sumner" "ionization=ESI" "collision gas=Nitrogen" "collision energy 2=30" "peak width=0.025" "date=2013-08-01 17:31:34+02:00" "column=Waters Acquity BEH C18 1.7um x 2.1 x 150 mm" "retention time=653.733" "raw data file=D:\Data\Confirmed Standards\Reanalyzed MRM multiple CID\4'-Hydroxyflavone (vial 8)_1329.d" "computed mass accuracy=25.23317769178475" "computed mass error=0.005981820000016569" "SPLASH=splash10-014i-0900000000-216e9e03d44bbd3942e9" "submitter=Aiko Barsch (Bruker)" "MoNA Rating=4.545454545454546"
Num Peaks: 19
116.030 0.300300
117.019 0.200200
117.039 100.000000
117.368 0.200200
117.390 0.200200
118.041 11.111111
119.043 0.600601
161.026 0.100100
165.074 0.100100
180.059 0.200200
193.068 0.400400
195.051 0.200200
209.066 0.600601
210.068 0.100100
219.050 0.300300
236.051 0.200200
237.062 9.509510
238.066 1.101101
239.066 0.100100


Name: 7,4'-Dihydroxyflavone
Synon: $:00in-source
DB#: MetaboBASE0036
InChIKey: LCAWNFIFMLXZPQ-UHFFFAOYSA-N
Precursor_type: [M-H]-
Spectrum_type: MS2
PrecursorMZ: 253.0531
Instrument_type: LC-ESI-TOF
Instrument: impact HD
Ion_mode: N
Collision_energy: 25
Formula: C15H10O4
MW: 254
ExactMass: 254.0579088
Comments: "cas number=2196-14-7" "SMILES=c1cc(ccc1c2cc(=O)c3ccc(cc3o2)O)O" "InChI=InChI=1S/C15H10O4/c16-10-3-1-9(2-4-10)14-8-13(18)12-6-5-11(17)7-15(12)19-14/h1-8,16-17H" "computed SMILES=O=C1C=C(OC2=CC(O)=CC=C12)C=3C=CC(O)=CC3" "license=License CC-BY-NC-SA 4.0 International" "author=Plant Biology, The Noble Foundation, Ardmore, OK, US/Dennis Fine, Daniel Wherritt, and Lloyd Sumner" "ionization=ESI" "collision gas=Nitrogen" "collision energy 2=25" "peak width=0.022" "date=2013-07-27 04:42:55+02:00" "column=Waters Acquity BEH C18 1.7um x 2.1 x 150 mm" "retention time=430.725" "raw data file=D:\Data\Confirmed Standards\Reanalyzed 7_26_13\7,4'-Dihydroxyflavone (vial 7).d" "computed mass accuracy=9.749732368360254" "computed mass error=0.0024671999999839045" "SPLASH=splash10-0uxr-0980000000-74577388025ab56b4991" "submitter=Aiko Barsch (Bruker)" "MoNA Rating=4.545454545454546"
Num Peaks: 9
117.0357 92.692693
118.0386 3.103103
133.0302 7.207207
135.0103 19.019019
153.0203 6.006006
224.0499 3.103103
225.0566 3.403403
253.0531 100.000000
254.0567 8.808809


Name: 7,4'-Dihydroxyflavone
Synon: $:00in-source
DB#: MetaboBASE0037
InChIKey: LCAWNFIFMLXZPQ-UHFFFAOYSA-N
Instrument_type: LC-ESI-TOF
Instrument: impact HD
Ion_mode: N
Formula: C15H10O4
MW: 254
ExactMass: 254.0579088
Comments: "cas number=2196-14-7" "SMILES=c1cc(ccc1c2cc(=O)c3ccc(cc3o2)O)O" "InChI=InChI=1S/C15H10O4/c16-10-3-1-9(2-4-10)14-8-13(18)12-6-5-11(17)7-15(12)19-14/h1-8,16-17H" "computed SMILES=O=C1C=C(OC2=CC(O)=CC=C12)C=3C=CC(O)=CC3" "license=License CC-BY-NC-SA 4.0 International" "author=Plant Biology, The Noble Foundation, Ardmore, OK, US/Dennis Fine, Daniel Wherritt, and Lloyd Sumner" "ionization=ESI" "collision gas=Nitrogen" "peak width=0.011" "date=2013-06-22 06:25:58+02:00" "column=Waters Acquity BEH C18 1.7um x 2.1 x 150 mm" "retention time=433.2" "raw data file=D:\Data\Confirmed Standards\7,4'-Dihydroxyflavone (vial 7).d" "SPLASH=splash10-0udi-0090000000-1fb548eb7f20c05416c0" "submitter=Aiko Barsch (Bruker)" "MoNA Rating=3.888888888888889"
Num Peaks: 15
253.0523 100.000000
253.5686 0.200200
254.0539 15.115115
255.0561 1.901902
256.0602 0.200200
289.0265 0.400400
507.1090 6.006006
508.1121 2.002002
509.1155 0.300300
529.0909 1.901902
530.0948 0.500501
533.5639 0.300300
534.0665 0.300300
543.0847 0.200200
545.0641 0.300300


Name: Biochanin A
Synon: 5,7-dihydroxy-4'-methoxyisoflavone
Synon: $:00in-source
DB#: MetaboBASE0038
InChIKey: WUADCCWRTIWANL-UHFFFAOYSA-N
Precursor_type: [M-H]-
Spectrum_type: MS2
PrecursorMZ: 283.0686
Instrument_type: LC-ESI-TOF
Instrument: impact HD
Ion_mode: N
Collision_energy: 40
Formula: C16H12O5
MW: 284
ExactMass: 284.068473484
Comments: "cas number=491-80-5" "SMILES=InChI=1S/C16H12O5/c1-20-11-4-2-9(3-5-11)12-8-21-14-7-10(17)6-13(18)15(14)16(12)19/h2-8,17-18H,1H3" "InChI=InChI=1S/C16H12O5/c1-20-11-4-2-9(3-5-11)12-8-21-14-7-10(17)6-13(18)15(14)16(12)19/h2-8,17-18H,1H3" "computed SMILES=O=C1C(=COC=2C=C(O)C=C(O)C12)C=3C=CC(OC)=CC3" "license=License CC-BY-NC-SA 4.0 International" "author=Plant Biology, The Noble Foundation, Ardmore, OK, US/Dennis Fine, Daniel Wherritt, and Lloyd Sumner" "ionization=ESI" "collision gas=Nitrogen" "collision energy 2=40" "peak width=0.022" "date=2013-08-01 03:33:54+02:00" "column=Waters Acquity BEH C18 1.7um x 2.1 x 150 mm" "retention time=882.865" "raw data file=D:\Data\Confirmed Standards\Reanalyzed MRM multiple CID\Biochanin A (vial 11).d" "computed mass accuracy=26.150961286463044" "computed mass error=0.007402516000013293" "SPLASH=splash10-014r-0190000000-7f6a864949fd18a14e8b" "submitter=Aiko Barsch (Bruker)" "MoNA Rating=4.545454545454546"
Num Peaks: 40
104.0314 1.901902
107.0175 1.901902
132.0261 26.326326
133.0298 2.202202
134.0420 2.502503
135.0137 4.404404
142.0463 0.800801
143.0550 0.800801
151.0085 2.802803
154.0467 2.202202
155.0560 0.800801
167.0560 3.903904
168.0623 1.701702
170.0429 0.800801
171.0515 0.800801
180.0639 1.001001
183.0500 3.003003
184.0587 4.204204
195.0516 9.809810
196.0573 4.404404
198.0375 1.701702
199.0447 0.800801
211.0471 32.732733
212.0530 8.008008
213.0553 0.900901
222.0381 1.001001
223.0476 16.816817
224.0538 9.109109
225.0577 1.101101
226.0344 6.806807
227.0386 1.001001
239.0428 95.895896
240.0492 25.625626
241.0524 3.303303
250.0350 1.401401
251.0418 1.301301
267.0384 100.000000
268.0456 85.085085
269.0489 9.509510
270.0499 0.900901


Name: Biochanin A
Synon: 5,7-dihydroxy-4'-methoxyisoflavone
Synon: $:00in-source
DB#: MetaboBASE0039
InChIKey: WUADCCWRTIWANL-UHFFFAOYSA-N
Precursor_type: [M-H]-
Spectrum_type: MS2
PrecursorMZ: 283
Instrument_type: LC-ESI-TOF
Instrument: impact HD
Ion_mode: N
Collision_energy: 50
Formula: C16H12O5
MW: 284
ExactMass: 284.068473484
Comments: "cas number=491-80-5" "SMILES=InChI=1S/C16H12O5/c1-20-11-4-2-9(3-5-11)12-8-21-14-7-10(17)6-13(18)15(14)16(12)19/h2-8,17-18H,1H3" "InChI=InChI=1S/C16H12O5/c1-20-11-4-2-9(3-5-11)12-8-21-14-7-10(17)6-13(18)15(14)16(12)19/h2-8,17-18H,1H3" "computed SMILES=O=C1C(=COC=2C=C(O)C=C(O)C12)C=3C=CC(OC)=CC3" "license=License CC-BY-NC-SA 4.0 International" "author=Plant Biology, The Noble Foundation, Ardmore, OK, US/Dennis Fine, Daniel Wherritt, and Lloyd Sumner" "ionization=ESI" "collision gas=Nitrogen" "collision energy 2=50" "peak width=0.024" "date=2013-08-01 03:33:54+02:00" "column=Waters Acquity BEH C18 1.7um x 2.1 x 150 mm" "retention time=883.03" "raw data file=D:\Data\Confirmed Standards\Reanalyzed MRM multiple CID\Biochanin A (vial 11).d" "computed mass accuracy=216.24552650173234" "computed mass error=-0.061197483999990254" "SPLASH=splash10-03yr-0790000000-5a2ccc494db05b9e19e7" "submitter=Aiko Barsch (Bruker)" "MoNA Rating=4.545454545454546"
Num Peaks: 41
104.030 4.704705
107.018 7.007007
117.038 4.204204
121.033 2.302302
123.049 2.002002
130.045 2.602603
132.026 56.956957
133.030 4.604605
134.042 6.406406
135.012 4.704705
141.041 3.903904
142.047 2.502503
143.054 6.206206
151.010 3.103103
154.047 5.005005
155.056 4.404404
156.064 2.002002
167.056 25.725726
168.060 3.803804
178.049 2.002002
179.057 3.603604
180.063 1.901902
182.043 3.703704
183.051 23.223223
184.057 8.208208
195.051 31.331331
196.057 4.904905
199.047 2.002002
210.040 5.005005
211.047 100.000000
212.052 15.015015
213.055 2.402402
223.047 16.316316
224.052 4.804805
226.035 3.303303
239.043 70.170170
240.048 10.710711
241.049 2.902903
267.038 50.050050
268.043 12.112112
269.050 2.002002


Name: Biochanin A
Synon: 5,7-dihydroxy-4'-methoxyisoflavone
Synon: $:00in-source
DB#: MetaboBASE0040
InChIKey: WUADCCWRTIWANL-UHFFFAOYSA-N
Precursor_type: [M-H]-
Spectrum_type: MS2
PrecursorMZ: 283.07
Instrument_type: LC-ESI-TOF
Instrument: impact HD
Ion_mode: N
Collision_energy: 30
Formula: C16H12O5
MW: 284
ExactMass: 284.068473484
Comments: "cas number=491-80-5" "SMILES=InChI=1S/C16H12O5/c1-20-11-4-2-9(3-5-11)12-8-21-14-7-10(17)6-13(18)15(14)16(12)19/h2-8,17-18H,1H3" "InChI=InChI=1S/C16H12O5/c1-20-11-4-2-9(3-5-11)12-8-21-14-7-10(17)6-13(18)15(14)16(12)19/h2-8,17-18H,1H3" "computed SMILES=O=C1C(=COC=2C=C(O)C=C(O)C12)C=3C=CC(OC)=CC3" "license=License CC-BY-NC-SA 4.0 International" "author=Plant Biology, The Noble Foundation, Ardmore, OK, US/Dennis Fine, Daniel Wherritt, and Lloyd Sumner" "ionization=ESI" "collision gas=Nitrogen" "collision energy 2=30" "peak width=0.024" "date=2013-08-01 03:33:54+02:00" "column=Waters Acquity BEH C18 1.7um x 2.1 x 150 mm" "retention time=882.699" "raw data file=D:\Data\Confirmed Standards\Reanalyzed MRM multiple CID\Biochanin A (vial 11).d" "computed mass accuracy=31.096605080025874" "computed mass error=0.008802516000002925" "SPLASH=splash10-014i-0090000000-1469c7dc6efca44dce49" "submitter=Aiko Barsch (Bruker)" "MoNA Rating=4.545454545454546"
Num Peaks: 38
132.026 1.801802
133.030 0.200200
135.014 0.600601
151.008 0.300300
153.023 0.100100
167.056 0.100100
168.063 0.100100
180.064 0.200200
183.048 0.100100
184.059 0.300300
195.051 0.300300
196.059 0.700701
197.065 0.100100
198.038 0.200200
211.047 1.901902
212.053 0.900901
213.056 0.200200
222.040 0.100100
223.047 2.102102
224.054 2.502503
225.059 0.300300
226.034 1.801802
227.038 0.300300
239.043 15.515516
240.050 6.706707
241.052 0.800801
242.056 0.100100
250.034 0.400400
267.039 20.020020
268.019 0.200200
268.047 100.000000
268.078 0.200200
269.049 12.512513
270.051 1.101101
271.054 0.100100
283.070 5.005005
284.073 0.600601
285.077 0.100100


Name: Biochanin A
Synon: 5,7-dihydroxy-4'-methoxyisoflavone
Synon: $:00in-source
DB#: MetaboBASE0041
InChIKey: WUADCCWRTIWANL-UHFFFAOYSA-N
Instrument_type: LC-ESI-TOF
Instrument: impact HD
Ion_mode: N
Formula: C16H12O5
MW: 284
ExactMass: 284.068473484
Comments: "cas number=491-80-5" "SMILES=InChI=1S/C16H12O5/c1-20-11-4-2-9(3-5-11)12-8-21-14-7-10(17)6-13(18)15(14)16(12)19/h2-8,17-18H,1H3" "InChI=InChI=1S/C16H12O5/c1-20-11-4-2-9(3-5-11)12-8-21-14-7-10(17)6-13(18)15(14)16(12)19/h2-8,17-18H,1H3" "computed SMILES=O=C1C(=COC=2C=C(O)C=C(O)C12)C=3C=CC(OC)=CC3" "license=License CC-BY-NC-SA 4.0 International" "author=Plant Biology, The Noble Foundation, Ardmore, OK, US/Dennis Fine, Daniel Wherritt, and Lloyd Sumner" "ionization=ESI" "collision gas=Nitrogen" "peak width=0.0049" "date=2013-07-02 05:01:50+02:00" "column=Waters Acquity BEH C18 1.7um x 2.1 x 150 mm" "retention time=876" "raw data file=D:\Data\Confirmed Standards\Reinjection_1uL\Biochanin A (vial 11).d" "SPLASH=splash10-001i-0090000000-ab7e811e30dd92aa8de3" "submitter=Aiko Barsch (Bruker)" "MoNA Rating=3.888888888888889"
Num Peaks: 10
267.0298 0.200200
268.0392 9.409409
269.0425 1.601602
270.0459 0.200200
283.0653 100.000000
283.6106 0.400400
284.0662 19.719720
285.0686 2.702703
286.0703 0.300300
567.1323 0.300300


Name: Biochanin A
Synon: 5,7-dihydroxy-4'-methoxyisoflavone
Synon: $:00in-source
DB#: MetaboBASE0042
InChIKey: WUADCCWRTIWANL-UHFFFAOYSA-N
Precursor_type: [M-H]-
Spectrum_type: MS2
PrecursorMZ: 283.0704
Instrument_type: LC-ESI-TOF
Instrument: impact HD
Ion_mode: N
Collision_energy: 20
Formula: C16H12O5
MW: 284
ExactMass: 284.068473484
Comments: "cas number=491-80-5" "SMILES=InChI=1S/C16H12O5/c1-20-11-4-2-9(3-5-11)12-8-21-14-7-10(17)6-13(18)15(14)16(12)19/h2-8,17-18H,1H3" "InChI=InChI=1S/C16H12O5/c1-20-11-4-2-9(3-5-11)12-8-21-14-7-10(17)6-13(18)15(14)16(12)19/h2-8,17-18H,1H3" "computed SMILES=O=C1C(=COC=2C=C(O)C=C(O)C12)C=3C=CC(OC)=CC3" "license=License CC-BY-NC-SA 4.0 International" "author=Plant Biology, The Noble Foundation, Ardmore, OK, US/Dennis Fine, Daniel Wherritt, and Lloyd Sumner" "ionization=ESI" "isolation width=5" "collision gas=Nitrogen" "peak width=0.021" "date=2013-08-01 03:33:54+02:00" "column=Waters Acquity BEH C18 1.7um x 2.1 x 150 mm" "retention time=882.864" "raw data file=C:\Data\Confirmed Standards\Reanalyzed MRM multiple CID\Biochanin A (vial 11).d" "computed mass accuracy=32.509637178653094" "computed mass error=0.009202516000016203" "SPLASH=splash10-0159-0090000000-48950d676f0cb98a7321" "submitter=Aiko Barsch (Bruker)" "MoNA Rating=4.545454545454546"
Num Peaks: 8
239.0427 1.601602
267.0418 2.402402
268.0466 100.000000
269.0494 12.712713
270.0500 1.301301
283.0704 95.295295
284.0724 11.811812
285.0734 1.101101


Name: Daidzein
Synon: $:00in-source
DB#: MetaboBASE0043
InChIKey: ZQSIJRDFPHDXIC-UHFFFAOYSA-N
Instrument_type: LC-ESI-TOF
Instrument: impact HD
Ion_mode: N
Formula: C15H10O4
MW: 254
ExactMass: 254.0579088
Comments: "cas number=486-66-8" "SMILES=c1cc(ccc1c2coc3cc(ccc3c2=O)O)O" "InChI=InChI=1S/C15H10O4/c16-10-3-1-9(2-4-10)13-8-19-14-7-11(17)5-6-12(14)15(13)18/h1-8,16-17H" "computed SMILES=O=C1C(=COC2=CC(O)=CC=C12)C=3C=CC(O)=CC3" "license=License CC-BY-NC-SA 4.0 International" "author=Plant Biology, The Noble Foundation, Ardmore, OK, US/Dennis Fine, Daniel Wherritt, and Lloyd Sumner" "ionization=ESI" "collision gas=Nitrogen" "peak width=0.012" "date=2013-07-02 05:42:33+02:00" "column=Waters Acquity BEH C18 1.7um x 2.1 x 150 mm" "retention time=449.4" "raw data file=D:\Data\Confirmed Standards\Reinjection_1uL\Daidzein (vial 12).d" "SPLASH=splash10-0udi-0090000000-0c32b7cdcf7bccdb84c2" "submitter=Aiko Barsch (Bruker)" "MoNA Rating=3.888888888888889"
Num Peaks: 10
252.0426 0.200200
253.0521 100.000000
253.5690 0.200200
254.0541 14.014014
255.0562 1.901902
383.0084 0.200200
507.1092 0.700701
508.1113 0.200200
529.0911 0.700701
530.0932 0.200200


Name: Daidzein
Synon: $:00in-source
DB#: MetaboBASE0044
InChIKey: ZQSIJRDFPHDXIC-UHFFFAOYSA-N
Spectrum_type: MS2
PrecursorMZ: 251.0364
Instrument_type: LC-ESI-TOF
Instrument: impact HD
Ion_mode: N
Collision_energy: 50
Formula: C15H10O4
MW: 254
ExactMass: 254.0579088
Comments: "cas number=486-66-8" "SMILES=c1cc(ccc1c2coc3cc(ccc3c2=O)O)O" "InChI=InChI=1S/C15H10O4/c16-10-3-1-9(2-4-10)13-8-19-14-7-11(17)5-6-12(14)15(13)18/h1-8,16-17H" "computed SMILES=O=C1C(=COC2=CC(O)=CC=C12)C=3C=CC(O)=CC3" "license=License CC-BY-NC-SA 4.0 International" "author=Plant Biology, The Noble Foundation, Ardmore, OK, US/Dennis Fine, Daniel Wherritt, and Lloyd Sumner" "ionization=ESI" "collision gas=Nitrogen" "collision energy 2=50" "peak width=0.029" "date=2013-07-27 08:07:08+02:00" "column=Waters Acquity BEH C18 1.7um x 2.1 x 150 mm" "retention time=449.67" "raw data file=D:\Data\Confirmed Standards\Reanalyzed 7_26_13\Daidzein (vial 12).d" "SPLASH=splash10-0089-0930000000-b0386992bb469140031f" "submitter=Aiko Barsch (Bruker)" "MoNA Rating=3.125"
Num Peaks: 22
104.026 14.314314
108.022 5.905906
116.028 7.307307
117.034 7.807808
130.044 6.506507
132.022 100.000000
133.029 43.243243
135.008 14.814815
141.035 4.704705
153.069 4.704705
155.051 6.706707
167.050 9.409409
169.068 6.306306
180.059 24.224224
182.040 4.904905
195.046 54.454454
196.053 8.608609
208.053 23.723724
223.041 70.070070
224.047 14.714715
251.036 6.006006
253.052 4.504505


Name: Taxifolin
Synon: 3,3',4',5,7-pentahydroxylflavanone
Synon: $:00in-source
DB#: MetaboBASE0045
InChIKey: CXQWRCVTCMQVQX-LSDHHAIUSA-N
Spectrum_type: MS2
PrecursorMZ: 301.036
Instrument_type: LC-ESI-TOF
Instrument: impact HD
Ion_mode: N
Collision_energy: 25
Formula: C15H12O7
MW: 304
ExactMass: 304.058302724
Comments: "cas number=17654-26-1" "SMILES=c1cc(c(cc1[C@@H]2[C@H](C(=O)c3c(cc(cc3O2)O)O)O)O)O" "InChI=InChI=1S/C15H12O7/c16-7-4-10(19)12-11(5-7)22-15(14(21)13(12)20)6-1-2-8(17)9(18)3-6/h1-5,14-19,21H/t14-,15+/m0/s1" "computed SMILES=O=C1C=2C(O)=CC(O)=CC2OC(C3=CC=C(O)C(O)=C3)C1O" "license=License CC-BY-NC-SA 4.0 International" "author=Plant Biology, The Noble Foundation, Ardmore, OK, US/Dennis Fine, Daniel Wherritt, and Lloyd Sumner" "ionization=ESI" "collision gas=Nitrogen" "collision energy 2=25" "peak width=0.027" "date=2013-07-27 08:47:58+02:00" "column=Waters Acquity BEH C18 1.7um x 2.1 x 150 mm" "retention time=269.126" "raw data file=D:\Data\Confirmed Standards\Reanalyzed 7_26_13\Taxifolin (vial 13).d" "SPLASH=splash10-00fr-0591000000-8c2bb267dbaff0ec8425" "submitter=Aiko Barsch (Bruker)" "MoNA Rating=3.125"
Num Peaks: 13
121.029 12.812813
125.024 58.358358
149.024 11.411411
151.003 19.519520
178.999 8.708709
215.035 8.408408
227.036 21.221221
229.051 10.010010
245.044 8.908909
255.030 28.428428
273.041 100.000000
274.046 14.014014
301.036 23.823824


Name: Taxifolin
Synon: 3,3',4',5,7-pentahydroxylflavanone
Synon: $:00in-source
DB#: MetaboBASE0046
InChIKey: CXQWRCVTCMQVQX-LSDHHAIUSA-N
Spectrum_type: MS2
PrecursorMZ: 301.044
Instrument_type: LC-ESI-TOF
Instrument: impact HD
Ion_mode: N
Collision_energy: 20
Formula: C15H12O7
MW: 304
ExactMass: 304.058302724
Comments: "cas number=17654-26-1" "SMILES=c1cc(c(cc1[C@@H]2[C@H](C(=O)c3c(cc(cc3O2)O)O)O)O)O" "InChI=InChI=1S/C15H12O7/c16-7-4-10(19)12-11(5-7)22-15(14(21)13(12)20)6-1-2-8(17)9(18)3-6/h1-5,14-19,21H/t14-,15+/m0/s1" "computed SMILES=O=C1C=2C(O)=CC(O)=CC2OC(C3=CC=C(O)C(O)=C3)C1O" "license=License CC-BY-NC-SA 4.0 International" "author=Plant Biology, The Noble Foundation, Ardmore, OK, US/Dennis Fine, Daniel Wherritt, and Lloyd Sumner" "ionization=ESI" "collision gas=Nitrogen" "peak width=0.022" "date=2013-08-01 04:55:34+02:00" "column=Waters Acquity BEH C18 1.7um x 2.1 x 150 mm" "retention time=268.48" "raw data file=D:\Data\Confirmed Standards\Reanalyzed MRM multiple CID\Taxifolin (vial 13).d" "SPLASH=splash10-0fk9-0393000000-2ad9cdbeaebe4832addf" "submitter=Aiko Barsch (Bruker)" "MoNA Rating=3.125"
Num Peaks: 27
125.0281 35.235235
137.0294 2.102102
149.0282 4.104104
151.0081 7.907908
152.0152 2.002002
153.0247 3.803804
175.0463 2.102102
177.0240 3.603604
179.0036 6.106106
215.0423 4.304304
217.0564 2.102102
227.0407 3.003003
229.0577 2.802803
241.0572 3.203203
245.0518 2.302302
255.0375 7.707708
257.0529 2.702703
259.0683 4.704705
273.0483 100.000000
274.0519 8.708709
275.0635 5.605606
283.0328 2.202202
285.0482 22.022022
286.0533 2.002002
301.0442 64.964965
302.0465 6.006006
303.0572 1.701702


Name: Taxifolin
Synon: 3,3',4',5,7-pentahydroxylflavanone
Synon: $:00in-source
DB#: MetaboBASE0047
InChIKey: CXQWRCVTCMQVQX-LSDHHAIUSA-N
Instrument_type: LC-ESI-TOF
Instrument: impact HD
Ion_mode: N
Formula: C15H12O7
MW: 304
ExactMass: 304.058302724
Comments: "cas number=17654-26-1" "SMILES=c1cc(c(cc1[C@@H]2[C@H](C(=O)c3c(cc(cc3O2)O)O)O)O)O" "InChI=InChI=1S/C15H12O7/c16-7-4-10(19)12-11(5-7)22-15(14(21)13(12)20)6-1-2-8(17)9(18)3-6/h1-5,14-19,21H/t14-,15+/m0/s1" "computed SMILES=O=C1C=2C(O)=CC(O)=CC2OC(C3=CC=C(O)C(O)=C3)C1O" "license=License CC-BY-NC-SA 4.0 International" "author=Plant Biology, The Noble Foundation, Ardmore, OK, US/Dennis Fine, Daniel Wherritt, and Lloyd Sumner" "ionization=ESI" "collision gas=Nitrogen" "peak width=0.0072" "date=2013-07-02 06:23:16+02:00" "column=Waters Acquity BEH C18 1.7um x 2.1 x 150 mm" "retention time=272.4" "raw data file=D:\Data\Confirmed Standards\Reinjection_1uL\Taxifolin (vial 13).d" "SPLASH=splash10-0udi-0019000000-f4c2db21ffbf7fdec0ec" "submitter=Aiko Barsch (Bruker)" "MoNA Rating=3.888888888888889"
Num Peaks: 31
125.0235 0.800801
151.0028 0.500501
153.0179 0.300300
177.0184 0.700701
178.9978 0.500501
215.0336 0.400400
217.0497 0.300300
227.0338 0.200200
229.0493 0.300300
233.0445 0.200200
241.0489 0.200200
255.0289 0.600601
257.0437 0.600601
259.0598 1.401401
260.0634 0.200200
273.0395 7.707708
274.0424 1.201201
275.0545 2.002002
276.0582 0.300300
283.0235 0.400400
285.0395 7.807808
286.0425 1.301301
301.0349 100.000000
302.0379 13.313313
303.0481 7.007007
304.0519 1.101101
319.0449 3.003003
320.0477 0.500501
325.0315 0.800801
387.0019 0.200200
603.0751 0.600601


Name: Apigenin
Synon: $:00in-source
DB#: MetaboBASE0048
InChIKey: KZNIFHPLKGYRTM-UHFFFAOYSA-N
Precursor_type: [M-H]-
Spectrum_type: MS2
PrecursorMZ: 269.052
Instrument_type: LC-ESI-TOF
Instrument: impact HD
Ion_mode: N
Collision_energy: 30
Formula: C15H10O5
MW: 270
ExactMass: 270.05282342
Comments: "cas number=520-36-5" "SMILES=c1cc(ccc1c2cc(=O)c3c(cc(cc3o2)O)O)O" "InChI=InChI=1S/C15H10O5/c16-9-3-1-8(2-4-9)13-7-12(19)15-11(18)5-10(17)6-14(15)20-13/h1-7,16-18H" "computed SMILES=O=C1C=C(OC=2C=C(O)C=C(O)C12)C=3C=CC(O)=CC3" "license=License CC-BY-NC-SA 4.0 International" "author=Plant Biology, The Noble Foundation, Ardmore, OK, US/Dennis Fine, Daniel Wherritt, and Lloyd Sumner" "ionization=ESI" "collision gas=Nitrogen" "collision energy 2=30" "peak width=0.027" "date=2013-08-01 06:17:15+02:00" "column=Waters Acquity BEH C18 1.7um x 2.1 x 150 mm" "retention time=580.837" "raw data file=D:\Data\Confirmed Standards\Reanalyzed MRM multiple CID\Apigenin (vial 15).d" "computed mass accuracy=23.98265019412487" "computed mass error=0.006452580000029684" "SPLASH=splash10-014i-0940000000-eb8b08c7beca627dc728" "submitter=Aiko Barsch (Bruker)" "MoNA Rating=4.545454545454546"
Num Peaks: 23
105.038 8.408408
107.017 26.626627
117.038 100.000000
118.041 8.108108
121.033 4.304304
149.029 30.930931
151.008 49.449449
152.011 2.602603
157.070 2.102102
159.049 11.111111
181.068 3.103103
182.076 2.302302
183.049 4.204204
197.067 2.402402
199.047 1.801802
201.061 6.406406
224.056 3.103103
225.061 15.215215
226.061 1.801802
227.040 12.212212
269.052 82.382382
270.056 9.909910
271.057 2.002002


Name: Apigenin
Synon: $:00in-source
DB#: MetaboBASE0049
InChIKey: KZNIFHPLKGYRTM-UHFFFAOYSA-N
Instrument_type: LC-ESI-TOF
Instrument: impact HD
Ion_mode: N
Formula: C15H10O5
MW: 270
ExactMass: 270.05282342
Comments: "cas number=520-36-5" "SMILES=c1cc(ccc1c2cc(=O)c3c(cc(cc3o2)O)O)O" "InChI=InChI=1S/C15H10O5/c16-9-3-1-8(2-4-9)13-7-12(19)15-11(18)5-10(17)6-14(15)20-13/h1-7,16-18H" "computed SMILES=O=C1C=C(OC=2C=C(O)C=C(O)C12)C=3C=CC(O)=CC3" "license=License CC-BY-NC-SA 4.0 International" "author=Plant Biology, The Noble Foundation, Ardmore, OK, US/Dennis Fine, Daniel Wherritt, and Lloyd Sumner" "ionization=ESI" "collision gas=Nitrogen" "peak width=0.012" "date=2013-07-02 07:44:44+02:00" "column=Waters Acquity BEH C18 1.7um x 2.1 x 150 mm" "retention time=582" "raw data file=D:\Data\Confirmed Standards\Reinjection_1uL\Apigenin (vial 15).d" "SPLASH=splash10-014i-0090000000-3fea3046af52ea21ae28" "submitter=Aiko Barsch (Bruker)" "MoNA Rating=3.888888888888889"
Num Peaks: 21
112.9855 0.300300
146.9607 0.300300
161.0238 0.200200
174.9554 0.600601
218.9833 0.200200
242.9434 0.300300
248.9615 0.200200
268.0378 1.001001
269.0460 100.000000
270.0492 17.817818
271.0511 2.402402
272.0529 0.300300
304.9139 0.300300
310.9300 0.200200
337.0313 0.200200
352.9976 0.400400
357.9768 0.200200
368.9700 0.400400
399.0045 0.200200
459.9742 0.300300
539.0994 0.200200


Name: Pseudobaptigenin
Synon: $:00in-source
DB#: MetaboBASE0050
InChIKey: KNJNBKINYHZUGC-UHFFFAOYSA-N
Instrument_type: LC-ESI-TOF
Instrument: impact HD
Ion_mode: N
Formula: C16H10O5
MW: 282
ExactMass: 282.05282342
Comments: "cas number=90-29-9" "SMILES=c1cc2c(cc1c3coc4cc(ccc4c3=O)O)OCO2" "InChI=InChI=1S/C16H10O5/c17-10-2-3-11-14(6-10)19-7-12(16(11)18)9-1-4-13-15(5-9)21-8-20-13/h1-7,17H,8H2" "computed SMILES=O=C1C2=CC=C(O)C=C2OC=C1C=3C=CC=4OCOC4C3" "license=License CC-BY-NC-SA 4.0 International" "author=Plant Biology, The Noble Foundation, Ardmore, OK, US/Dennis Fine, Daniel Wherritt, and Lloyd Sumner" "ionization=ESI" "collision gas=Nitrogen" "peak width=0.0077" "date=2013-07-02 09:06:12+02:00" "column=Waters Acquity BEH C18 1.7um x 2.1 x 150 mm" "retention time=684.6" "raw data file=D:\Data\Confirmed Standards\Reinjection_1uL\Pseudoaptigenin (vial 17).d" "SPLASH=splash10-001i-0090000000-0fc99cafec6819d2ed99" "submitter=Aiko Barsch (Bruker)" "MoNA Rating=3.888888888888889"
Num Peaks: 18
112.9863 0.200200
146.9625 0.200200
161.0242 0.200200
174.9557 0.300300
242.9446 0.200200
248.9578 0.200200
252.0424 0.400400
253.0512 4.204204
254.0529 0.700701
279.0305 0.200200
281.0232 0.300300
281.0461 100.000000
282.0494 19.019019
283.0509 2.602603
284.0538 0.400400
304.9141 0.200200
349.0367 0.300300
380.9699 0.400400


Name: Pseudobaptigenin
Synon: $:00in-source
DB#: MetaboBASE0051
InChIKey: KNJNBKINYHZUGC-UHFFFAOYSA-N
Precursor_type: [M-H]-
Spectrum_type: MS2
PrecursorMZ: 281.0477
Instrument_type: LC-ESI-TOF
Instrument: impact HD
Ion_mode: N
Collision_energy: 25
Formula: C16H10O5
MW: 282
ExactMass: 282.05282342
Comments: "cas number=90-29-9" "SMILES=c1cc2c(cc1c3coc4cc(ccc4c3=O)O)OCO2" "InChI=InChI=1S/C16H10O5/c17-10-2-3-11-14(6-10)19-7-12(16(11)18)9-1-4-13-15(5-9)21-8-20-13/h1-7,17H,8H2" "computed SMILES=O=C1C2=CC=C(O)C=C2OC=C1C=3C=CC=4OCOC4C3" "license=License CC-BY-NC-SA 4.0 International" "author=Plant Biology, The Noble Foundation, Ardmore, OK, US/Dennis Fine, Daniel Wherritt, and Lloyd Sumner" "ionization=ESI" "isolation width=5" "collision gas=Nitrogen" "peak width=0.017" "date=2013-11-15 21:01:04+01:00" "column=Waters Acquity BEH C18 1.7um x 2.1 x 150 mm" "retention time=684.6" "raw data file=C:\Data\Confirmed Standards\Confirmed stds MSMS 14Nov13\Pseudobaptigenin MSMS (Vial 17.d" "computed mass accuracy=7.659126902760802" "computed mass error=0.0021525800000290474" "SPLASH=splash10-0ue9-0090000000-047f42a0080b13e6e808" "submitter=Aiko Barsch (Bruker)" "MoNA Rating=4.545454545454546"
Num Peaks: 10
223.0412 3.003003
224.0493 2.602603
225.0571 4.604605
251.0366 4.604605
252.0442 8.508509
253.0528 100.000000
254.0562 10.210210
279.0324 2.702703
281.0477 56.356356
282.0510 6.406406


Name: Pseudobaptigenin
Synon: $:00in-source
DB#: MetaboBASE0052
InChIKey: KNJNBKINYHZUGC-UHFFFAOYSA-N
Precursor_type: [M-H]-
Spectrum_type: MS2
PrecursorMZ: 281.0477
Instrument_type: LC-ESI-TOF
Instrument: impact HD
Ion_mode: N
Collision_energy: 35
Formula: C16H10O5
MW: 282
ExactMass: 282.05282342
Comments: "cas number=90-29-9" "SMILES=c1cc2c(cc1c3coc4cc(ccc4c3=O)O)OCO2" "InChI=InChI=1S/C16H10O5/c17-10-2-3-11-14(6-10)19-7-12(16(11)18)9-1-4-13-15(5-9)21-8-20-13/h1-7,17H,8H2" "computed SMILES=O=C1C2=CC=C(O)C=C2OC=C1C=3C=CC=4OCOC4C3" "license=License CC-BY-NC-SA 4.0 International" "author=Plant Biology, The Noble Foundation, Ardmore, OK, US/Dennis Fine, Daniel Wherritt, and Lloyd Sumner" "ionization=ESI" "isolation width=5" "collision gas=Nitrogen" "peak width=0.016" "date=2013-11-15 21:01:04+01:00" "column=Waters Acquity BEH C18 1.7um x 2.1 x 150 mm" "retention time=684.6" "raw data file=C:\Data\Confirmed Standards\Confirmed stds MSMS 14Nov13\Pseudobaptigenin MSMS (Vial 17.d" "computed mass accuracy=7.659126902760802" "computed mass error=0.0021525800000290474" "SPLASH=splash10-0udi-0190000000-b6ecb3ccb54bdeacbe00" "submitter=Aiko Barsch (Bruker)" "MoNA Rating=4.545454545454546"
Num Peaks: 29
117.0357 4.904905
132.0237 5.505506
133.0302 9.309309
135.0101 8.508509
161.0247 2.402402
167.0531 2.302302
169.0665 3.103103
180.0616 2.402402
181.0661 2.102102
185.0614 2.302302
195.0467 5.905906
196.0539 4.904905
197.0630 5.205205
208.0548 6.306306
209.0631 8.608609
211.0418 3.103103
223.0422 32.032032
224.0489 31.131131
225.0569 21.521522
226.0541 4.604605
235.0414 2.102102
237.0580 2.302302
251.0366 19.819820
252.0449 22.522523
253.0526 100.000000
254.0565 20.320320
255.0594 3.103103
279.0331 3.103103
281.0477 8.908909


Name: Prunetin
Synon: $:00in-source
DB#: MetaboBASE0053
InChIKey: KQMVAGISDHMXJJ-UHFFFAOYSA-N
Precursor_type: [M-H]-
Spectrum_type: MS2
PrecursorMZ: 283.0634
Instrument_type: LC-ESI-TOF
Instrument: impact HD
Ion_mode: N
Collision_energy: 10
Formula: C16H12O5
MW: 284
ExactMass: 284.068473484
Comments: "cas number=552-59-0" "SMILES=COc1cc(c2c(c1)occ(c2=O)c3ccc(cc3)O)O" "InChI=InChI=1S/C16H12O5/c1-20-11-6-13(18)15-14(7-11)21-8-12(16(15)19)9-2-4-10(17)5-3-9/h2-8,17-18H,1H3" "computed SMILES=O=C1C(=COC=2C=C(OC)C=C(O)C12)C=3C=CC(O)=CC3" "license=License CC-BY-NC-SA 4.0 International" "author=Plant Biology, The Noble Foundation, Ardmore, OK, US/Dennis Fine, Daniel Wherritt, and Lloyd Sumner" "ionization=ESI" "isolation width=5" "collision gas=Nitrogen" "peak width=0.013" "date=2013-11-15 21:41:59+01:00" "column=Waters Acquity BEH C18 1.7um x 2.1 x 150 mm" "retention time=871.2" "raw data file=C:\Data\Confirmed Standards\Confirmed stds MSMS 14Nov13\Prunetin MSMS (vial 18).d" "computed mass accuracy=7.780998885801559" "computed mass error=0.002202516000011201" "SPLASH=splash10-001i-0090000000-306c2baf58cc6c40c407" "submitter=Aiko Barsch (Bruker)" "MoNA Rating=4.545454545454546"
Num Peaks: 4
268.0399 4.704705
283.0634 100.000000
284.0671 11.711712
285.0691 2.402402


Name: Prunetin
Synon: $:00in-source
DB#: MetaboBASE0054
InChIKey: KQMVAGISDHMXJJ-UHFFFAOYSA-N
Precursor_type: [M-H]-
Spectrum_type: MS2
PrecursorMZ: 283.0639
Instrument_type: LC-ESI-TOF
Instrument: impact HD
Ion_mode: N
Collision_energy: 20
Formula: C16H12O5
MW: 284
ExactMass: 284.068473484
Comments: "cas number=552-59-0" "SMILES=COc1cc(c2c(c1)occ(c2=O)c3ccc(cc3)O)O" "InChI=InChI=1S/C16H12O5/c1-20-11-6-13(18)15-14(7-11)21-8-12(16(15)19)9-2-4-10(17)5-3-9/h2-8,17-18H,1H3" "computed SMILES=O=C1C(=COC=2C=C(OC)C=C(O)C12)C=3C=CC(O)=CC3" "license=License CC-BY-NC-SA 4.0 International" "author=Plant Biology, The Noble Foundation, Ardmore, OK, US/Dennis Fine, Daniel Wherritt, and Lloyd Sumner" "ionization=ESI" "isolation width=5" "collision gas=Nitrogen" "peak width=0.015" "date=2013-11-15 21:41:59+01:00" "column=Waters Acquity BEH C18 1.7um x 2.1 x 150 mm" "retention time=871.2" "raw data file=C:\Data\Confirmed Standards\Confirmed stds MSMS 14Nov13\Prunetin MSMS (vial 18).d" "computed mass accuracy=9.54737075267944" "computed mass error=0.0027025159999993775" "SPLASH=splash10-0159-0090000000-a85c6c3392aa2541b48c" "submitter=Aiko Barsch (Bruker)" "MoNA Rating=4.545454545454546"
Num Peaks: 8
239.0369 3.903904
240.0425 2.602603
267.0310 3.103103
268.0405 100.000000
269.0442 12.512513
270.0476 2.002002
283.0639 56.256256
284.0667 8.008008


Name: Prunetin
Synon: $:00in-source
DB#: MetaboBASE0055
InChIKey: KQMVAGISDHMXJJ-UHFFFAOYSA-N
Instrument_type: LC-ESI-TOF
Instrument: impact HD
Ion_mode: N
Formula: C16H12O5
MW: 284
ExactMass: 284.068473484
Comments: "cas number=552-59-0" "SMILES=COc1cc(c2c(c1)occ(c2=O)c3ccc(cc3)O)O" "InChI=InChI=1S/C16H12O5/c1-20-11-6-13(18)15-14(7-11)21-8-12(16(15)19)9-2-4-10(17)5-3-9/h2-8,17-18H,1H3" "computed SMILES=O=C1C(=COC=2C=C(OC)C=C(O)C12)C=3C=CC(O)=CC3" "license=License CC-BY-NC-SA 4.0 International" "author=Plant Biology, The Noble Foundation, Ardmore, OK, US/Dennis Fine, Daniel Wherritt, and Lloyd Sumner" "ionization=ESI" "collision gas=Nitrogen" "peak width=0.0071" "date=2013-06-22 13:15:36+02:00" "column=Waters Acquity BEH C18 1.7um x 2.1 x 150 mm" "retention time=871.2" "raw data file=D:\Data\Confirmed Standards\Prunetin (vial 18).d" "SPLASH=splash10-001i-0090000000-11b97ad586d2e24e7115" "submitter=Aiko Barsch (Bruker)" "MoNA Rating=3.888888888888889"
Num Peaks: 32
146.9835 0.200200
157.0114 0.500501
161.0264 0.300300
174.9563 0.200200
201.0381 0.600601
223.0305 0.200200
239.0347 0.200200
240.0422 0.300300
265.1479 0.300300
267.0291 0.200200
268.0383 18.118118
269.0407 3.003003
270.0436 0.300300
274.9756 0.200200
280.9837 0.300300
283.0618 100.000000
284.0650 19.319319
285.0675 2.602603
286.0682 0.300300
292.9826 0.200200
373.0316 0.400400
382.9840 0.200200
388.9991 0.200200
395.0715 0.300300
413.0163 0.200200
417.0578 0.200200
419.0348 0.200200
457.0460 0.200200
557.0062 0.200200
611.0933 0.200200
651.0764 0.200200
673.0671 0.500501


Name: Prunetin
Synon: $:00in-source
DB#: MetaboBASE0056
InChIKey: KQMVAGISDHMXJJ-UHFFFAOYSA-N
Precursor_type: [M-H]-
Spectrum_type: MS2
PrecursorMZ: 283.1
Instrument_type: LC-ESI-TOF
Instrument: impact HD
Ion_mode: N
Collision_energy: 40
Formula: C16H12O5
MW: 284
ExactMass: 284.068473484
Comments: "cas number=552-59-0" "SMILES=COc1cc(c2c(c1)occ(c2=O)c3ccc(cc3)O)O" "InChI=InChI=1S/C16H12O5/c1-20-11-6-13(18)15-14(7-11)21-8-12(16(15)19)9-2-4-10(17)5-3-9/h2-8,17-18H,1H3" "computed SMILES=O=C1C(=COC=2C=C(OC)C=C(O)C12)C=3C=CC(O)=CC3" "license=License CC-BY-NC-SA 4.0 International" "author=Plant Biology, The Noble Foundation, Ardmore, OK, US/Dennis Fine, Daniel Wherritt, and Lloyd Sumner" "ionization=ESI" "isolation width=5" "collision gas=Nitrogen" "peak width=0.018" "date=2013-11-15 21:41:59+01:00" "column=Waters Acquity BEH C18 1.7um x 2.1 x 150 mm" "retention time=871.2" "raw data file=C:\Data\Confirmed Standards\Confirmed stds MSMS 14Nov13\Prunetin MSMS (vial 18).d" "computed mass accuracy=137.06293182632453" "computed mass error=0.03880251600003248" "SPLASH=splash10-014r-0090000000-fb797f4684174e26b1d0" "submitter=Aiko Barsch (Bruker)" "MoNA Rating=4.545454545454546"
Num Peaks: 11
132.0226 19.919920
195.0485 12.612613
211.0416 37.637638
212.0461 17.017017
223.0419 23.023023
224.0495 11.611612
226.0317 13.313313
239.0368 100.000000
240.0438 27.427427
267.0323 74.374374
268.0396 63.063063


Name: Prunetin
Synon: $:00in-source
DB#: MetaboBASE0057
InChIKey: KQMVAGISDHMXJJ-UHFFFAOYSA-N
Precursor_type: [M-H]-
Spectrum_type: MS2
PrecursorMZ: 283.064
Instrument_type: LC-ESI-TOF
Instrument: impact HD
Ion_mode: N
Collision_energy: 30
Formula: C16H12O5
MW: 284
ExactMass: 284.068473484
Comments: "cas number=552-59-0" "SMILES=COc1cc(c2c(c1)occ(c2=O)c3ccc(cc3)O)O" "InChI=InChI=1S/C16H12O5/c1-20-11-6-13(18)15-14(7-11)21-8-12(16(15)19)9-2-4-10(17)5-3-9/h2-8,17-18H,1H3" "computed SMILES=O=C1C(=COC=2C=C(OC)C=C(O)C12)C=3C=CC(O)=CC3" "license=License CC-BY-NC-SA 4.0 International" "author=Plant Biology, The Noble Foundation, Ardmore, OK, US/Dennis Fine, Daniel Wherritt, and Lloyd Sumner" "ionization=ESI" "isolation width=5" "collision gas=Nitrogen" "peak width=0.016" "date=2013-11-15 21:41:59+01:00" "column=Waters Acquity BEH C18 1.7um x 2.1 x 150 mm" "retention time=871.2" "raw data file=C:\Data\Confirmed Standards\Confirmed stds MSMS 14Nov13\Prunetin MSMS (vial 18).d" "computed mass accuracy=9.900644377353244" "computed mass error=0.002802516000031119" "SPLASH=splash10-014i-0090000000-6db4d2441911d696b121" "submitter=Aiko Barsch (Bruker)" "MoNA Rating=4.545454545454546"
Num Peaks: 11
211.0418 3.203203
223.0427 7.607608
224.0500 6.406406
226.0300 5.205205
239.0376 26.526527
240.0438 16.816817
267.0322 23.423423
268.0397 100.000000
269.0439 17.317317
270.0469 3.203203
283.0640 2.702703


Name: Genistein
Synon: $:00in-source
DB#: MetaboBASE0058
InChIKey: TZBJGXHYKVUXJN-UHFFFAOYSA-N
Instrument_type: LC-ESI-TOF
Instrument: impact HD
Ion_mode: N
Formula: C15H10O5
MW: 270
ExactMass: 270.05282342
Comments: "cas number=446-72-0" "SMILES=c1cc(ccc1c2coc3cc(cc(c3c2=O)O)O)O" "InChI=InChI=1S/C15H10O5/c16-9-3-1-8(2-4-9)11-7-20-13-6-10(17)5-12(18)14(13)15(11)19/h1-7,16-18H" "computed SMILES=O=C1C(=COC=2C=C(O)C=C(O)C12)C=3C=CC(O)=CC3" "license=License CC-BY-NC-SA 4.0 International" "author=Plant Biology, The Noble Foundation, Ardmore, OK, US/Dennis Fine, Daniel Wherritt, and Lloyd Sumner" "ionization=ESI" "collision gas=Nitrogen" "peak width=0.011" "date=2013-07-02 10:27:40+02:00" "column=Waters Acquity BEH C18 1.7um x 2.1 x 150 mm" "retention time=563.4" "raw data file=D:\Data\Confirmed Standards\Reinjection_1uL\Genostein (vial 19).d" "SPLASH=splash10-014i-0090000000-720c4e1f43db9f50b589" "submitter=Aiko Barsch (Bruker)" "MoNA Rating=3.888888888888889"
Num Peaks: 5
268.0371 0.300300
269.0461 100.000000
270.0488 12.312312
271.0508 1.801802
539.0974 0.300300


Name: Genistein
Synon: $:00in-source
DB#: MetaboBASE0059
InChIKey: TZBJGXHYKVUXJN-UHFFFAOYSA-N
Precursor_type: [M-H]-
Spectrum_type: MS2
PrecursorMZ: 269.0489
Instrument_type: LC-ESI-TOF
Instrument: impact HD
Ion_mode: N
Collision_energy: 20
Formula: C15H10O5
MW: 270
ExactMass: 270.05282342
Comments: "cas number=446-72-0" "SMILES=c1cc(ccc1c2coc3cc(cc(c3c2=O)O)O)O" "InChI=InChI=1S/C15H10O5/c16-9-3-1-8(2-4-9)11-7-20-13-6-10(17)5-12(18)14(13)15(11)19/h1-7,16-18H" "computed SMILES=O=C1C(=COC=2C=C(O)C=C(O)C12)C=3C=CC(O)=CC3" "license=License CC-BY-NC-SA 4.0 International" "author=Plant Biology, The Noble Foundation, Ardmore, OK, US/Dennis Fine, Daniel Wherritt, and Lloyd Sumner" "ionization=ESI" "isolation width=5" "collision gas=Nitrogen" "peak width=0.0096" "date=2013-11-15 22:22:54+01:00" "column=Waters Acquity BEH C18 1.7um x 2.1 x 150 mm" "retention time=563.4" "raw data file=C:\Data\Confirmed Standards\Confirmed stds MSMS 14Nov13\Genistein MSMS (vial 19).d" "computed mass accuracy=12.460857487289633" "computed mass error=0.00335258000001204" "SPLASH=splash10-014i-0090000000-0e3ca66534f635efb4d8" "submitter=Aiko Barsch (Bruker)" "MoNA Rating=3.846153846153846"
Num Peaks: 2
269.0489 100.000000
270.0524 11.611612


Name: Genistein
Synon: $:00in-source
DB#: MetaboBASE0060
InChIKey: TZBJGXHYKVUXJN-UHFFFAOYSA-N
Precursor_type: [M-H]-
Spectrum_type: MS2
PrecursorMZ: 269.1
Instrument_type: LC-ESI-TOF
Instrument: impact HD
Ion_mode: N
Collision_energy: 50
Formula: C15H10O5
MW: 270
ExactMass: 270.05282342
Comments: "cas number=446-72-0" "SMILES=c1cc(ccc1c2coc3cc(cc(c3c2=O)O)O)O" "InChI=InChI=1S/C15H10O5/c16-9-3-1-8(2-4-9)11-7-20-13-6-10(17)5-12(18)14(13)15(11)19/h1-7,16-18H" "computed SMILES=O=C1C(=COC=2C=C(O)C=C(O)C12)C=3C=CC(O)=CC3" "license=License CC-BY-NC-SA 4.0 International" "author=Plant Biology, The Noble Foundation, Ardmore, OK, US/Dennis Fine, Daniel Wherritt, and Lloyd Sumner" "ionization=ESI" "isolation width=5" "collision gas=Nitrogen" "peak width=0.017" "date=2013-11-15 22:22:54+01:00" "column=Waters Acquity BEH C18 1.7um x 2.1 x 150 mm" "retention time=563.4" "raw data file=C:\Data\Confirmed Standards\Confirmed stds MSMS 14Nov13\Genistein MSMS (vial 19).d" "computed mass accuracy=202.3507246377982" "computed mass error=0.0544525800000315" "SPLASH=splash10-001i-0900000000-ad50062f85b9c32e1426" "submitter=Aiko Barsch (Bruker)" "MoNA Rating=4.545454545454546"
Num Peaks: 23
105.0368 6.606607
107.0147 11.611612
117.0359 29.929930
130.0440 12.112112
131.0518 12.612613
132.0235 95.395395
133.0311 100.000000
134.0381 63.263263
135.0459 43.743744
136.0496 8.308308
141.0349 10.810811
143.0518 10.810811
154.0441 8.708709
155.0535 11.411411
156.0378 7.607608
157.0314 18.818819
158.0371 9.909910
159.0472 20.420420
171.0506 6.706707
180.0596 9.209209
182.0400 8.308308
195.0493 7.307307
223.0442 11.611612


Name: Genistein
Synon: $:00in-source
DB#: MetaboBASE0061
InChIKey: TZBJGXHYKVUXJN-UHFFFAOYSA-N
Precursor_type: [M-H]-
Spectrum_type: MS2
PrecursorMZ: 269.0489
Instrument_type: LC-ESI-TOF
Instrument: impact HD
Ion_mode: N
Collision_energy: 40
Formula: C15H10O5
MW: 270
ExactMass: 270.05282342
Comments: "cas number=446-72-0" "SMILES=c1cc(ccc1c2coc3cc(cc(c3c2=O)O)O)O" "InChI=InChI=1S/C15H10O5/c16-9-3-1-8(2-4-9)11-7-20-13-6-10(17)5-12(18)14(13)15(11)19/h1-7,16-18H" "computed SMILES=O=C1C(=COC=2C=C(O)C=C(O)C12)C=3C=CC(O)=CC3" "license=License CC-BY-NC-SA 4.0 International" "author=Plant Biology, The Noble Foundation, Ardmore, OK, US/Dennis Fine, Daniel Wherritt, and Lloyd Sumner" "ionization=ESI" "isolation width=5" "collision gas=Nitrogen" "peak width=0.018" "date=2013-11-15 22:22:54+01:00" "column=Waters Acquity BEH C18 1.7um x 2.1 x 150 mm" "retention time=563.4" "raw data file=C:\Data\Confirmed Standards\Confirmed stds MSMS 14Nov13\Genistein MSMS (vial 19).d" "computed mass accuracy=12.460857487289633" "computed mass error=0.00335258000001204" "SPLASH=splash10-001i-0910000000-6a694e60823635f66757" "submitter=Aiko Barsch (Bruker)" "MoNA Rating=4.545454545454546"
Num Peaks: 49
105.0362 2.202202
107.0150 10.110110
117.0359 11.711712
119.0519 2.202202
129.0352 3.403403
130.0439 6.306306
131.0524 5.805806
132.0239 39.339339
133.0311 100.000000
134.0376 20.420420
135.0450 37.737738
136.0454 3.403403
136.0501 3.403403
141.0359 2.602603
143.0524 3.403403
151.0052 5.305305
154.0455 4.404404
155.0522 8.008008
157.0386 8.108108
158.0401 3.803804
159.0466 26.226226
160.0507 3.403403
161.0301 2.302302
167.0523 5.205205
169.0697 7.107107
171.0479 5.305305
173.0611 3.603604
180.0610 10.310310
181.0683 6.006006
182.0441 5.605606
183.0474 10.410410
184.0522 2.302302
195.0487 4.304304
196.0542 5.205205
197.0601 5.305305
199.0429 4.204204
201.0575 5.505506
213.0558 2.702703
223.0434 8.008008
224.0507 12.512513
225.0557 5.305305
226.0494 2.402402
227.0384 3.203203
239.0381 4.904905
240.0472 4.904905
241.0536 3.003003
268.0399 2.802803
269.0489 22.022022
270.0526 3.803804


Name: Genistin
Synon: $:00in-source
DB#: MetaboBASE0062
InChIKey: ZCOLJUOHXJRHDI-CMWLGVBASA-N
Precursor_type: [M-H]-
Spectrum_type: MS2
PrecursorMZ: 431.097
Instrument_type: LC-ESI-TOF
Instrument: impact HD
Ion_mode: N
Collision_energy: 30
Formula: C21H20O10
MW: 432
ExactMass: 432.10564683999996
Comments: "cas number=529-59-9" "SMILES=c1cc(ccc1c2coc3cc(cc(c3c2=O)O)O[C@H]4[C@@H]([C@H]([C@@H]([C@H](O4)CO)O)O)O)O" "InChI=InChI=1S/C21H20O10/c22-7-15-18(26)19(27)20(28)21(31-15)30-11-5-13(24)16-14(6-11)29-8-12(17(16)25)9-1-3-10(23)4-2-9/h1-6,8,15,18-24,26-28H,7H2/t15-,18-,19+,20-,21-/m1/s1" "computed SMILES=O=C1C(=COC2=CC(OC3OC(CO)C(O)C(O)C3O)=CC(O)=C12)C=4C=CC(O)=CC4" "license=License CC-BY-NC-SA 4.0 International" "author=Plant Biology, The Noble Foundation, Ardmore, OK, US/Dennis Fine, Daniel Wherritt, and Lloyd Sumner" "ionization=ESI" "isolation width=5" "collision gas=Nitrogen" "peak width=0.015" "date=2014-08-05 20:28:37+02:00" "column=Waters Acquity BEH C18 1.7um x 2.1 x 150 mm" "retention time=324" "raw data file=C:\Data\Confirmed standards 24_July_2014\MSMS\Genistin vial 20 50%MeOH_1-F,4_01_538.d" "computed mass accuracy=3.1798875890873" "computed mass error=-0.0013708399999927678" "SPLASH=splash10-014i-0090000000-49c48229b35691b20dbc" "submitter=Aiko Barsch (Bruker)" "MoNA Rating=4.583333333333334"
Num Peaks: 32
224.0436 0.600601
226.0320 0.700701
239.0350 1.301301
240.0394 1.201201
241.0440 0.700701
253.0505 0.600601
267.0311 2.002002
268.0376 100.000000
269.0445 75.675676
270.0490 12.712713
271.0505 1.101101
282.0507 0.500501
311.0565 0.900901
431.0970 14.414414
432.0974 3.103103
592.0551 0.500501
792.2899 0.500501
810.7695 0.800801
845.3169 0.500501
950.3104 0.600601
956.1979 0.600601
986.9158 0.600601
1026.1300 0.600601
1073.5674 0.600601
1117.2382 0.700701
1156.7582 0.600601
1224.5536 0.700701
1309.9718 0.600601
1333.0775 0.600601
1343.2780 0.700701
1401.2725 0.700701
1413.0135 0.600601


Name: Genistin
Synon: $:00in-source
DB#: MetaboBASE0063
InChIKey: ZCOLJUOHXJRHDI-CMWLGVBASA-N
Precursor_type: [M-H]-
Spectrum_type: MS2
PrecursorMZ: 431.1
Instrument_type: LC-ESI-TOF
Instrument: impact HD
Ion_mode: N
Collision_energy: 50
Formula: C21H20O10
MW: 432
ExactMass: 432.10564683999996
Comments: "cas number=529-59-9" "SMILES=c1cc(ccc1c2coc3cc(cc(c3c2=O)O)O[C@H]4[C@@H]([C@H]([C@@H]([C@H](O4)CO)O)O)O)O" "InChI=InChI=1S/C21H20O10/c22-7-15-18(26)19(27)20(28)21(31-15)30-11-5-13(24)16-14(6-11)29-8-12(17(16)25)9-1-3-10(23)4-2-9/h1-6,8,15,18-24,26-28H,7H2/t15-,18-,19+,20-,21-/m1/s1" "computed SMILES=O=C1C(=COC2=CC(OC3OC(CO)C(O)C(O)C3O)=CC(O)=C12)C=4C=CC(O)=CC4" "license=License CC-BY-NC-SA 4.0 International" "author=Plant Biology, The Noble Foundation, Ardmore, OK, US/Dennis Fine, Daniel Wherritt, and Lloyd Sumner" "ionization=ESI" "isolation width=5" "collision gas=Nitrogen" "peak width=0.017" "date=2014-08-05 20:28:37+02:00" "column=Waters Acquity BEH C18 1.7um x 2.1 x 150 mm" "retention time=324" "raw data file=C:\Data\Confirmed standards 24_July_2014\MSMS\Genistin vial 20 50%MeOH_1-F,4_01_538.d" "computed mass accuracy=3.779076780445322" "computed mass error=0.0016291600000499784" "SPLASH=splash10-014i-0090000000-8af657f8354899864b05" "submitter=Aiko Barsch (Bruker)" "MoNA Rating=4.583333333333334"
Num Peaks: 29
132.0202 6.406406
133.0272 2.902903
135.0078 1.701702
155.0522 1.301301
159.0444 1.301301
181.0639 1.601602
183.0461 1.301301
195.0393 1.801802
196.0527 3.203203
201.0533 1.801802
211.0393 8.008008
212.0479 2.002002
213.0499 1.701702
223.0399 6.506507
224.0477 8.208208
225.0553 6.806807
226.0289 5.405405
227.0311 1.901902
239.0358 37.937938
240.0414 20.920921
241.0462 5.205205
267.0286 37.437437
268.0376 100.000000
269.0433 74.074074
270.0476 10.010010
281.0450 1.201201
679.5333 1.301301
1076.3809 1.301301
1234.1117 1.401401


Name: Genistin
Synon: $:00in-source
DB#: MetaboBASE0064
InChIKey: ZCOLJUOHXJRHDI-CMWLGVBASA-N
Instrument_type: LC-ESI-TOF
Instrument: impact HD
Ion_mode: N
Formula: C21H20O10
MW: 432
ExactMass: 432.10564683999996
Comments: "cas number=529-59-9" "SMILES=c1cc(ccc1c2coc3cc(cc(c3c2=O)O)O[C@H]4[C@@H]([C@H]([C@@H]([C@H](O4)CO)O)O)O)O" "InChI=InChI=1S/C21H20O10/c22-7-15-18(26)19(27)20(28)21(31-15)30-11-5-13(24)16-14(6-11)29-8-12(17(16)25)9-1-3-10(23)4-2-9/h1-6,8,15,18-24,26-28H,7H2/t15-,18-,19+,20-,21-/m1/s1" "computed SMILES=O=C1C(=COC2=CC(OC3OC(CO)C(O)C(O)C3O)=CC(O)=C12)C=4C=CC(O)=CC4" "license=License CC-BY-NC-SA 4.0 International" "author=Plant Biology, The Noble Foundation, Ardmore, OK, US/Dennis Fine, Daniel Wherritt, and Lloyd Sumner" "ionization=ESI" "collision gas=Nitrogen" "peak width=0.0085" "date=2013-07-02 11:08:23+02:00" "column=Waters Acquity BEH C18 1.7um x 2.1 x 150 mm" "retention time=324" "raw data file=D:\Data\Confirmed Standards\Reinjection_1uL\Genistin  (vial 20).d" "SPLASH=splash10-00lr-0060900000-521eca780e4dd8d5bbe8" "submitter=Aiko Barsch (Bruker)" "MoNA Rating=3.888888888888889"
Num Peaks: 37
269.0452 85.185185
270.0484 13.713714
271.0506 2.002002
310.9307 0.200200
311.0551 1.801802
431.0984 100.000000
432.1014 23.923924
433.1029 4.704705
434.1057 0.600601
467.0741 2.602603
468.0767 0.700701
469.0739 0.900901
477.1036 5.505506
478.1074 1.201201
499.0847 4.304304
500.0889 0.900901
521.0669 3.603604
521.1292 0.900901
522.0716 0.900901
522.1223 0.100100
522.1362 0.200200
561.0555 0.800801
562.0538 0.100100
567.0715 1.401401
568.0753 0.100100
574.0353 0.400400
576.0195 2.302302
577.0222 0.800801
583.0372 0.500501
589.0556 0.600601
590.0555 0.100100
626.0038 0.600601
701.1516 1.101101
702.1522 0.400400
863.2048 2.902903
864.2051 1.201201
865.2104 0.200200


Name: Genistin
Synon: $:00in-source
DB#: MetaboBASE0065
InChIKey: ZCOLJUOHXJRHDI-CMWLGVBASA-N
Precursor_type: [M-H]-
Spectrum_type: MS2
PrecursorMZ: 431.099
Instrument_type: LC-ESI-TOF
Instrument: impact HD
Ion_mode: N
Collision_energy: 40
Formula: C21H20O10
MW: 432
ExactMass: 432.10564683999996
Comments: "cas number=529-59-9" "SMILES=c1cc(ccc1c2coc3cc(cc(c3c2=O)O)O[C@H]4[C@@H]([C@H]([C@@H]([C@H](O4)CO)O)O)O)O" "InChI=InChI=1S/C21H20O10/c22-7-15-18(26)19(27)20(28)21(31-15)30-11-5-13(24)16-14(6-11)29-8-12(17(16)25)9-1-3-10(23)4-2-9/h1-6,8,15,18-24,26-28H,7H2/t15-,18-,19+,20-,21-/m1/s1" "computed SMILES=O=C1C(=COC2=CC(OC3OC(CO)C(O)C(O)C3O)=CC(O)=C12)C=4C=CC(O)=CC4" "license=License CC-BY-NC-SA 4.0 International" "author=Plant Biology, The Noble Foundation, Ardmore, OK, US/Dennis Fine, Daniel Wherritt, and Lloyd Sumner" "ionization=ESI" "isolation width=5" "collision gas=Nitrogen" "peak width=0.015" "date=2014-08-05 20:28:37+02:00" "column=Waters Acquity BEH C18 1.7um x 2.1 x 150 mm" "retention time=324" "raw data file=C:\Data\Confirmed standards 24_July_2014\MSMS\Genistin vial 20 50%MeOH_1-F,4_01_538.d" "computed mass accuracy=1.459432752144593" "computed mass error=6.291600000167819E-4" "SPLASH=splash10-014i-0090000000-9c26b3ed8e9238de44dc" "submitter=Aiko Barsch (Bruker)" "MoNA Rating=4.583333333333334"
Num Peaks: 34
132.0223 0.900901
135.0099 0.800801
197.0602 0.500501
211.0369 1.001001
212.0455 0.600601
223.0371 1.701702
224.0456 3.503504
225.0543 1.301301
226.0251 1.101101
227.0325 1.001001
237.0585 0.600601
239.0352 10.410410
240.0420 6.106106
241.0459 0.800801
253.0499 0.600601
267.0287 10.510511
268.0379 100.000000
269.0450 65.265265
270.0473 9.809810
431.0990 0.800801
604.9402 0.600601
801.7718 0.600601
862.7036 0.600601
951.2937 0.600601
972.6436 0.700701
1011.6589 0.600601
1025.2059 0.700701
1126.3998 0.700701
1167.9207 0.600601
1198.8638 0.700701
1216.6584 0.700701
1239.0414 0.700701
1429.6772 0.700701
1444.6221 0.700701


Name: Genistin
Synon: $:00in-source
DB#: MetaboBASE0066
InChIKey: ZCOLJUOHXJRHDI-CMWLGVBASA-N
Precursor_type: [M-H]-
Spectrum_type: MS2
PrecursorMZ: 431.0989
Instrument_type: LC-ESI-TOF
Instrument: impact HD
Ion_mode: N
Collision_energy: 10
Formula: C21H20O10
MW: 432
ExactMass: 432.10564683999996
Comments: "cas number=529-59-9" "SMILES=c1cc(ccc1c2coc3cc(cc(c3c2=O)O)O[C@H]4[C@@H]([C@H]([C@@H]([C@H](O4)CO)O)O)O)O" "InChI=InChI=1S/C21H20O10/c22-7-15-18(26)19(27)20(28)21(31-15)30-11-5-13(24)16-14(6-11)29-8-12(17(16)25)9-1-3-10(23)4-2-9/h1-6,8,15,18-24,26-28H,7H2/t15-,18-,19+,20-,21-/m1/s1" "computed SMILES=O=C1C(=COC2=CC(OC3OC(CO)C(O)C(O)C3O)=CC(O)=C12)C=4C=CC(O)=CC4" "license=License CC-BY-NC-SA 4.0 International" "author=Plant Biology, The Noble Foundation, Ardmore, OK, US/Dennis Fine, Daniel Wherritt, and Lloyd Sumner" "ionization=ESI" "isolation width=5" "collision gas=Nitrogen" "peak width=0.015" "date=2014-08-05 20:28:37+02:00" "column=Waters Acquity BEH C18 1.7um x 2.1 x 150 mm" "retention time=324" "raw data file=C:\Data\Confirmed standards 24_July_2014\MSMS\Genistin vial 20 50%MeOH_1-F,4_01_538.d" "computed mass accuracy=1.2274677574957484" "computed mass error=5.291600000418839E-4" "SPLASH=splash10-00lr-0060900000-cdf08327e0814ca51a1d" "submitter=Aiko Barsch (Bruker)" "MoNA Rating=4.583333333333334"
Num Peaks: 37
268.0303 0.700701
269.0451 74.574575
270.0486 10.110110
271.0523 0.800801
283.0616 0.700701
311.0573 3.003003
312.0538 0.800801
335.0507 0.700701
431.0989 100.000000
432.1011 20.820821
433.1082 1.501502
853.7549 0.700701
856.8725 0.800801
871.9424 0.700701
885.0897 0.600601
938.7294 0.600601
1037.8165 0.700701
1043.0299 0.700701
1082.3126 0.700701
1082.3390 0.800801
1152.9266 0.700701
1153.6360 1.001001
1177.1816 0.700701
1182.8176 0.700701
1187.9186 0.800801
1191.5454 0.800801
1211.3328 0.700701
1218.4829 1.001001
1252.6976 0.700701
1301.3640 0.700701
1310.6908 0.700701
1319.8848 0.800801
1398.6383 0.700701
1448.7126 0.700701
1460.0974 0.700701
1463.3475 0.800801
1489.0165 0.800801


Name: Genistin
Synon: $:00in-source
DB#: MetaboBASE0067
InChIKey: ZCOLJUOHXJRHDI-CMWLGVBASA-N
Precursor_type: [M-H]-
Spectrum_type: MS2
PrecursorMZ: 431.0985
Instrument_type: LC-ESI-TOF
Instrument: impact HD
Ion_mode: N
Collision_energy: 20
Formula: C21H20O10
MW: 432
ExactMass: 432.10564683999996
Comments: "cas number=529-59-9" "SMILES=c1cc(ccc1c2coc3cc(cc(c3c2=O)O)O[C@H]4[C@@H]([C@H]([C@@H]([C@H](O4)CO)O)O)O)O" "InChI=InChI=1S/C21H20O10/c22-7-15-18(26)19(27)20(28)21(31-15)30-11-5-13(24)16-14(6-11)29-8-12(17(16)25)9-1-3-10(23)4-2-9/h1-6,8,15,18-24,26-28H,7H2/t15-,18-,19+,20-,21-/m1/s1" "computed SMILES=O=C1C(=COC2=CC(OC3OC(CO)C(O)C(O)C3O)=CC(O)=C12)C=4C=CC(O)=CC4" "license=License CC-BY-NC-SA 4.0 International" "author=Plant Biology, The Noble Foundation, Ardmore, OK, US/Dennis Fine, Daniel Wherritt, and Lloyd Sumner" "ionization=ESI" "isolation width=5" "collision gas=Nitrogen" "peak width=0.013" "date=2014-08-05 20:28:37+02:00" "column=Waters Acquity BEH C18 1.7um x 2.1 x 150 mm" "retention time=324" "raw data file=C:\Data\Confirmed standards 24_July_2014\MSMS\Genistin vial 20 50%MeOH_1-F,4_01_538.d" "computed mass accuracy=0.2996067024789121" "computed mass error=1.2916000002860528E-4" "SPLASH=splash10-0159-0090600000-484eafff83f61f3034a6" "submitter=Aiko Barsch (Bruker)" "MoNA Rating=4.615384615384616"
Num Peaks: 38
239.0348 0.900901
253.0554 1.101101
268.0376 39.039039
269.0451 100.000000
270.0479 13.313313
271.0514 1.201201
283.0611 1.601602
311.0559 3.403403
431.0985 96.996997
431.1611 0.700701
432.1024 20.420420
433.1074 1.501502
613.4955 0.700701
638.7967 0.700701
798.1076 0.700701
844.5499 0.700701
869.5322 0.800801
920.8856 0.900901
985.4929 0.900901
1005.2770 0.900901
1050.0796 0.800801
1103.2819 0.800801
1128.1865 0.800801
1141.9133 0.900901
1188.5208 0.800801
1215.3480 0.800801
1226.1271 1.301301
1249.4849 1.001001
1254.4327 0.900901
1257.6951 0.800801
1258.1321 0.800801
1275.2555 1.001001
1293.2007 0.800801
1370.4427 0.900901
1390.7067 0.800801
1396.4485 0.800801
1400.1006 0.900901
1452.6377 0.800801


Name: Resveratrol
Synon: $:00in-source
DB#: MetaboBASE0068
InChIKey: LUKBXSAWLPMMSZ-OWOJBTEDSA-N
Instrument_type: LC-ESI-TOF
Instrument: impact HD
Ion_mode: N
Formula: C14H12O3
MW: 228
ExactMass: 228.07864424399997
Comments: "cas number=501-36-0" "SMILES=c1cc(ccc1/C=C/c2cc(cc(c2)O)O)O" "InChI=InChI=1S/C14H12O3/c15-12-5-3-10(4-6-12)1-2-11-7-13(16)9-14(17)8-11/h1-9,15-17H/b2-1+" "computed SMILES=OC1=CC=C(C=C1)C=CC=2C=C(O)C=C(O)C2" "license=License CC-BY-NC-SA 4.0 International" "author=Plant Biology, The Noble Foundation, Ardmore, OK, US/Dennis Fine, Daniel Wherritt, and Lloyd Sumner" "ionization=ESI" "collision gas=Nitrogen" "peak width=0.0078" "date=2013-07-02 11:49:07+02:00" "column=Waters Acquity BEH C18 1.7um x 2.1 x 150 mm" "retention time=386.4" "raw data file=D:\Data\Confirmed Standards\Reinjection_1uL\Resveratrol (vial 21).d" "SPLASH=splash10-004i-0090000000-f9ff90d98488d6d05587" "submitter=Aiko Barsch (Bruker)" "MoNA Rating=3.888888888888889"
Num Peaks: 12
143.0503 0.800801
183.0815 0.700701
185.0606 2.602603
186.0637 0.300300
225.0556 0.600601
226.0627 0.300300
227.0718 100.000000
228.0751 16.916917
229.0773 1.901902
243.0666 0.300300
295.0585 0.700701
453.1350 1.701702


Name: Resveratrol
Synon: $:00in-source
DB#: MetaboBASE0069
InChIKey: LUKBXSAWLPMMSZ-OWOJBTEDSA-N
Precursor_type: [M-H]-
Spectrum_type: MS2
PrecursorMZ: 227.1
Instrument_type: LC-ESI-TOF
Instrument: impact HD
Ion_mode: N
Collision_energy: 50
Formula: C14H12O3
MW: 228
ExactMass: 228.07864424399997
Comments: "cas number=501-36-0" "SMILES=c1cc(ccc1/C=C/c2cc(cc(c2)O)O)O" "InChI=InChI=1S/C14H12O3/c15-12-5-3-10(4-6-12)1-2-11-7-13(16)9-14(17)8-11/h1-9,15-17H/b2-1+" "computed SMILES=OC1=CC=C(C=C1)C=CC=2C=C(O)C=C(O)C2" "license=License CC-BY-NC-SA 4.0 International" "author=Plant Biology, The Noble Foundation, Ardmore, OK, US/Dennis Fine, Daniel Wherritt, and Lloyd Sumner" "ionization=ESI" "isolation width=5" "collision gas=Nitrogen" "peak width=0.022" "date=2013-11-15 23:44:41+01:00" "column=Waters Acquity BEH C18 1.7um x 2.1 x 150 mm" "retention time=386.4" "raw data file=G:\Sumner Lab Data Management Workspace Jun2013\Instrumentation\Bruker maXis QToF MS\Data\Z Lei Confirmed Standards\Confirmed stds MSMS 14Nov13\Resveratrol MSMS (vial 21).d" "computed mass accuracy=126.07554381334214" "computed mass error=0.02863175600001" "SPLASH=splash10-014i-0900000000-79bf3bfcbb7bcdd0ffd2" "submitter=Aiko Barsch (Bruker)" "MoNA Rating=4.545454545454546"
Num Peaks: 4
115.0574 100.000000
117.0370 50.650651
119.0513 30.830831
143.0515 60.760761


Name: Resveratrol
Synon: $:00in-source
DB#: MetaboBASE0070
InChIKey: LUKBXSAWLPMMSZ-OWOJBTEDSA-N
Precursor_type: [M-H]-
Spectrum_type: MS2
PrecursorMZ: 227.1
Instrument_type: LC-ESI-TOF
Instrument: impact HD
Ion_mode: N
Collision_energy: 60
Formula: C14H12O3
MW: 228
ExactMass: 228.078644244
Comments: "cas number=501-36-0" "SMILES=c1cc(ccc1/C=C/c2cc(cc(c2)O)O)O" "InChI=InChI=1S/C14H12O3/c15-12-5-3-10(4-6-12)1-2-11-7-13(16)9-14(17)8-11/h1-9,15-17H/b2-1+" "computed SMILES=OC1=CC=C(C=C1)C=CC=2C=C(O)C=C(O)C2" "license=License CC-BY-NC-SA 4.0 International" "author=Plant Biology, The Noble Foundation, Ardmore, OK, US/Dennis Fine, Daniel Wherritt, and Lloyd Sumner" "ionization=ESI" "isolation width=5" "collision gas=Nitrogen" "peak width=0.018" "date=2013-11-15 23:44:41+01:00" "column=Waters Acquity BEH C18 1.7um x 2.1 x 150 mm" "retention time=386.4" "raw data file=G:\Sumner Lab Data Management Workspace Jun2013\Instrumentation\Bruker maXis QToF MS\Data\Z Lei Confirmed Standards\Confirmed stds MSMS 14Nov13\Resveratrol MSMS (vial 21).d" "computed mass accuracy=126.075543813217" "computed mass error=0.02863175599998158" "SPLASH=splash10-014i-0900000000-9340e3fe04d435cf8475" "submitter=Aiko Barsch (Bruker)" "MoNA Rating=4.545454545454546"
Num Peaks: 4
115.0567 100.000000
116.0480 29.529530
117.0358 53.053053
119.0536 30.130130


Name: Resveratrol
Synon: $:00in-source
DB#: MetaboBASE0071
InChIKey: LUKBXSAWLPMMSZ-OWOJBTEDSA-N
Precursor_type: [M-H]-
Spectrum_type: MS2
PrecursorMZ: 227.0747
Instrument_type: LC-ESI-TOF
Instrument: impact HD
Ion_mode: N
Collision_energy: 20
Formula: C14H12O3
MW: 228
ExactMass: 228.078644244
Comments: "cas number=501-36-0" "SMILES=c1cc(ccc1/C=C/c2cc(cc(c2)O)O)O" "InChI=InChI=1S/C14H12O3/c15-12-5-3-10(4-6-12)1-2-11-7-13(16)9-14(17)8-11/h1-9,15-17H/b2-1+" "computed SMILES=OC1=CC=C(C=C1)C=CC=2C=C(O)C=C(O)C2" "license=License CC-BY-NC-SA 4.0 International" "author=Plant Biology, The Noble Foundation, Ardmore, OK, US/Dennis Fine, Daniel Wherritt, and Lloyd Sumner" "ionization=ESI" "isolation width=5" "collision gas=Nitrogen" "peak width=0.016" "date=2013-11-15 23:44:41+01:00" "column=Waters Acquity BEH C18 1.7um x 2.1 x 150 mm" "retention time=386.4" "raw data file=G:\Sumner Lab Data Management Workspace Jun2013\Instrumentation\Bruker maXis QToF MS\Data\Z Lei Confirmed Standards\Confirmed stds MSMS 14Nov13\Resveratrol MSMS (vial 21).d" "computed mass accuracy=14.672510852130848" "computed mass error=0.003331755999994357" "SPLASH=splash10-004i-0590000000-4a9b53d6aad6ed8189d2" "submitter=Aiko Barsch (Bruker)" "MoNA Rating=4.545454545454546"
Num Peaks: 11
119.0515 2.402402
141.0727 2.702703
143.0521 14.014014
157.0674 3.403403
159.0838 4.004004
182.0751 2.302302
183.0825 7.107107
185.0637 24.124124
186.0655 2.902903
227.0747 100.000000
228.0774 10.110110


Name: Resveratrol
Synon: $:00in-source
DB#: MetaboBASE0072
InChIKey: LUKBXSAWLPMMSZ-OWOJBTEDSA-N
Precursor_type: [M-H]-
Spectrum_type: MS2
PrecursorMZ: 227.1
Instrument_type: LC-ESI-TOF
Instrument: impact HD
Ion_mode: N
Collision_energy: 40
Formula: C14H12O3
MW: 228
ExactMass: 228.07864424399997
Comments: "cas number=501-36-0" "SMILES=c1cc(ccc1/C=C/c2cc(cc(c2)O)O)O" "InChI=InChI=1S/C14H12O3/c15-12-5-3-10(4-6-12)1-2-11-7-13(16)9-14(17)8-11/h1-9,15-17H/b2-1+" "computed SMILES=OC1=CC=C(C=C1)C=CC=2C=C(O)C=C(O)C2" "license=License CC-BY-NC-SA 4.0 International" "author=Plant Biology, The Noble Foundation, Ardmore, OK, US/Dennis Fine, Daniel Wherritt, and Lloyd Sumner" "ionization=ESI" "isolation width=5" "collision gas=Nitrogen" "peak width=0.022" "date=2013-11-15 23:44:41+01:00" "column=Waters Acquity BEH C18 1.7um x 2.1 x 150 mm" "retention time=386.4" "raw data file=G:\Sumner Lab Data Management Workspace Jun2013\Instrumentation\Bruker maXis QToF MS\Data\Z Lei Confirmed Standards\Confirmed stds MSMS 14Nov13\Resveratrol MSMS (vial 21).d" "computed mass accuracy=126.07554381334214" "computed mass error=0.02863175600001" "SPLASH=splash10-00kf-0900000000-b0f6bf3388d96335d77e" "submitter=Aiko Barsch (Bruker)" "MoNA Rating=4.545454545454546"
Num Peaks: 5
115.0571 62.462462
117.0365 27.327327
119.0508 19.619620
143.0526 100.000000
144.0555 18.718719


Name: 3,5-Dimethoxy-4-hydroxyacetophenone
Synon: $:00in-source
DB#: MetaboBASE0073
InChIKey: OJOBTAOGJIWAGB-UHFFFAOYSA-N
Instrument_type: LC-ESI-TOF
Instrument: impact HD
Ion_mode: N
Formula: C10H12O4
MW: 196
ExactMass: 196.073558864
Comments: "cas number=2478-38-8" "SMILES=CC(=O)c1cc(c(c(c1)OC)O)OC" "InChI=InChI=1S/C10H12O4/c1-6(11)7-4-8(13-2)10(12)9(5-7)14-3/h4-5,12H,1-3H3" "computed SMILES=O=C(C1=CC(OC)=C(O)C(OC)=C1)C" "license=License CC-BY-NC-SA 4.0 International" "author=Plant Biology, The Noble Foundation, Ardmore, OK, US/Dennis Fine, Daniel Wherritt, and Lloyd Sumner" "ionization=ESI" "collision gas=Nitrogen" "peak width=0.0083" "date=2013-06-22 18:02:21+02:00" "column=Waters Acquity BEH C18 1.7um x 2.1 x 150 mm" "retention time=287.4" "raw data file=D:\Data\Confirmed Standards\3,5-Dimethoxy4hydroxyacetophen.d" "SPLASH=splash10-0002-0926400000-f5e32a87af6bfe0f8677" "submitter=Aiko Barsch (Bruker)" "MoNA Rating=3.888888888888889"
Num Peaks: 22
165.0194 17.117117
180.0426 33.133133
195.0661 100.000000
196.0693 9.509510
253.0235 7.507508
263.0537 22.622623
286.9773 6.506507
297.0063 8.708709
307.0796 30.430430
325.0237 30.230230
330.9666 7.007007
331.0415 9.409409
340.9969 6.906907
369.0510 9.709710
397.1482 28.628629
413.1219 34.434434
414.1259 7.207207
475.0921 10.410410
481.0359 9.809810
491.0648 12.212212
534.0831 6.206206
686.1297 6.806807


Name: Anthranilic acid
Synon: $:00in-source
DB#: MetaboBASE0074
InChIKey: RWZYAGGXGHYGMB-UHFFFAOYSA-N
Instrument_type: LC-ESI-TOF
Instrument: impact HD
Ion_mode: N
Formula: C7H7NO2
MW: 137
ExactMass: 137.047678464
Comments: "cas number=118-92-3" "SMILES=c1ccc(c(c1)C(=O)O)N" "InChI=InChI=1S/C7H7NO2/c8-6-4-2-1-3-5(6)7(9)10/h1-4H,8H2,(H,9,10)" "computed SMILES=O=C(O)C=1C=CC=CC1N" "license=License CC-BY-NC-SA 4.0 International" "author=Plant Biology, The Noble Foundation, Ardmore, OK, US/Dennis Fine, Daniel Wherritt, and Lloyd Sumner" "ionization=ESI" "collision gas=Nitrogen" "peak width=0.029" "date=2013-09-03 22:35:51+02:00" "column=Waters Acquity BEH C18 1.7um x 2.1 x 150 mm" "retention time=203.4" "raw data file=D:\Data\Confirmed Standards\Reinjection 2 uL\Anthranilic acid  vial 29).d" "SPLASH=splash10-002b-0297100000-cfffab336823effe165b" "submitter=Aiko Barsch (Bruker)" "MoNA Rating=3.888888888888889"
Num Peaks: 24
136.041 48.748749
137.044 3.203203
217.956 5.705706
218.963 16.616617
219.965 3.203203
266.000 3.803804
275.994 3.403403
279.097 4.004004
284.940 6.106106
295.070 100.000000
296.073 14.914915
297.046 20.120120
298.051 3.603604
319.990 4.104104
324.004 5.705706
326.000 88.088088
327.004 19.519520
329.009 3.903904
350.991 3.203203
357.040 16.916917
358.044 3.103103
448.083 20.620621
449.085 5.405405
644.059 3.203203


Name: Rutin
Synon: $:00in-source
DB#: MetaboBASE0075
InChIKey: IKGXIBQEEMLURG-NVPNHPEKSA-N
Instrument_type: LC-ESI-TOF
Instrument: impact HD
Ion_mode: N
Formula: C27H30O16
MW: 610
ExactMass: 610.15338488
Comments: "cas number=153-18-4" "SMILES=C[C@H]1[C@@H]([C@H]([C@H]([C@@H](O1)OC[C@@H]2[C@H]([C@@H]([C@H]([C@@H](O2)Oc3c(=O)c4c(cc(cc4oc3c5ccc(c(c5)O)O)O)O)O)O)O)O)O)O" "InChI=InChI=1S/C27H30O16/c1-8-17(32)20(35)22(37)26(40-8)39-7-15-18(33)21(36)23(38)27(42-15)43-25-19(34)16-13(31)5-10(28)6-14(16)41-24(25)9-2-3-11(29)12(30)4-9/h2-6,8,15,17-18,20-23,26-33,35-38H,7H2,1H3/t8-,15+,17-,18+,20+,21-,22+,23+,26+,27-/m0/s1" "computed SMILES=O=C1C(OC2OC(COC3OC(C)C(O)C(O)C3O)C(O)C(O)C2O)=C(OC=4C=C(O)C=C(O)C14)C=5C=CC(O)=C(O)C5" "license=License CC-BY-NC-SA 4.0 International" "author=Plant Biology, The Noble Foundation, Ardmore, OK, US/Dennis Fine, Daniel Wherritt, and Lloyd Sumner" "ionization=ESI" "collision gas=Nitrogen" "peak width=0.023" "date=2013-09-04 03:44:39+02:00" "column=Waters Acquity BEH C18 1.7um x 2.1 x 150 mm" "retention time=295.2" "raw data file=D:\Data\Confirmed Standards\Reinjection 2 uL\Rutin (vial 33).d" "SPLASH=splash10-0a4i-0000009000-270308e3f77a0404dea8" "submitter=Aiko Barsch (Bruker)" "MoNA Rating=3.888888888888889"
Num Peaks: 12
607.1321 50.650651
608.1357 13.113113
609.1472 100.000000
610.1508 24.424424
611.1528 5.105105
625.1418 2.602603
677.1348 2.302302
1215.2662 1.001001
1217.2849 7.107107
1218.2875 4.004004
1219.2983 5.405405
1220.3007 2.302302


Name: Rutin
Synon: $:00in-source
DB#: MetaboBASE0076
InChIKey: IKGXIBQEEMLURG-NVPNHPEKSA-N
Instrument_type: LC-ESI-TOF
Instrument: impact HD
Ion_mode: N
Collision_energy: 10
Formula: C27H30O16
MW: 610
ExactMass: 610.15338488
Comments: "cas number=153-18-4" "SMILES=C[C@H]1[C@@H]([C@H]([C@H]([C@@H](O1)OC[C@@H]2[C@H]([C@@H]([C@H]([C@@H](O2)Oc3c(=O)c4c(cc(cc4oc3c5ccc(c(c5)O)O)O)O)O)O)O)O)O)O" "InChI=InChI=1S/C27H30O16/c1-8-17(32)20(35)22(37)26(40-8)39-7-15-18(33)21(36)23(38)27(42-15)43-25-19(34)16-13(31)5-10(28)6-14(16)41-24(25)9-2-3-11(29)12(30)4-9/h2-6,8,15,17-18,20-23,26-33,35-38H,7H2,1H3/t8-,15+,17-,18+,20+,21-,22+,23+,26+,27-/m0/s1" "computed SMILES=O=C1C(OC2OC(COC3OC(C)C(O)C(O)C3O)C(O)C(O)C2O)=C(OC=4C=C(O)C=C(O)C14)C=5C=CC(O)=C(O)C5" "license=License CC-BY-NC-SA 4.0 International" "author=Plant Biology, The Noble Foundation, Ardmore, OK, US/Dennis Fine, Daniel Wherritt, and Lloyd Sumner" "ionization=ESI" "collision gas=Nitrogen" "peak width=0.011" "date=2014-08-13 17:01:40+02:00" "column=Waters Acquity BEH C18 1.7um x 2.1 x 150 mm" "retention time=295.2" "raw data file=C:\Data\Confirmed standards 24_July_2014\Z Lei std 24July2014 new col_1-F,8_01_604.d" "SPLASH=splash10-0a4i-0010009000-f94b0edacf4c3bc9c9e3" "submitter=Aiko Barsch (Bruker)" "MoNA Rating=4.444444444444445"
Num Peaks: 17
607.1312 10.210210
608.1344 3.403403
609.1481 100.000000
609.9291 0.100100
610.1510 32.732733
611.1523 8.908909
612.1548 1.801802
677.1328 2.602603
678.1368 0.300300
708.0631 2.202202
709.0658 0.500501
1217.2965 2.802803
1218.2998 1.701702
1219.3119 10.410410
1220.3167 6.106106
1221.3184 2.502503
1222.3196 0.500501


Name: Rutin
Synon: $:00in-source
DB#: MetaboBASE0077
InChIKey: IKGXIBQEEMLURG-NVPNHPEKSA-N
Precursor_type: [M-H]-
Spectrum_type: MS2
PrecursorMZ: 609.142
Instrument_type: LC-ESI-TOF
Instrument: impact HD
Ion_mode: N
Collision_energy: 40
Formula: C27H30O16
MW: 610
ExactMass: 610.1533848800001
Comments: "cas number=153-18-4" "SMILES=C[C@H]1[C@@H]([C@H]([C@H]([C@@H](O1)OC[C@@H]2[C@H]([C@@H]([C@H]([C@@H](O2)Oc3c(=O)c4c(cc(cc4oc3c5ccc(c(c5)O)O)O)O)O)O)O)O)O)O" "InChI=InChI=1S/C27H30O16/c1-8-17(32)20(35)22(37)26(40-8)39-7-15-18(33)21(36)23(38)27(42-15)43-25-19(34)16-13(31)5-10(28)6-14(16)41-24(25)9-2-3-11(29)12(30)4-9/h2-6,8,15,17-18,20-23,26-33,35-38H,7H2,1H3/t8-,15+,17-,18+,20+,21-,22+,23+,26+,27-/m0/s1" "computed SMILES=O=C1C(OC2OC(COC3OC(C)C(O)C(O)C3O)C(O)C(O)C2O)=C(OC=4C=C(O)C=C(O)C14)C=5C=CC(O)=C(O)C5" "license=License CC-BY-NC-SA 4.0 International" "author=Plant Biology, The Noble Foundation, Ardmore, OK, US/Dennis Fine, Daniel Wherritt, and Lloyd Sumner" "ionization=ESI" "isolation width=5" "collision gas=Nitrogen" "peak width=0.026" "date=2013-09-05 17:43:31+02:00" "column=Waters Acquity BEH C18 1.7um x 2.1 x 150 mm" "retention time=295.2" "raw data file=C:\Data\Confirmed Standards\Reinjection 2 uL\MSMS\Rutin (vial 33) MSMS.d" "computed mass accuracy=6.745356583505598" "computed mass error=-0.004108879999989767" "SPLASH=splash10-0udi-0049001000-8327d9d15b0d22a0c968" "submitter=Aiko Barsch (Bruker)" "MoNA Rating=4.545454545454546"
Num Peaks: 33
178.998 0.500501
227.034 0.500501
241.014 1.401401
242.021 1.901902
243.027 1.101101
245.009 1.101101
246.012 0.400400
255.029 1.501502
256.032 0.400400
270.016 13.613614
271.022 11.311311
272.026 2.802803
273.003 0.500501
273.035 0.600601
283.023 0.600601
285.039 0.400400
298.010 12.212212
299.018 26.026026
300.026 100.000000
301.033 50.450450
302.036 5.905906
303.039 0.700701
311.018 0.400400
313.034 1.001001
341.028 1.101101
342.030 0.400400
343.044 1.001001
579.132 0.600601
607.126 2.002002
608.131 1.201201
609.142 15.115115
610.145 3.403403
611.147 1.001001


Name: 6,8-Diprenylnaringenin
Synon: $:00in-source
DB#: MetaboBASE0078
InChIKey: HCNLDGTUMBOHKT-NRFANRHFSA-N
Precursor_type: [M-H]-
Spectrum_type: MS2
PrecursorMZ: 407.186
Instrument_type: LC-ESI-TOF
Instrument: impact HD
Ion_mode: N
Collision_energy: 20
Formula: C25H28O5
MW: 408
ExactMass: 408.193673996
Comments: "cas number=68236-11-3" "SMILES=CC(=CCc1c(c(c2c(c1O)C(=O)C[C@H](O2)c3ccc(cc3)O)CC=C(C)C)O)C" "InChI=InChI=1S/C25H28O5/c1-14(2)5-11-18-23(28)19(12-6-15(3)4)25-22(24(18)29)20(27)13-21(30-25)16-7-9-17(26)10-8-16/h5-10,21,26,28-29H,11-13H2,1-4H3/t21-/m0/s1" "computed SMILES=O=C1C=2C(O)=C(C(O)=C(C2OC(C3=CC=C(O)C=C3)C1)CC=C(C)C)CC=C(C)C" "license=License CC-BY-NC-SA 4.0 International" "author=Plant Biology, The Noble Foundation, Ardmore, OK, US/Dennis Fine, Daniel Wherritt, and Lloyd Sumner" "ionization=ESI" "isolation width=5" "collision gas=Nitrogen" "peak width=0.012" "date=2014-01-10 09:14:27+01:00" "column=Waters Acquity BEH C18 1.7um x 2.1 x 150 mm" "retention time=1440.6" "raw data file=C:\Data\Confirmed Standards\14Jan9 Confirmed stds MSMS\6,8-Diprenylnaringen (vial 49).d" "computed mass accuracy=0.9774304617638778" "computed mass error=-3.979960000037863E-4" "SPLASH=splash10-0a4i-0000900000-a66c35ae70ea369ce0b3" "submitter=Aiko Barsch (Bruker)" "MoNA Rating=4.615384615384616"
Num Peaks: 5
287.1282 9.809810
288.1304 2.702703
407.1860 100.000000
408.1888 19.019019
409.1913 2.802803


Name: 6,8-Diprenylnaringenin
Synon: $:00in-source
DB#: MetaboBASE0079
InChIKey: HCNLDGTUMBOHKT-NRFANRHFSA-N
Precursor_type: [M-H]-
Spectrum_type: MS2
PrecursorMZ: 407.1858
Instrument_type: LC-ESI-TOF
Instrument: impact HD
Ion_mode: N
Collision_energy: 10
Formula: C25H28O5
MW: 408
ExactMass: 408.19367399600003
Comments: "cas number=68236-11-3" "SMILES=CC(=CCc1c(c(c2c(c1O)C(=O)C[C@H](O2)c3ccc(cc3)O)CC=C(C)C)O)C" "InChI=InChI=1S/C25H28O5/c1-14(2)5-11-18-23(28)19(12-6-15(3)4)25-22(24(18)29)20(27)13-21(30-25)16-7-9-17(26)10-8-16/h5-10,21,26,28-29H,11-13H2,1-4H3/t21-/m0/s1" "computed SMILES=O=C1C=2C(O)=C(C(O)=C(C2OC(C3=CC=C(O)C=C3)C1)CC=C(C)C)CC=C(C)C" "license=License CC-BY-NC-SA 4.0 International" "author=Plant Biology, The Noble Foundation, Ardmore, OK, US/Dennis Fine, Daniel Wherritt, and Lloyd Sumner" "ionization=ESI" "isolation width=5" "collision gas=Nitrogen" "peak width=0.011" "date=2014-01-10 09:14:27+01:00" "column=Waters Acquity BEH C18 1.7um x 2.1 x 150 mm" "retention time=1440.6" "raw data file=C:\Data\Confirmed Standards\14Jan9 Confirmed stds MSMS\6,8-Diprenylnaringen (vial 49).d" "computed mass accuracy=1.4686072060157036" "computed mass error=-5.97996000067269E-4" "SPLASH=splash10-0a4i-0000900000-b70bcc7844fc22df5b27" "submitter=Aiko Barsch (Bruker)" "MoNA Rating=4.583333333333334"
Num Peaks: 3
407.1858 100.000000
408.1884 19.619620
409.1920 2.602603


Name: 6,8-Diprenylnaringenin
Synon: $:00in-source
DB#: MetaboBASE0080
InChIKey: HCNLDGTUMBOHKT-NRFANRHFSA-N
Instrument_type: LC-ESI-TOF
Instrument: impact HD
Ion_mode: N
Formula: C25H28O5
MW: 408
ExactMass: 408.19367399600003
Comments: "cas number=68236-11-3" "SMILES=CC(=CCc1c(c(c2c(c1O)C(=O)C[C@H](O2)c3ccc(cc3)O)CC=C(C)C)O)C" "InChI=InChI=1S/C25H28O5/c1-14(2)5-11-18-23(28)19(12-6-15(3)4)25-22(24(18)29)20(27)13-21(30-25)16-7-9-17(26)10-8-16/h5-10,21,26,28-29H,11-13H2,1-4H3/t21-/m0/s1" "computed SMILES=O=C1C=2C(O)=C(C(O)=C(C2OC(C3=CC=C(O)C=C3)C1)CC=C(C)C)CC=C(C)C" "license=License CC-BY-NC-SA 4.0 International" "author=Plant Biology, The Noble Foundation, Ardmore, OK, US/Dennis Fine, Daniel Wherritt, and Lloyd Sumner" "ionization=ESI" "collision gas=Nitrogen" "peak width=0.0091" "date=2013-07-03 06:50:41+02:00" "column=Waters Acquity BEH C18 1.7um x 2.1 x 150 mm" "retention time=1438.2" "raw data file=D:\Data\Confirmed Standards\Reinjection_1uL\6,8-Diprenylnaringenin.d" "SPLASH=splash10-0a4i-0000900000-44d2ab7f3397cb160d5b" "submitter=Aiko Barsch (Bruker)" "MoNA Rating=3.888888888888889"
Num Peaks: 7
304.9139 0.200200
381.1341 0.900901
382.1387 0.200200
407.1871 100.000000
408.1904 28.528529
409.1925 4.804805
410.1956 0.600601


Name: 6,8-Diprenylnaringenin
Synon: $:00in-source
DB#: MetaboBASE0081
InChIKey: HCNLDGTUMBOHKT-NRFANRHFSA-N
Instrument_type: LC-ESI-TOF
Instrument: impact HD
Ion_mode: N
Formula: C25H28O5
MW: 408
ExactMass: 408.193673996
Comments: "cas number=68236-11-3" "SMILES=CC(=CCc1c(c(c2c(c1O)C(=O)C[C@H](O2)c3ccc(cc3)O)CC=C(C)C)O)C" "InChI=InChI=1S/C25H28O5/c1-14(2)5-11-18-23(28)19(12-6-15(3)4)25-22(24(18)29)20(27)13-21(30-25)16-7-9-17(26)10-8-16/h5-10,21,26,28-29H,11-13H2,1-4H3/t21-/m0/s1" "computed SMILES=O=C1C=2C(O)=C(C(O)=C(C2OC(C3=CC=C(O)C=C3)C1)CC=C(C)C)CC=C(C)C" "license=License CC-BY-NC-SA 4.0 International" "author=Plant Biology, The Noble Foundation, Ardmore, OK, US/Dennis Fine, Daniel Wherritt, and Lloyd Sumner" "ionization=ESI" "collision gas=Nitrogen" "peak width=0.011" "date=2014-01-10 09:14:27+01:00" "column=Waters Acquity BEH C18 1.7um x 2.1 x 150 mm" "retention time=1440.6" "raw data file=C:\Data\Confirmed Standards\14Jan9 Confirmed stds MSMS\6,8-Diprenylnaringen (vial 49).d" "SPLASH=splash10-0a4i-0000900000-59a8071756ad08d84dc9" "submitter=Aiko Barsch (Bruker)" "MoNA Rating=3.888888888888889"
Num Peaks: 8
112.9856 3.303303
248.9598 5.905906
316.9471 4.504505
378.9163 2.202202
384.9342 2.302302
407.1861 100.000000
408.1893 20.620621
409.1920 2.702703


Name: 6,8-Diprenylnaringenin
Synon: $:00in-source
DB#: MetaboBASE0082
InChIKey: HCNLDGTUMBOHKT-NRFANRHFSA-N
Precursor_type: [M-H]-
Spectrum_type: MS2
PrecursorMZ: 407.1852
Instrument_type: LC-ESI-TOF
Instrument: impact HD
Ion_mode: N
Collision_energy: 30
Formula: C25H28O5
MW: 408
ExactMass: 408.19367399600003
Comments: "cas number=68236-11-3" "SMILES=CC(=CCc1c(c(c2c(c1O)C(=O)C[C@H](O2)c3ccc(cc3)O)CC=C(C)C)O)C" "InChI=InChI=1S/C25H28O5/c1-14(2)5-11-18-23(28)19(12-6-15(3)4)25-22(24(18)29)20(27)13-21(30-25)16-7-9-17(26)10-8-16/h5-10,21,26,28-29H,11-13H2,1-4H3/t21-/m0/s1" "computed SMILES=O=C1C=2C(O)=C(C(O)=C(C2OC(C3=CC=C(O)C=C3)C1)CC=C(C)C)CC=C(C)C" "license=License CC-BY-NC-SA 4.0 International" "author=Plant Biology, The Noble Foundation, Ardmore, OK, US/Dennis Fine, Daniel Wherritt, and Lloyd Sumner" "ionization=ESI" "isolation width=5" "collision gas=Nitrogen" "peak width=0.014" "date=2014-01-10 09:14:27+01:00" "column=Waters Acquity BEH C18 1.7um x 2.1 x 150 mm" "retention time=1440.6" "raw data file=C:\Data\Confirmed Standards\14Jan9 Confirmed stds MSMS\6,8-Diprenylnaringen (vial 49).d" "computed mass accuracy=2.9421403332693417" "computed mass error=-0.0011979960000303436" "SPLASH=splash10-000i-0290300000-748b87f10e198b7761d2" "submitter=Aiko Barsch (Bruker)" "MoNA Rating=4.583333333333334"
Num Peaks: 13
119.0504 29.829830
133.0630 2.602603
219.1393 2.602603
243.1383 12.512513
244.0716 4.504505
259.1338 4.704705
261.1508 4.504505
287.1277 100.000000
288.1312 14.414414
301.1461 6.406406
313.1425 5.405405
407.1852 52.052052
408.1877 7.307307


Name: 6,8-Diprenylnaringenin
Synon: $:00in-source
DB#: MetaboBASE0083
InChIKey: HCNLDGTUMBOHKT-NRFANRHFSA-N
Precursor_type: [M-H]-
Spectrum_type: MS2
PrecursorMZ: 407.2
Instrument_type: LC-ESI-TOF
Instrument: impact HD
Ion_mode: N
Collision_energy: 40
Formula: C25H28O5
MW: 408
ExactMass: 408.19367399600003
Comments: "cas number=68236-11-3" "SMILES=CC(=CCc1c(c(c2c(c1O)C(=O)C[C@H](O2)c3ccc(cc3)O)CC=C(C)C)O)C" "InChI=InChI=1S/C25H28O5/c1-14(2)5-11-18-23(28)19(12-6-15(3)4)25-22(24(18)29)20(27)13-21(30-25)16-7-9-17(26)10-8-16/h5-10,21,26,28-29H,11-13H2,1-4H3/t21-/m0/s1" "computed SMILES=O=C1C=2C(O)=C(C(O)=C(C2OC(C3=CC=C(O)C=C3)C1)CC=C(C)C)CC=C(C)C" "license=License CC-BY-NC-SA 4.0 International" "author=Plant Biology, The Noble Foundation, Ardmore, OK, US/Dennis Fine, Daniel Wherritt, and Lloyd Sumner" "ionization=ESI" "isolation width=5" "collision gas=Nitrogen" "peak width=0.016" "date=2014-01-10 09:14:27+01:00" "column=Waters Acquity BEH C18 1.7um x 2.1 x 150 mm" "retention time=1440.6" "raw data file=C:\Data\Confirmed Standards\14Jan9 Confirmed stds MSMS\6,8-Diprenylnaringen (vial 49).d" "computed mass accuracy=33.403742632488644" "computed mass error=0.013602003999949375" "SPLASH=splash10-014i-0950000000-f783637c2d4dd348fc94" "submitter=Aiko Barsch (Bruker)" "MoNA Rating=4.545454545454546"
Num Peaks: 11
119.0501 100.000000
120.0522 11.211211
133.0677 9.709710
219.1361 5.605606
229.0665 7.507508
243.1353 12.212212
245.0898 5.805806
259.1318 5.905906
287.1266 28.228228
288.1317 5.605606
301.1434 5.905906


Name: 6-Prenylnaringenin
Synon: $:00in-source
DB#: MetaboBASE0084
InChIKey: YHWNASRGLKJRJJ-UHFFFAOYSA-N
Precursor_type: [M-H]-
Spectrum_type: MS2
PrecursorMZ: 339.1281
Instrument_type: LC-ESI-TOF
Instrument: impact HD
Ion_mode: N
Collision_energy: 30
Formula: C20H20O5
MW: 340
ExactMass: 340.13107374
Comments: "cas number=68236-13-5" "SMILES=CC(=CCc1c(cc2c(c1O)C(=O)CC(O2)c3ccc(cc3)O)O)C" "InChI=InChI=1S/C20H20O5/c1-11(2)3-8-14-15(22)9-18-19(20(14)24)16(23)10-17(25-18)12-4-6-13(21)7-5-12/h3-7,9,17,21-22,24H,8,10H2,1-2H3" "computed SMILES=O=C1C2=C(O)C(=C(O)C=C2OC(C3=CC=C(O)C=C3)C1)CC=C(C)C" "computed InChI=InChI=1S/C20H20O5/c1-11(2)3-8-14-15(22)9-18-19(20(14)24)16(23)10-17(25-18)12-4-6-13(21)7-5-12/h3-7,9,17,21-22,24H,8,10H2,1-2H3/t17-/m0/s1" "license=License CC-BY-NC-SA 4.0 International" "author=Plant Biology, The Noble Foundation, Ardmore, OK, US/Dennis Fine, Daniel Wherritt, and Lloyd Sumner" "ionization=ESI" "isolation width=5" "collision gas=Nitrogen" "peak width=0.016" "date=2013-11-16 01:06:30+01:00" "column=Waters Acquity BEH C18 1.7um x 2.1 x 150 mm" "retention time=1120.8" "raw data file=C:\Data\Confirmed Standards\Confirmed stds MSMS 14Nov13\6-Prenylnaringenin MSMS v48.d" "computed mass accuracy=12.686238622017198" "computed mass error=0.0043022600000313105" "SPLASH=splash10-014i-0940000000-459e8582c8b8f7edd4a9" "submitter=Aiko Barsch (Bruker)" "MoNA Rating=4.545454545454546"
Num Peaks: 15
119.0515 100.000000
120.0553 9.509510
131.0878 4.004004
133.0669 15.515516
134.0713 2.102102
137.0250 2.402402
151.0787 9.009009
175.0781 9.509510
176.0139 6.706707
191.0741 2.902903
219.0689 58.358358
220.0725 7.107107
233.0849 6.906907
245.0865 4.204204
339.1281 7.707708


Name: 6-Prenylnaringenin
Synon: $:00in-source
DB#: MetaboBASE0085
InChIKey: YHWNASRGLKJRJJ-UHFFFAOYSA-N
Instrument_type: LC-ESI-TOF
Instrument: impact HD
Ion_mode: N
Formula: C20H20O5
MW: 340
ExactMass: 340.13107374
Comments: "cas number=68236-13-5" "SMILES=CC(=CCc1c(cc2c(c1O)C(=O)CC(O2)c3ccc(cc3)O)O)C" "InChI=InChI=1S/C20H20O5/c1-11(2)3-8-14-15(22)9-18-19(20(14)24)16(23)10-17(25-18)12-4-6-13(21)7-5-12/h3-7,9,17,21-22,24H,8,10H2,1-2H3" "computed SMILES=O=C1C2=C(O)C(=C(O)C=C2OC(C3=CC=C(O)C=C3)C1)CC=C(C)C" "computed InChI=InChI=1S/C20H20O5/c1-11(2)3-8-14-15(22)9-18-19(20(14)24)16(23)10-17(25-18)12-4-6-13(21)7-5-12/h3-7,9,17,21-22,24H,8,10H2,1-2H3/t17-/m0/s1" "license=License CC-BY-NC-SA 4.0 International" "author=Plant Biology, The Noble Foundation, Ardmore, OK, US/Dennis Fine, Daniel Wherritt, and Lloyd Sumner" "ionization=ESI" "collision gas=Nitrogen" "peak width=0.0062" "date=2013-07-03 06:09:58+02:00" "column=Waters Acquity BEH C18 1.7um x 2.1 x 150 mm" "retention time=1120.8" "raw data file=D:\Data\Confirmed Standards\Reinjection_1uL\6-Prenylnaringenin (vial 48).d" "SPLASH=splash10-000i-0009000000-164e1d0d81349264196b" "submitter=Aiko Barsch (Bruker)" "MoNA Rating=3.888888888888889"
Num Peaks: 16
218.9821 0.200200
219.0661 0.900901
245.0813 0.300300
313.0719 0.600601
339.1242 100.000000
340.1276 23.323323
341.1295 3.403403
342.1323 0.400400
342.9798 0.100100
361.1043 0.200200
407.1106 0.700701
451.1378 0.200200
469.0824 0.200200
679.2549 0.300300
701.2372 0.400400
702.2402 0.200200


Name: 6-Prenylnaringenin
Synon: $:00in-source
DB#: MetaboBASE0086
InChIKey: YHWNASRGLKJRJJ-UHFFFAOYSA-N
Precursor_type: [M-H]-
Spectrum_type: MS2
PrecursorMZ: 339.1
Instrument_type: LC-ESI-TOF
Instrument: impact HD
Ion_mode: N
Collision_energy: 40
Formula: C20H20O5
MW: 340
ExactMass: 340.13107374000003
Comments: "cas number=68236-13-5" "SMILES=CC(=CCc1c(cc2c(c1O)C(=O)CC(O2)c3ccc(cc3)O)O)C" "InChI=InChI=1S/C20H20O5/c1-11(2)3-8-14-15(22)9-18-19(20(14)24)16(23)10-17(25-18)12-4-6-13(21)7-5-12/h3-7,9,17,21-22,24H,8,10H2,1-2H3" "computed SMILES=O=C1C2=C(O)C(=C(O)C=C2OC(C3=CC=C(O)C=C3)C1)CC=C(C)C" "computed InChI=InChI=1S/C20H20O5/c1-11(2)3-8-14-15(22)9-18-19(20(14)24)16(23)10-17(25-18)12-4-6-13(21)7-5-12/h3-7,9,17,21-22,24H,8,10H2,1-2H3/t17-/m0/s1" "license=License CC-BY-NC-SA 4.0 International" "author=Plant Biology, The Noble Foundation, Ardmore, OK, US/Dennis Fine, Daniel Wherritt, and Lloyd Sumner" "ionization=ESI" "isolation width=5" "collision gas=Nitrogen" "peak width=0.017" "date=2013-11-16 01:06:30+01:00" "column=Waters Acquity BEH C18 1.7um x 2.1 x 150 mm" "retention time=1120.8" "raw data file=C:\Data\Confirmed Standards\Confirmed stds MSMS 14Nov13\6-Prenylnaringenin MSMS v48.d" "computed mass accuracy=70.17912120324517" "computed mass error=-0.02379774000002044" "SPLASH=splash10-014i-0900000000-a7f2d42e86f57a481e66" "submitter=Aiko Barsch (Bruker)" "MoNA Rating=4.545454545454546"
Num Peaks: 17
109.0668 6.806807
117.0353 2.602603
119.0518 100.000000
120.0547 7.607608
131.0868 3.703704
133.0675 18.718719
134.0698 2.102102
136.0183 3.303303
137.0242 2.902903
145.0311 2.402402
147.0816 2.102102
151.0787 8.308308
175.0758 3.903904
176.0154 5.605606
187.0470 2.402402
219.0680 8.408408
233.0824 2.202202


Name: 6-Prenylnaringenin
Synon: $:00in-source
DB#: MetaboBASE0087
InChIKey: YHWNASRGLKJRJJ-UHFFFAOYSA-N
Precursor_type: [M-H]-
Spectrum_type: MS2
PrecursorMZ: 339.1282
Instrument_type: LC-ESI-TOF
Instrument: impact HD
Ion_mode: N
Collision_energy: 10
Formula: C20H20O5
MW: 340
ExactMass: 340.13107374
Comments: "cas number=68236-13-5" "SMILES=CC(=CCc1c(cc2c(c1O)C(=O)CC(O2)c3ccc(cc3)O)O)C" "InChI=InChI=1S/C20H20O5/c1-11(2)3-8-14-15(22)9-18-19(20(14)24)16(23)10-17(25-18)12-4-6-13(21)7-5-12/h3-7,9,17,21-22,24H,8,10H2,1-2H3" "computed SMILES=O=C1C2=C(O)C(=C(O)C=C2OC(C3=CC=C(O)C=C3)C1)CC=C(C)C" "computed InChI=InChI=1S/C20H20O5/c1-11(2)3-8-14-15(22)9-18-19(20(14)24)16(23)10-17(25-18)12-4-6-13(21)7-5-12/h3-7,9,17,21-22,24H,8,10H2,1-2H3/t17-/m0/s1" "license=License CC-BY-NC-SA 4.0 International" "author=Plant Biology, The Noble Foundation, Ardmore, OK, US/Dennis Fine, Daniel Wherritt, and Lloyd Sumner" "ionization=ESI" "isolation width=5" "collision gas=Nitrogen" "peak width=0.0093" "date=2013-11-16 01:06:30+01:00" "column=Waters Acquity BEH C18 1.7um x 2.1 x 150 mm" "retention time=1120.8" "raw data file=C:\Data\Confirmed Standards\Confirmed stds MSMS 14Nov13\6-Prenylnaringenin MSMS v48.d" "computed mass accuracy=12.981108619118695" "computed mass error=0.004402260000006208" "SPLASH=splash10-000i-0009000000-d427874324ff6ac1c315" "submitter=Aiko Barsch (Bruker)" "MoNA Rating=3.846153846153846"
Num Peaks: 2
339.1282 100.000000
340.1311 12.912913


Name: 6-Prenylnaringenin
Synon: $:00in-source
DB#: MetaboBASE0088
InChIKey: YHWNASRGLKJRJJ-UHFFFAOYSA-N
Precursor_type: [M-H]-
Spectrum_type: MS2
PrecursorMZ: 339.1281
Instrument_type: LC-ESI-TOF
Instrument: impact HD
Ion_mode: N
Collision_energy: 20
Formula: C20H20O5
MW: 340
ExactMass: 340.13107374
Comments: "cas number=68236-13-5" "SMILES=CC(=CCc1c(cc2c(c1O)C(=O)CC(O2)c3ccc(cc3)O)O)C" "InChI=InChI=1S/C20H20O5/c1-11(2)3-8-14-15(22)9-18-19(20(14)24)16(23)10-17(25-18)12-4-6-13(21)7-5-12/h3-7,9,17,21-22,24H,8,10H2,1-2H3" "computed SMILES=O=C1C2=C(O)C(=C(O)C=C2OC(C3=CC=C(O)C=C3)C1)CC=C(C)C" "computed InChI=InChI=1S/C20H20O5/c1-11(2)3-8-14-15(22)9-18-19(20(14)24)16(23)10-17(25-18)12-4-6-13(21)7-5-12/h3-7,9,17,21-22,24H,8,10H2,1-2H3/t17-/m0/s1" "license=License CC-BY-NC-SA 4.0 International" "author=Plant Biology, The Noble Foundation, Ardmore, OK, US/Dennis Fine, Daniel Wherritt, and Lloyd Sumner" "ionization=ESI" "isolation width=5" "collision gas=Nitrogen" "peak width=0.012" "date=2013-11-16 01:06:30+01:00" "column=Waters Acquity BEH C18 1.7um x 2.1 x 150 mm" "retention time=1120.8" "raw data file=C:\Data\Confirmed Standards\Confirmed stds MSMS 14Nov13\6-Prenylnaringenin MSMS v48.d" "computed mass accuracy=12.686238622017198" "computed mass error=0.0043022600000313105" "SPLASH=splash10-000i-0029000000-ed90adba71a1bcafaf85" "submitter=Aiko Barsch (Bruker)" "MoNA Rating=4.545454545454546"
Num Peaks: 7
119.0516 7.407407
219.0691 24.024024
220.0720 3.003003
233.0856 2.602603
245.0849 3.603604
339.1281 100.000000
340.1312 12.812813


Name: Cohumulone
Synon: $:00in-source
DB#: MetaboBASE0089
InChIKey: DRSITEVYZGOOQG-UHFFFAOYSA-N
Instrument_type: LC-ESI-TOF
Instrument: impact HD
Ion_mode: N
Formula: C20H28O5
MW: 348
ExactMass: 348.193673996
Comments: "cas number=142628-20-4" "SMILES=CC(C)C(=O)C1=C(C(=C(C(C1=O)(CC=C(C)C)O)O)CC=C(C)C)O" "InChI=InChI=1S/C20H28O5/c1-11(2)7-8-14-17(22)15(16(21)13(5)6)19(24)20(25,18(14)23)10-9-12(3)4/h7,9,13,22-23,25H,8,10H2,1-6H3" "computed SMILES=O=C(C1=C(O)C(=C(O)C(O)(C1=O)CC=C(C)C)CC=C(C)C)C(C)C" "license=License CC-BY-NC-SA 4.0 International" "author=Plant Biology, The Noble Foundation, Ardmore, OK, US/Dennis Fine, Daniel Wherritt, and Lloyd Sumner" "ionization=ESI" "collision gas=Nitrogen" "peak width=0.0084" "date=2013-07-03 03:27:04+02:00" "column=Waters Acquity BEH C18 1.7um x 2.1 x 150 mm" "retention time=1495.2" "raw data file=D:\Data\Confirmed Standards\Reinjection_1uL\Cohumulone (vial 44).d" "SPLASH=splash10-0002-0059000000-6ead1f4b456bd6b0cd1b" "submitter=Aiko Barsch (Bruker)" "MoNA Rating=3.888888888888889"
Num Peaks: 27
112.9849 1.701702
242.9429 1.101101
242.9843 0.200200
278.1152 59.659660
278.9136 1.801802
279.0799 0.200200
279.1188 8.008008
279.1648 0.600601
292.9838 0.600601
293.1783 1.601602
304.9129 1.001001
316.9465 1.201201
346.8878 0.200200
346.9006 0.700701
346.9218 0.200200
346.9324 0.200200
346.9650 0.200200
347.1855 100.000000
348.1885 22.722723
348.9038 0.300300
348.9170 0.200200
348.9417 0.500501
362.9362 0.200200
362.9455 0.200200
363.1812 2.402402
363.2152 0.800801
363.2261 0.200200


Name: Cohumulone
Synon: $:00in-source
DB#: MetaboBASE0090
InChIKey: DRSITEVYZGOOQG-UHFFFAOYSA-N
Precursor_type: [M-H]-
Spectrum_type: MS2
PrecursorMZ: 347.2
Instrument_type: LC-ESI-TOF
Instrument: impact HD
Ion_mode: N
Collision_energy: 40
Formula: C20H28O5
MW: 348
ExactMass: 348.193673996
Comments: "cas number=142628-20-4" "SMILES=CC(C)C(=O)C1=C(C(=C(C(C1=O)(CC=C(C)C)O)O)CC=C(C)C)O" "InChI=InChI=1S/C20H28O5/c1-11(2)7-8-14-17(22)15(16(21)13(5)6)19(24)20(25,18(14)23)10-9-12(3)4/h7,9,13,22-23,25H,8,10H2,1-6H3" "computed SMILES=O=C(C1=C(O)C(=C(O)C(O)(C1=O)CC=C(C)C)CC=C(C)C)C(C)C" "license=License CC-BY-NC-SA 4.0 International" "author=Plant Biology, The Noble Foundation, Ardmore, OK, US/Dennis Fine, Daniel Wherritt, and Lloyd Sumner" "ionization=ESI" "isolation width=5" "collision gas=Nitrogen" "peak width=0.01" "date=2014-01-10 07:52:53+01:00" "column=Waters Acquity BEH C18 1.7um x 2.1 x 150 mm" "retention time=1490.4" "raw data file=C:\Data\Confirmed Standards\14Jan9 Confirmed stds MSMS\Cohumulone (vial 44).d" "computed mass accuracy=39.17627880186123" "computed mass error=0.013602004000006218" "SPLASH=splash10-000i-0290000000-d270db0299aa52a9118b" "submitter=Aiko Barsch (Bruker)" "MoNA Rating=4.545454545454546"
Num Peaks: 5
165.0565 15.115115
193.0478 20.420420
207.0650 38.538539
235.0618 100.000000
235.0999 21.321321


Name: Cohumulone
Synon: $:00in-source
DB#: MetaboBASE0091
InChIKey: DRSITEVYZGOOQG-UHFFFAOYSA-N
Precursor_type: [M-H]-
Spectrum_type: MS2
PrecursorMZ: 347.1862
Instrument_type: LC-ESI-TOF
Instrument: impact HD
Ion_mode: N
Collision_energy: 10
Formula: C20H28O5
MW: 348
ExactMass: 348.193673996
Comments: "cas number=142628-20-4" "SMILES=CC(C)C(=O)C1=C(C(=C(C(C1=O)(CC=C(C)C)O)O)CC=C(C)C)O" "InChI=InChI=1S/C20H28O5/c1-11(2)7-8-14-17(22)15(16(21)13(5)6)19(24)20(25,18(14)23)10-9-12(3)4/h7,9,13,22-23,25H,8,10H2,1-6H3" "computed SMILES=O=C(C1=C(O)C(=C(O)C(O)(C1=O)CC=C(C)C)CC=C(C)C)C(C)C" "license=License CC-BY-NC-SA 4.0 International" "author=Plant Biology, The Noble Foundation, Ardmore, OK, US/Dennis Fine, Daniel Wherritt, and Lloyd Sumner" "ionization=ESI" "isolation width=5" "collision gas=Nitrogen" "peak width=0.01" "date=2014-01-10 07:52:53+01:00" "column=Waters Acquity BEH C18 1.7um x 2.1 x 150 mm" "retention time=1490.4" "raw data file=C:\Data\Confirmed Standards\14Jan9 Confirmed stds MSMS\Cohumulone (vial 44).d" "computed mass accuracy=0.5702876439131135" "computed mass error=-1.97995999997147E-4" "SPLASH=splash10-0002-0039000000-07b67c7283c27c5de688" "submitter=Aiko Barsch (Bruker)" "MoNA Rating=4.0"
Num Peaks: 2
278.1147 36.936937
347.1862 100.000000


Name: Cohumulone
Synon: $:00in-source
DB#: MetaboBASE0092
InChIKey: DRSITEVYZGOOQG-UHFFFAOYSA-N
Precursor_type: [M-H]-
Spectrum_type: MS2
PrecursorMZ: 347.2
Instrument_type: LC-ESI-TOF
Instrument: impact HD
Ion_mode: N
Collision_energy: 20
Formula: C20H28O5
MW: 348
ExactMass: 348.19367399600003
Comments: "cas number=142628-20-4" "SMILES=CC(C)C(=O)C1=C(C(=C(C(C1=O)(CC=C(C)C)O)O)CC=C(C)C)O" "InChI=InChI=1S/C20H28O5/c1-11(2)7-8-14-17(22)15(16(21)13(5)6)19(24)20(25,18(14)23)10-9-12(3)4/h7,9,13,22-23,25H,8,10H2,1-6H3" "computed SMILES=O=C(C1=C(O)C(=C(O)C(O)(C1=O)CC=C(C)C)CC=C(C)C)C(C)C" "license=License CC-BY-NC-SA 4.0 International" "author=Plant Biology, The Noble Foundation, Ardmore, OK, US/Dennis Fine, Daniel Wherritt, and Lloyd Sumner" "ionization=ESI" "isolation width=5" "collision gas=Nitrogen" "peak width=0.019" "date=2014-01-10 07:52:53+01:00" "column=Waters Acquity BEH C18 1.7um x 2.1 x 150 mm" "retention time=1490.4" "raw data file=C:\Data\Confirmed Standards\14Jan9 Confirmed stds MSMS\Cohumulone (vial 44).d" "computed mass accuracy=39.17627880169751" "computed mass error=0.013602003999949375" "SPLASH=splash10-004i-0090000000-3487434a39d171aaee33" "submitter=Aiko Barsch (Bruker)" "MoNA Rating=4.545454545454546"
Num Peaks: 3
235.0622 20.620621
278.1155 100.000000
279.1206 14.814815


Name: Cohumulone
Synon: $:00in-source
DB#: MetaboBASE0093
InChIKey: DRSITEVYZGOOQG-UHFFFAOYSA-N
Precursor_type: [M-H]-
Spectrum_type: MS2
PrecursorMZ: 347.2
Instrument_type: LC-ESI-TOF
Instrument: impact HD
Ion_mode: N
Collision_energy: 30
Formula: C20H28O5
MW: 348
ExactMass: 348.193673996
Comments: "cas number=142628-20-4" "SMILES=CC(C)C(=O)C1=C(C(=C(C(C1=O)(CC=C(C)C)O)O)CC=C(C)C)O" "InChI=InChI=1S/C20H28O5/c1-11(2)7-8-14-17(22)15(16(21)13(5)6)19(24)20(25,18(14)23)10-9-12(3)4/h7,9,13,22-23,25H,8,10H2,1-6H3" "computed SMILES=O=C(C1=C(O)C(=C(O)C(O)(C1=O)CC=C(C)C)CC=C(C)C)C(C)C" "license=License CC-BY-NC-SA 4.0 International" "author=Plant Biology, The Noble Foundation, Ardmore, OK, US/Dennis Fine, Daniel Wherritt, and Lloyd Sumner" "ionization=ESI" "isolation width=5" "collision gas=Nitrogen" "peak width=0.012" "date=2014-01-10 07:52:53+01:00" "column=Waters Acquity BEH C18 1.7um x 2.1 x 150 mm" "retention time=1490.4" "raw data file=C:\Data\Confirmed Standards\14Jan9 Confirmed stds MSMS\Cohumulone (vial 44).d" "computed mass accuracy=39.17627880186123" "computed mass error=0.013602004000006218" "SPLASH=splash10-004r-0090000000-52be490144c02ff9dd43" "submitter=Aiko Barsch (Bruker)" "MoNA Rating=4.545454545454546"
Num Peaks: 5
223.0641 12.412412
235.0610 78.978979
236.0652 15.915916
278.1155 100.000000
279.1155 13.613614


Name: Cohumulone
Synon: $:00in-source
DB#: MetaboBASE0094
InChIKey: DRSITEVYZGOOQG-UHFFFAOYSA-N
Instrument_type: LC-ESI-TOF
Instrument: impact HD
Ion_mode: N
Formula: C20H28O5
MW: 348
ExactMass: 348.193673996
Comments: "cas number=142628-20-4" "SMILES=CC(C)C(=O)C1=C(C(=C(C(C1=O)(CC=C(C)C)O)O)CC=C(C)C)O" "InChI=InChI=1S/C20H28O5/c1-11(2)7-8-14-17(22)15(16(21)13(5)6)19(24)20(25,18(14)23)10-9-12(3)4/h7,9,13,22-23,25H,8,10H2,1-6H3" "computed SMILES=O=C(C1=C(O)C(=C(O)C(O)(C1=O)CC=C(C)C)CC=C(C)C)C(C)C" "license=License CC-BY-NC-SA 4.0 International" "author=Plant Biology, The Noble Foundation, Ardmore, OK, US/Dennis Fine, Daniel Wherritt, and Lloyd Sumner" "ionization=ESI" "collision gas=Nitrogen" "peak width=0.014" "date=2014-01-10 07:52:53+01:00" "column=Waters Acquity BEH C18 1.7um x 2.1 x 150 mm" "retention time=1490.4" "raw data file=C:\Data\Confirmed Standards\14Jan9 Confirmed stds MSMS\Cohumulone (vial 44).d" "SPLASH=splash10-0002-0009000000-aac53d33d7912364141a" "submitter=Aiko Barsch (Bruker)" "MoNA Rating=3.888888888888889"
Num Peaks: 14
112.9857 3.703704
242.9431 3.503504
248.9601 10.810811
316.9476 5.905906
347.1868 100.000000
348.1901 16.816817
349.1908 2.702703
353.9575 2.302302
378.9189 3.603604
384.9358 2.802803
415.1737 5.505506
452.9266 2.402402
483.1668 2.302302
717.3618 2.202202


Name: Humulone
Synon: $:00in-source
DB#: MetaboBASE0095
InChIKey: VMSLCPKYRPDHLN-OAQYLSRUSA-N
Instrument_type: LC-ESI-TOF
Instrument: impact HD
Ion_mode: N
Formula: C21H30O5
MW: 362
ExactMass: 362.20932406
Comments: "cas number=26472-41-3" "SMILES=CC(C)CC(=O)C1=C(C(=C([C@@](C1=O)(CC=C(C)C)O)O)CC=C(C)C)O" "InChI=InChI=1S/C21H30O5/c1-12(2)7-8-15-18(23)17(16(22)11-14(5)6)20(25)21(26,19(15)24)10-9-13(3)4/h7,9,14,23-24,26H,8,10-11H2,1-6H3/t21-/m1/s1" "computed SMILES=O=C(C1=C(O)C(=C(O)C(O)(C1=O)CC=C(C)C)CC=C(C)C)CC(C)C" "computed InChI=InChI=1S/C21H30O5/c1-12(2)7-8-15-18(23)17(16(22)11-14(5)6)20(25)21(26,19(15)24)10-9-13(3)4/h7,9,14,23-24,26H,8,10-11H2,1-6H3/t21-/m0/s1" "synonym=Humulone" "license=License CC-BY-NC-SA 4.0 International" "author=Plant Biology, The Noble Foundation, Ardmore, OK, US/Dennis Fine, Daniel Wherritt, and Lloyd Sumner" "ionization=ESI" "collision gas=Nitrogen" "peak width=0.0086" "date=2013-07-03 04:07:48+02:00" "column=Waters Acquity BEH C18 1.7um x 2.1 x 150 mm" "retention time=1575.6" "raw data file=D:\Data\Confirmed Standards\Reinjection_1uL\Humulone (vial 45).d" "SPLASH=splash10-03di-0149000000-57dcc167a03e8778313e" "submitter=Aiko Barsch (Bruker)" "MoNA Rating=3.888888888888889"
Num Peaks: 31
151.9958 1.901902
174.9553 16.716717
180.9720 4.904905
190.9868 1.501502
224.9377 1.801802
238.9307 2.202202
242.9428 1.901902
268.8667 1.601602
269.2102 1.601602
274.8849 1.901902
292.1302 46.246246
293.1329 7.907908
293.1771 11.811812
295.1579 5.405405
297.1516 3.403403
310.9289 5.105105
316.9458 5.205205
325.1832 2.502503
333.1338 5.205205
361.2004 100.000000
362.2032 22.622623
363.2072 4.104104
372.8987 1.501502
377.1592 1.501502
377.1937 2.402402
378.9171 4.804805
382.8928 2.402402
384.9320 2.502503
393.1891 2.002002
444.8619 1.501502
512.8514 1.501502


Name: Humulone
Synon: $:00in-source
DB#: MetaboBASE0096
InChIKey: VMSLCPKYRPDHLN-OAQYLSRUSA-N
Precursor_type: [M-H]-
Spectrum_type: MS2
PrecursorMZ: 361.1961
Instrument_type: LC-ESI-TOF
Instrument: impact HD
Ion_mode: N
Collision_energy: 20
Formula: C21H30O5
MW: 362
ExactMass: 362.20932406
Comments: "cas number=26472-41-3" "SMILES=CC(C)CC(=O)C1=C(C(=C([C@@](C1=O)(CC=C(C)C)O)O)CC=C(C)C)O" "InChI=InChI=1S/C21H30O5/c1-12(2)7-8-15-18(23)17(16(22)11-14(5)6)20(25)21(26,19(15)24)10-9-13(3)4/h7,9,14,23-24,26H,8,10-11H2,1-6H3/t21-/m1/s1" "computed SMILES=O=C(C1=C(O)C(=C(O)C(O)(C1=O)CC=C(C)C)CC=C(C)C)CC(C)C" "computed InChI=InChI=1S/C21H30O5/c1-12(2)7-8-15-18(23)17(16(22)11-14(5)6)20(25)21(26,19(15)24)10-9-13(3)4/h7,9,14,23-24,26H,8,10-11H2,1-6H3/t21-/m0/s1" "synonym=Humulone" "license=License CC-BY-NC-SA 4.0 International" "author=Plant Biology, The Noble Foundation, Ardmore, OK, US/Dennis Fine, Daniel Wherritt, and Lloyd Sumner" "ionization=ESI" "isolation width=5" "collision gas=Nitrogen" "peak width=0.013" "date=2014-01-10 08:33:40+01:00" "column=Waters Acquity BEH C18 1.7um x 2.1 x 150 mm" "retention time=1570.8" "raw data file=C:\Data\Confirmed Standards\14Jan9 Confirmed stds MSMS\Humulone (vial 45).d" "computed mass accuracy=16.4676750385183" "computed mass error=-0.00594805999998016" "SPLASH=splash10-0006-0091000000-f6fc7f1439b2b309edcf" "submitter=Aiko Barsch (Bruker)" "MoNA Rating=4.545454545454546"
Num Peaks: 8
178.7188 8.108108
236.0512 9.509510
251.0887 9.809810
262.1490 11.011011
292.1322 100.000000
293.1340 19.119119
361.1961 15.015015
362.2105 8.108108


Name: Humulone
Synon: $:00in-source
DB#: MetaboBASE0097
InChIKey: VMSLCPKYRPDHLN-OAQYLSRUSA-N
Precursor_type: [M-H]-
Spectrum_type: MS2
PrecursorMZ: 361.2002
Instrument_type: LC-ESI-TOF
Instrument: impact HD
Ion_mode: N
Collision_energy: 10
Formula: C21H30O5
MW: 362
ExactMass: 362.20932406
Comments: "cas number=26472-41-3" "SMILES=CC(C)CC(=O)C1=C(C(=C([C@@](C1=O)(CC=C(C)C)O)O)CC=C(C)C)O" "InChI=InChI=1S/C21H30O5/c1-12(2)7-8-15-18(23)17(16(22)11-14(5)6)20(25)21(26,19(15)24)10-9-13(3)4/h7,9,14,23-24,26H,8,10-11H2,1-6H3/t21-/m1/s1" "computed SMILES=O=C(C1=C(O)C(=C(O)C(O)(C1=O)CC=C(C)C)CC=C(C)C)CC(C)C" "computed InChI=InChI=1S/C21H30O5/c1-12(2)7-8-15-18(23)17(16(22)11-14(5)6)20(25)21(26,19(15)24)10-9-13(3)4/h7,9,14,23-24,26H,8,10-11H2,1-6H3/t21-/m0/s1" "synonym=Humulone" "license=License CC-BY-NC-SA 4.0 International" "author=Plant Biology, The Noble Foundation, Ardmore, OK, US/Dennis Fine, Daniel Wherritt, and Lloyd Sumner" "ionization=ESI" "isolation width=5" "collision gas=Nitrogen" "peak width=0.017" "date=2014-01-10 08:33:40+01:00" "column=Waters Acquity BEH C18 1.7um x 2.1 x 150 mm" "retention time=1570.8" "raw data file=C:\Data\Confirmed Standards\14Jan9 Confirmed stds MSMS\Humulone (vial 45).d" "computed mass accuracy=5.116442349661385" "computed mass error=-0.0018480599999861624" "SPLASH=splash10-03dl-0049000000-282fb3f7e0f73d2a7eb9" "submitter=Aiko Barsch (Bruker)" "MoNA Rating=4.545454545454546"
Num Peaks: 3
292.1299 73.873874
361.2002 100.000000
362.2100 36.636637


Name: Humulone
Synon: $:00in-source
DB#: MetaboBASE0098
InChIKey: VMSLCPKYRPDHLN-OAQYLSRUSA-N
Instrument_type: LC-ESI-TOF
Instrument: impact HD
Ion_mode: N
Formula: C21H30O5
MW: 362
ExactMass: 362.20932406
Comments: "cas number=26472-41-3" "SMILES=CC(C)CC(=O)C1=C(C(=C([C@@](C1=O)(CC=C(C)C)O)O)CC=C(C)C)O" "InChI=InChI=1S/C21H30O5/c1-12(2)7-8-15-18(23)17(16(22)11-14(5)6)20(25)21(26,19(15)24)10-9-13(3)4/h7,9,14,23-24,26H,8,10-11H2,1-6H3/t21-/m1/s1" "computed SMILES=O=C(C1=C(O)C(=C(O)C(O)(C1=O)CC=C(C)C)CC=C(C)C)CC(C)C" "computed InChI=InChI=1S/C21H30O5/c1-12(2)7-8-15-18(23)17(16(22)11-14(5)6)20(25)21(26,19(15)24)10-9-13(3)4/h7,9,14,23-24,26H,8,10-11H2,1-6H3/t21-/m0/s1" "synonym=Humulone" "license=License CC-BY-NC-SA 4.0 International" "author=Plant Biology, The Noble Foundation, Ardmore, OK, US/Dennis Fine, Daniel Wherritt, and Lloyd Sumner" "ionization=ESI" "collision gas=Nitrogen" "peak width=0.0082" "date=2014-01-10 08:33:40+01:00" "column=Waters Acquity BEH C18 1.7um x 2.1 x 150 mm" "retention time=1570.8" "raw data file=C:\Data\Confirmed Standards\14Jan9 Confirmed stds MSMS\Humulone (vial 45).d" "SPLASH=splash10-03di-0009000000-6c29bc81939d2f3fb0c9" "submitter=Aiko Barsch (Bruker)" "MoNA Rating=3.888888888888889"
Num Peaks: 21
112.9857 1.501502
242.9431 1.001001
248.9593 6.606607
310.9331 1.201201
316.9483 3.303303
342.8683 1.101101
353.9559 1.001001
361.2020 100.000000
362.2055 19.619620
363.2057 3.103103
377.2687 3.103103
378.9182 1.301301
384.9355 2.402402
429.1898 4.504505
452.9186 2.502503
497.1724 1.201201
512.1916 1.301301
520.9071 2.002002
666.0171 2.102102
747.4051 1.001001
874.6667 1.301301


Name: Luteolin
Synon: $:00in-source
DB#: MetaboBASE0099
InChIKey: IQPNAANSBPBGFQ-UHFFFAOYSA-N
Instrument_type: LC-ESI-TOF
Instrument: impact HD
Ion_mode: N
Formula: C15H10O6
MW: 286
ExactMass: 286.04773804
Comments: "cas number=491-70-3" "SMILES=c1cc(c(cc1c2cc(=O)c3c(cc(cc3o2)O)O)O)O" "InChI=InChI=1S/C15H10O6/c16-8-4-11(19)15-12(20)6-13(21-14(15)5-8)7-1-2-9(17)10(18)3-7/h1-6,16-19H" "computed SMILES=O=C1C=C(OC=2C=C(O)C=C(O)C12)C=3C=CC(O)=C(O)C3" "license=License CC-BY-NC-SA 4.0 International" "author=Plant Biology, The Noble Foundation, Ardmore, OK, US/Dennis Fine, Daniel Wherritt, and Lloyd Sumner" "ionization=ESI" "collision gas=Nitrogen" "peak width=0.022" "date=2013-08-02 18:06:12+02:00" "column=Waters Acquity BEH C18 1.7um x 2.1 x 150 mm" "retention time=490.8" "raw data file=D:\Data\Confirmed Standards\Luteolin (vial 10)_1337.d" "SPLASH=splash10-000i-0090000000-03ffb3e4764e7236f82d" "submitter=Aiko Barsch (Bruker)" "MoNA Rating=3.888888888888889"
Num Peaks: 12
255.0295 18.718719
256.0326 2.302302
257.0421 0.600601
283.0243 48.148148
284.0276 6.606607
285.0400 100.000000
286.0431 12.912913
287.0447 1.401401
299.0193 0.200200
301.0343 1.601602
302.0377 0.300300
384.9627 0.200200


Name: Luteolin
Synon: $:00in-source
DB#: MetaboBASE0100
InChIKey: IQPNAANSBPBGFQ-UHFFFAOYSA-N
Precursor_type: [M-H]-
Spectrum_type: MS2
PrecursorMZ: 285.048
Instrument_type: LC-ESI-TOF
Instrument: impact HD
Ion_mode: N
Collision_energy: 30
Formula: C15H10O6
MW: 286
ExactMass: 286.04773804
Comments: "cas number=491-70-3" "SMILES=c1cc(c(cc1c2cc(=O)c3c(cc(cc3o2)O)O)O)O" "InChI=InChI=1S/C15H10O6/c16-8-4-11(19)15-12(20)6-13(21-14(15)5-8)7-1-2-9(17)10(18)3-7/h1-6,16-19H" "computed SMILES=O=C1C=C(OC=2C=C(O)C=C(O)C12)C=3C=CC(O)=C(O)C3" "license=License CC-BY-NC-SA 4.0 International" "author=Plant Biology, The Noble Foundation, Ardmore, OK, US/Dennis Fine, Daniel Wherritt, and Lloyd Sumner" "ionization=ESI" "collision gas=Nitrogen" "collision energy 2=30" "peak width=0.022" "date=2013-08-01 02:53:04+02:00" "column=Waters Acquity BEH C18 1.7um x 2.1 x 150 mm" "retention time=490.01" "raw data file=D:\Data\Confirmed Standards\Reanalyzed MRM multiple CID\Luteolin (vial 10).d" "computed mass accuracy=26.44452864071733" "computed mass error=0.0075379599999791935" "SPLASH=splash10-0a4i-0190000000-7f42ffe76ed9c3f69f11" "submitter=Aiko Barsch (Bruker)" "MoNA Rating=4.545454545454546"
Num Peaks: 26
107.0173 4.304304
133.0331 8.008008
139.0556 1.001001
149.0287 2.002002
151.0077 4.004004
159.0464 1.001001
169.0226 0.900901
173.0642 0.800801
175.0438 2.402402
183.0467 2.802803
198.0398 0.900901
201.0306 0.900901
217.0573 2.402402
223.0472 1.001001
226.0361 1.001001
227.0410 2.702703
229.0567 1.001001
241.0583 1.201201
243.0381 2.502503
255.0371 100.000000
256.0398 13.513514
257.0464 2.902903
267.0384 0.900901
283.0247 1.001001
285.0482 23.923924
286.0531 2.402402


Name: 5-Hydroxyflavone
Synon: $:00in-source
DB#: MetaboBASE0101
InChIKey: IYBLVRRCNVHZQJ-UHFFFAOYSA-N
Precursor_type: [M-H]-
Spectrum_type: MS2
PrecursorMZ: 237.061
Instrument_type: LC-ESI-TOF
Instrument: impact HD
Ion_mode: N
Collision_energy: 20
Formula: C15H10O3
MW: 238
ExactMass: 238.06299417999998
Comments: "cas number=491-78-1" "SMILES=c1ccc(cc1)c2cc(=O)c3c(cccc3o2)O" "InChI=InChI=1S/C15H10O3/c16-11-7-4-8-13-15(11)12(17)9-14(18-13)10-5-2-1-3-6-10/h1-9,16H" "computed SMILES=O=C1C=C(OC=2C=CC=C(O)C12)C=3C=CC=CC3" "license=License CC-BY-NC-SA 4.0 International" "author=Plant Biology, The Noble Foundation, Ardmore, OK, US/Dennis Fine, Daniel Wherritt, and Lloyd Sumner" "ionization=ESI" "collision gas=Nitrogen" "collision energy 2=20" "peak width=0.02" "date=2013-08-05 21:01:55+02:00" "column=Waters Acquity BEH C18 1.7um x 2.1 x 150 mm" "retention time=1090.58" "raw data file=D:\Data\Confirmed Standards\Reanalyzed MRM multiple CID\5-Hydroxyflavone (vial 9) MRM_1347.d" "computed mass accuracy=22.280425713304815" "computed mass error=0.005281820000021753" "SPLASH=splash10-000i-0190000000-5e6db8f4cbf114912e59" "submitter=Aiko Barsch (Bruker)" "MoNA Rating=4.545454545454546"
Num Peaks: 3
135.0119 21.621622
237.0609 100.000000
238.0642 14.114114


Name: 5-Hydroxyflavone
Synon: $:00in-source
DB#: MetaboBASE0102
InChIKey: IYBLVRRCNVHZQJ-UHFFFAOYSA-N
Instrument_type: LC-ESI-TOF
Instrument: impact HD
Ion_mode: N
Formula: C15H10O3
MW: 238
ExactMass: 238.06299417999998
Comments: "cas number=491-78-1" "SMILES=c1ccc(cc1)c2cc(=O)c3c(cccc3o2)O" "InChI=InChI=1S/C15H10O3/c16-11-7-4-8-13-15(11)12(17)9-14(18-13)10-5-2-1-3-6-10/h1-9,16H" "computed SMILES=O=C1C=C(OC=2C=CC=C(O)C12)C=3C=CC=CC3" "license=License CC-BY-NC-SA 4.0 International" "author=Plant Biology, The Noble Foundation, Ardmore, OK, US/Dennis Fine, Daniel Wherritt, and Lloyd Sumner" "ionization=ESI" "collision gas=Nitrogen" "peak width=0.025" "date=2013-08-03 00:02:25+02:00" "column=Waters Acquity BEH C18 1.7um x 2.1 x 150 mm" "retention time=1089" "raw data file=D:\Data\Confirmed Standards\5-Hydroxyflavone (vial 9)_1340.d" "SPLASH=splash10-000i-0091300000-17f56b4a47fb7d35624e" "submitter=Aiko Barsch (Bruker)" "MoNA Rating=3.888888888888889"
Num Peaks: 31
112.987 3.303303
146.962 1.501502
174.955 4.304304
237.057 100.000000
238.060 14.714715
239.062 1.301301
242.944 3.303303
265.150 1.201201
305.044 7.507508
306.048 1.501502
310.931 1.301301
316.947 1.801802
325.991 1.801802
342.979 1.501502
367.014 4.004004
368.014 1.601602
378.922 1.501502
382.988 1.501502
431.959 1.301301
481.128 3.703704
482.135 1.201201
497.102 31.231231
498.106 8.208208
499.109 2.902903
559.073 2.202202
560.075 1.201201
751.128 6.706707
752.132 4.004004
757.144 2.102102
819.113 1.301301
1011.177 1.801802


Name: 2,4-Dihydroxyacetophenone
Synon: $:00in-source
DB#: MetaboBASE0103
InChIKey: SULYEHHGGXARJS-UHFFFAOYSA-N
Instrument_type: LC-ESI-TOF
Instrument: impact HD
Ion_mode: N
Formula: C8H8O3
MW: 152
ExactMass: 152.04734411599998
Comments: "cas number=89-84-9" "SMILES=CC(=O)c1ccc(cc1O)O" "InChI=InChI=1S/C8H8O3/c1-5(9)7-3-2-6(10)4-8(7)11/h2-4,10-11H,1H3" "computed SMILES=O=C(C1=CC=C(O)C=C1O)C" "license=License CC-BY-NC-SA 4.0 International" "author=Plant Biology, The Noble Foundation, Ardmore, OK, US/Dennis Fine, Daniel Wherritt, and Lloyd Sumner" "ionization=ESI" "collision gas=Nitrogen" "peak width=0.03" "date=2013-09-04 05:46:58+02:00" "column=Waters Acquity BEH C18 1.7um x 2.1 x 150 mm" "retention time=298.8" "raw data file=D:\Data\Confirmed Standards\Reinjection 2 uL\2,4-Dihydroxyacetophenone.d" "SPLASH=splash10-0udi-0900000000-60efa271dda3d29e827b" "submitter=Aiko Barsch (Bruker)" "MoNA Rating=3.888888888888889"
Num Peaks: 6
109.029 3.903904
133.029 1.201201
135.009 6.406406
151.040 100.000000
152.044 7.207207
153.020 1.001001


Name: 2,4-Dihydroxyacetophenone
Synon: $:00in-source
DB#: MetaboBASE0104
InChIKey: SULYEHHGGXARJS-UHFFFAOYSA-N
Precursor_type: [M-H]-
Spectrum_type: MS2
PrecursorMZ: 151.0443
Instrument_type: LC-ESI-TOF
Instrument: impact HD
Ion_mode: N
Collision_energy: 10
Formula: C8H8O3
MW: 152
ExactMass: 152.04734411599998
Comments: "cas number=89-84-9" "SMILES=CC(=O)c1ccc(cc1O)O" "InChI=InChI=1S/C8H8O3/c1-5(9)7-3-2-6(10)4-8(7)11/h2-4,10-11H,1H3" "computed SMILES=O=C(C1=CC=C(O)C=C1O)C" "license=License CC-BY-NC-SA 4.0 International" "author=Plant Biology, The Noble Foundation, Ardmore, OK, US/Dennis Fine, Daniel Wherritt, and Lloyd Sumner" "ionization=ESI" "isolation width=5" "collision gas=Nitrogen" "peak width=0.023" "date=2013-09-05 19:46:08+02:00" "column=Waters Acquity BEH C18 1.7um x 2.1 x 150 mm" "retention time=298.8" "raw data file=C:\Data\Confirmed Standards\Reinjection 2 uL\MSMS\2,4-Dihydroxyacetophenone MSMS.d" "computed mass accuracy=28.01750215007387" "computed mass error=0.004231884000006403" "SPLASH=splash10-0udi-0900000000-4bd37b3dfc68805fa01f" "submitter=Aiko Barsch (Bruker)" "MoNA Rating=4.545454545454546"
Num Peaks: 5
107.0529 4.304304
109.0326 13.613614
135.0124 5.905906
151.0443 100.000000
152.0477 8.508509


Name: 2,4-Dihydroxyacetophenone
Synon: $:00in-source
DB#: MetaboBASE0105
InChIKey: SULYEHHGGXARJS-UHFFFAOYSA-N
Precursor_type: [M-H]-
Spectrum_type: MS2
PrecursorMZ: 151.044
Instrument_type: LC-ESI-TOF
Instrument: impact HD
Ion_mode: N
Collision_energy: 20
Formula: C8H8O3
MW: 152
ExactMass: 152.04734411599998
Comments: "cas number=89-84-9" "SMILES=CC(=O)c1ccc(cc1O)O" "InChI=InChI=1S/C8H8O3/c1-5(9)7-3-2-6(10)4-8(7)11/h2-4,10-11H,1H3" "computed SMILES=O=C(C1=CC=C(O)C=C1O)C" "license=License CC-BY-NC-SA 4.0 International" "author=Plant Biology, The Noble Foundation, Ardmore, OK, US/Dennis Fine, Daniel Wherritt, and Lloyd Sumner" "ionization=ESI" "isolation width=5" "collision gas=Nitrogen" "peak width=0.032" "date=2013-09-05 19:46:08+02:00" "column=Waters Acquity BEH C18 1.7um x 2.1 x 150 mm" "retention time=298.8" "raw data file=C:\Data\Confirmed Standards\Reinjection 2 uL\MSMS\2,4-Dihydroxyacetophenone MSMS.d" "computed mass accuracy=26.03138158433877" "computed mass error=0.003931884000024866" "SPLASH=splash10-0a4i-0900000000-637e6febb080916d6386" "submitter=Aiko Barsch (Bruker)" "MoNA Rating=4.545454545454546"
Num Peaks: 10
107.053 36.736737
108.025 10.610611
109.032 100.000000
110.035 5.805806
133.033 6.706707
135.012 53.953954
136.018 5.905906
151.044 53.053053
152.047 5.805806
153.026 12.412412


Name: 2,5-Dihydroxybenzoic acid
Synon: $:00in-source
DB#: MetaboBASE0106
InChIKey: WXTMDXOMEHJXQO-UHFFFAOYSA-N
Instrument_type: LC-ESI-TOF
Instrument: impact HD
Ion_mode: N
Formula: C7H6O4
MW: 154
ExactMass: 154.026608672
Comments: "cas number=490-79-9" "SMILES=c1cc(c(cc1O)C(=O)O)O" "InChI=InChI=1S/C7H6O4/c8-4-1-2-6(9)5(3-4)7(10)11/h1-3,8-9H,(H,10,11)" "computed SMILES=O=C(O)C1=CC(O)=CC=C1O" "license=License CC-BY-NC-SA 4.0 International" "author=Plant Biology, The Noble Foundation, Ardmore, OK, US/Dennis Fine, Daniel Wherritt, and Lloyd Sumner" "ionization=ESI" "collision gas=Nitrogen" "peak width=0.031" "date=2013-09-04 08:30:08+02:00" "column=Waters Acquity BEH C18 1.7um x 2.1 x 150 mm" "retention time=107.4" "raw data file=D:\Data\Confirmed Standards\Reinjection 2 uL\2,5-Dihydroxybenzoic acid.d" "SPLASH=splash10-0pdi-0439000000-d097f2b9a5189bc4bb0f" "submitter=Aiko Barsch (Bruker)" "MoNA Rating=3.888888888888889"
Num Peaks: 91
108.022 18.718719
109.030 21.521522
110.034 1.901902
123.009 20.220220
124.014 2.102102
125.025 3.503504
151.005 4.304304
152.012 10.010010
153.020 90.090090
154.023 6.106106
155.026 1.201201
161.025 1.201201
166.999 42.942943
168.003 3.303303
169.015 16.216216
170.018 1.301301
188.982 1.301301
201.022 1.301301
203.035 4.504505
206.943 1.501502
208.955 2.102102
213.019 1.401401
214.029 2.202202
229.016 4.404404
231.031 48.148148
232.034 5.505506
233.045 3.403403
234.935 3.603604
235.942 3.003003
237.018 2.702703
239.032 3.003003
252.945 2.802803
257.011 7.907908
258.015 1.301301
259.026 7.107107
260.029 1.501502
275.021 21.421421
276.024 3.003003
277.037 26.426426
278.039 4.404404
281.007 1.501502
283.023 8.508509
284.027 1.401401
292.972 2.102102
301.921 1.301301
301.954 1.601602
303.017 2.902903
307.048 1.501502
313.055 1.901902
314.961 3.803804
315.969 4.304304
316.968 1.301301
319.013 2.202202
321.027 13.213213
322.030 1.801802
325.015 1.901902
327.014 6.006006
328.017 1.701702
329.029 87.387387
329.952 1.201201
330.033 12.512513
331.005 20.420420
332.008 3.703704
340.995 19.319319
341.996 3.303303
343.008 52.352352
344.011 8.108108
344.990 3.403403
348.993 2.002002
351.012 1.701702
356.988 35.935936
357.960 7.207207
357.991 4.604605
358.951 14.014014
359.959 100.000000
360.962 17.517518
361.964 3.303303
362.970 2.602603
371.942 1.701702
372.931 2.102102
373.939 26.426426
374.943 9.309309
375.951 3.503504
376.951 2.002002
381.944 2.702703
382.945 2.202202
387.924 2.602603
388.927 3.003003
389.934 1.701702
390.930 1.201201
396.929 1.801802


Name: 2,5-Dihydroxybenzoic acid
Synon: $:00in-source
DB#: MetaboBASE0107
InChIKey: WXTMDXOMEHJXQO-UHFFFAOYSA-N
Precursor_type: [M-H]-
Spectrum_type: MS2
PrecursorMZ: 153.026
Instrument_type: LC-ESI-TOF
Instrument: impact HD
Ion_mode: N
Collision_energy: 10
Formula: C7H6O4
MW: 154
ExactMass: 154.026608672
Comments: "cas number=490-79-9" "SMILES=c1cc(c(cc1O)C(=O)O)O" "InChI=InChI=1S/C7H6O4/c8-4-1-2-6(9)5(3-4)7(10)11/h1-3,8-9H,(H,10,11)" "computed SMILES=O=C(O)C1=CC(O)=CC=C1O" "license=License CC-BY-NC-SA 4.0 International" "author=Plant Biology, The Noble Foundation, Ardmore, OK, US/Dennis Fine, Daniel Wherritt, and Lloyd Sumner" "ionization=ESI" "isolation width=5" "collision gas=Nitrogen" "peak width=0.034" "date=2013-09-05 22:29:40+02:00" "column=Waters Acquity BEH C18 1.7um x 2.1 x 150 mm" "retention time=107.4" "raw data file=C:\Data\Confirmed Standards\Reinjection 2 uL\MSMS\2,5-Dihydroxybenzoic acid MSMS.d" "computed mass accuracy=43.569903153658935" "computed mass error=0.006667327999991812" "SPLASH=splash10-0a4i-0900000000-ddf5ec6162fb4b835c3a" "submitter=Aiko Barsch (Bruker)" "MoNA Rating=4.545454545454546"
Num Peaks: 6
108.026 100.000000
109.034 95.295295
110.037 5.605606
123.013 2.902903
153.026 78.678679
154.029 4.404404


Name: 2,6-Dihydroxyacetophenone
Synon: $:00in-source
DB#: MetaboBASE0108
InChIKey: YPTJKHVBDCRKNF-UHFFFAOYSA-N
Precursor_type: [M-H]-
Spectrum_type: MS2
PrecursorMZ: 151.043
Instrument_type: LC-ESI-TOF
Instrument: impact HD
Ion_mode: N
Collision_energy: 20
Formula: C8H8O3
MW: 152
ExactMass: 152.04734411599998
Comments: "cas number=699-83-2" "SMILES=CC(=O)c1c(cccc1O)O" "InChI=InChI=1S/C8H8O3/c1-5(9)8-6(10)3-2-4-7(8)11/h2-4,10-11H,1H3" "computed SMILES=O=C(C=1C(O)=CC=CC1O)C" "license=License CC-BY-NC-SA 4.0 International" "author=Plant Biology, The Noble Foundation, Ardmore, OK, US/Dennis Fine, Daniel Wherritt, and Lloyd Sumner" "ionization=ESI" "isolation width=5" "collision gas=Nitrogen" "peak width=0.03" "date=2013-09-05 21:48:48+02:00" "column=Waters Acquity BEH C18 1.7um x 2.1 x 150 mm" "retention time=372.6" "raw data file=C:\Data\Confirmed Standards\Reinjection 2 uL\MSMS\2,6-Dihydroxyacetophenone MSMS.d" "computed mass accuracy=19.410922717504885" "computed mass error=0.0029318840000200908" "SPLASH=splash10-0pbi-0900000000-339591e82b6f9e9fd3af" "submitter=Aiko Barsch (Bruker)" "MoNA Rating=4.545454545454546"
Num Peaks: 8
107.052 3.203203
109.032 100.000000
110.035 6.106106
133.031 10.910911
135.011 73.573574
136.014 3.903904
151.043 52.552553
152.046 3.403403


Name: 2,6-Dihydroxyacetophenone
Synon: $:00in-source
DB#: MetaboBASE0109
InChIKey: YPTJKHVBDCRKNF-UHFFFAOYSA-N
Precursor_type: [M-H]-
Spectrum_type: MS2
PrecursorMZ: 151.2
Instrument_type: LC-ESI-TOF
Instrument: impact HD
Ion_mode: N
Collision_energy: 30
Formula: C8H8O3
MW: 152
ExactMass: 152.04734411599998
Comments: "cas number=699-83-2" "SMILES=CC(=O)c1c(cccc1O)O" "InChI=InChI=1S/C8H8O3/c1-5(9)8-6(10)3-2-4-7(8)11/h2-4,10-11H,1H3" "computed SMILES=O=C(C=1C(O)=CC=CC1O)C" "license=License CC-BY-NC-SA 4.0 International" "author=Plant Biology, The Noble Foundation, Ardmore, OK, US/Dennis Fine, Daniel Wherritt, and Lloyd Sumner" "ionization=ESI" "isolation width=5" "collision gas=Nitrogen" "peak width=0.037" "date=2013-09-05 21:48:48+02:00" "column=Waters Acquity BEH C18 1.7um x 2.1 x 150 mm" "retention time=372.6" "raw data file=C:\Data\Confirmed Standards\Reinjection 2 uL\MSMS\2,6-Dihydroxyacetophenone MSMS.d" "computed mass accuracy=1057.7505555555713" "computed mass error=0.15993188400000236" "SPLASH=splash10-0a4r-0900000000-d7933852722676de249b" "submitter=Aiko Barsch (Bruker)" "MoNA Rating=3.5714285714285716"
Num Peaks: 2
109.032 100.000000
135.012 62.662663


Name: 2,6-Dihydroxyacetophenone
Synon: $:00in-source
DB#: MetaboBASE0110
InChIKey: YPTJKHVBDCRKNF-UHFFFAOYSA-N
Instrument_type: LC-ESI-TOF
Instrument: impact HD
Ion_mode: N
Formula: C8H8O3
MW: 152
ExactMass: 152.04734411599998
Comments: "cas number=699-83-2" "SMILES=CC(=O)c1c(cccc1O)O" "InChI=InChI=1S/C8H8O3/c1-5(9)8-6(10)3-2-4-7(8)11/h2-4,10-11H,1H3" "computed SMILES=O=C(C=1C(O)=CC=CC1O)C" "license=License CC-BY-NC-SA 4.0 International" "author=Plant Biology, The Noble Foundation, Ardmore, OK, US/Dennis Fine, Daniel Wherritt, and Lloyd Sumner" "ionization=ESI" "collision gas=Nitrogen" "peak width=0.025" "date=2013-09-04 07:49:19+02:00" "column=Waters Acquity BEH C18 1.7um x 2.1 x 150 mm" "retention time=373.2" "raw data file=D:\Data\Confirmed Standards\Reinjection 2 uL\2,6-Dihydroxyacetophenone.d" "SPLASH=splash10-0udi-0900000000-afca75e5da74cd4bcb42" "submitter=Aiko Barsch (Bruker)" "MoNA Rating=3.888888888888889"
Num Peaks: 5
109.029 2.702703
133.029 3.103103
135.008 9.609610
151.040 100.000000
152.043 7.407407


Name: 2,6-Dihydroxyacetophenone
Synon: $:00in-source
DB#: MetaboBASE0111
InChIKey: YPTJKHVBDCRKNF-UHFFFAOYSA-N
Precursor_type: [M-H]-
Spectrum_type: MS2
PrecursorMZ: 151.0432
Instrument_type: LC-ESI-TOF
Instrument: impact HD
Ion_mode: N
Collision_energy: 10
Formula: C8H8O3
MW: 152
ExactMass: 152.04734411599998
Comments: "cas number=699-83-2" "SMILES=CC(=O)c1c(cccc1O)O" "InChI=InChI=1S/C8H8O3/c1-5(9)8-6(10)3-2-4-7(8)11/h2-4,10-11H,1H3" "computed SMILES=O=C(C=1C(O)=CC=CC1O)C" "license=License CC-BY-NC-SA 4.0 International" "author=Plant Biology, The Noble Foundation, Ardmore, OK, US/Dennis Fine, Daniel Wherritt, and Lloyd Sumner" "ionization=ESI" "isolation width=5" "collision gas=Nitrogen" "peak width=0.022" "date=2013-09-05 21:48:48+02:00" "column=Waters Acquity BEH C18 1.7um x 2.1 x 150 mm" "retention time=372.6" "raw data file=C:\Data\Confirmed Standards\Reinjection 2 uL\MSMS\2,6-Dihydroxyacetophenone MSMS.d" "computed mass accuracy=20.73502150395867" "computed mass error=0.00313188400002673" "SPLASH=splash10-0udi-0900000000-bbc9d0fbc313d0295c5f" "submitter=Aiko Barsch (Bruker)" "MoNA Rating=4.545454545454546"
Num Peaks: 4
109.0316 8.408408
135.0113 8.608609
151.0432 100.000000
152.0465 6.106106


Name: 2'-Hydroxyflavone
Synon: $:00in-source
DB#: MetaboBASE0112
InChIKey: ZZLQHXCRRMUGQJ-UHFFFAOYSA-N
Precursor_type: [M-H]-
Spectrum_type: MS2
PrecursorMZ: 237.055
Instrument_type: LC-ESI-TOF
Instrument: impact HD
Ion_mode: N
Collision_energy: 30
Formula: C15H10O3
MW: 238
ExactMass: 238.06299417999998
Comments: "cas number=35244-11-2" "SMILES=c1ccc2c(c1)c(=O)cc(o2)c3ccccc3O" "InChI=InChI=1S/C15H10O3/c16-12-7-3-1-5-10(12)15-9-13(17)11-6-2-4-8-14(11)18-15/h1-9,16H" "computed SMILES=O=C1C=C(OC=2C=CC=CC12)C=3C=CC=CC3O" "license=License CC-BY-NC-SA 4.0 International" "author=Plant Biology, The Noble Foundation, Ardmore, OK, US/Dennis Fine, Daniel Wherritt, and Lloyd Sumner" "ionization=ESI" "isolation width=5" "collision gas=Nitrogen" "peak width=0.025" "date=2013-09-05 17:02:40+02:00" "column=Waters Acquity BEH C18 1.7um x 2.1 x 150 mm" "retention time=760.8" "raw data file=C:\Data\Confirmed Standards\Reinjection 2 uL\MSMS\2-Hydroxyflavone (V 32) MSMS.d" "computed mass accuracy=3.029592288618567" "computed mass error=-7.181799999784744E-4" "SPLASH=splash10-014i-0900000000-5df3060d0f4c54909ac7" "submitter=Aiko Barsch (Bruker)" "MoNA Rating=4.583333333333334"
Num Peaks: 4
117.034 100.000000
118.037 6.106106
209.060 4.904905
237.055 3.303303


Name: 2'-Hydroxyflavone
Synon: $:00in-source
DB#: MetaboBASE0113
InChIKey: ZZLQHXCRRMUGQJ-UHFFFAOYSA-N
Instrument_type: LC-ESI-TOF
Instrument: impact HD
Ion_mode: N
Formula: C15H10O3
MW: 238
ExactMass: 238.06299417999998
Comments: "cas number=35244-11-2" "SMILES=c1ccc2c(c1)c(=O)cc(o2)c3ccccc3O" "InChI=InChI=1S/C15H10O3/c16-12-7-3-1-5-10(12)15-9-13(17)11-6-2-4-8-14(11)18-15/h1-9,16H" "computed SMILES=O=C1C=C(OC=2C=CC=CC12)C=3C=CC=CC3O" "license=License CC-BY-NC-SA 4.0 International" "author=Plant Biology, The Noble Foundation, Ardmore, OK, US/Dennis Fine, Daniel Wherritt, and Lloyd Sumner" "ionization=ESI" "collision gas=Nitrogen" "peak width=0.031" "date=2013-09-04 03:03:53+02:00" "column=Waters Acquity BEH C18 1.7um x 2.1 x 150 mm" "retention time=761.4" "raw data file=D:\Data\Confirmed Standards\Reinjection 2 uL\2-Hydroxyflavone (vial 32).d" "SPLASH=splash10-000i-0090000000-0f80d451a765aa4faabf" "submitter=Aiko Barsch (Bruker)" "MoNA Rating=3.888888888888889"
Num Peaks: 4
209.061 0.900901
237.056 100.000000
238.059 20.320320
239.061 1.601602


Name: 2'-Hydroxyflavone
Synon: $:00in-source
DB#: MetaboBASE0114
InChIKey: ZZLQHXCRRMUGQJ-UHFFFAOYSA-N
Precursor_type: [M-H]-
Spectrum_type: MS2
PrecursorMZ: 237.055
Instrument_type: LC-ESI-TOF
Instrument: impact HD
Ion_mode: N
Collision_energy: 20
Formula: C15H10O3
MW: 238
ExactMass: 238.06299417999998
Comments: "cas number=35244-11-2" "SMILES=c1ccc2c(c1)c(=O)cc(o2)c3ccccc3O" "InChI=InChI=1S/C15H10O3/c16-12-7-3-1-5-10(12)15-9-13(17)11-6-2-4-8-14(11)18-15/h1-9,16H" "computed SMILES=O=C1C=C(OC=2C=CC=CC12)C=3C=CC=CC3O" "license=License CC-BY-NC-SA 4.0 International" "author=Plant Biology, The Noble Foundation, Ardmore, OK, US/Dennis Fine, Daniel Wherritt, and Lloyd Sumner" "ionization=ESI" "isolation width=5" "collision gas=Nitrogen" "peak width=0.02" "date=2013-09-05 17:02:40+02:00" "column=Waters Acquity BEH C18 1.7um x 2.1 x 150 mm" "retention time=760.8" "raw data file=C:\Data\Confirmed Standards\Reinjection 2 uL\MSMS\2-Hydroxyflavone (V 32) MSMS.d" "computed mass accuracy=3.029592288618567" "computed mass error=-7.181799999784744E-4" "SPLASH=splash10-000i-0390000000-a941c2eca6f460475516" "submitter=Aiko Barsch (Bruker)" "MoNA Rating=4.583333333333334"
Num Peaks: 5
117.0342 43.643644
118.0371 3.003003
209.0601 6.306306
237.0550 100.000000
238.0580 11.611612


Name: 4-Methylumbelliferone
Synon: $:00in-source
DB#: MetaboBASE0115
InChIKey: HSHNITRMYYLLCV-UHFFFAOYSA-N
Precursor_type: [M-H]-
Spectrum_type: MS2
PrecursorMZ: 175.045
Instrument_type: LC-ESI-TOF
Instrument: impact HD
Ion_mode: N
Collision_energy: 30
Formula: C10H8O3
MW: 176
ExactMass: 176.04734411599998
Comments: "cas number=5980-33-6" "SMILES=Cc1cc(=O)oc2c1ccc(c2)O" "InChI=InChI=1S/C10H8O3/c1-6-4-10(12)13-9-5-7(11)2-3-8(6)9/h2-5,11H,1H3" "computed SMILES=O=C1OC=2C=C(O)C=CC2C(=C1)C" "license=License CC-BY-NC-SA 4.0 International" "author=Plant Biology, The Noble Foundation, Ardmore, OK, US/Dennis Fine, Daniel Wherritt, and Lloyd Sumner" "ionization=ESI" "isolation width=5" "collision gas=Nitrogen" "peak width=0.028" "date=2013-09-05 21:07:57+02:00" "column=Waters Acquity BEH C18 1.7um x 2.1 x 150 mm" "retention time=345.6" "raw data file=C:\Data\Confirmed Standards\Reinjection 2 uL\MSMS\4-Methylumbelliferone MSMS.d" "computed mass accuracy=28.174949298758712" "computed mass error=0.004931884000001219" "SPLASH=splash10-00lr-0900000000-3fbf9ca915c0d92b76b8" "submitter=Aiko Barsch (Bruker)" "MoNA Rating=4.545454545454546"
Num Peaks: 17
103.058 4.604605
105.038 17.217217
109.033 3.103103
117.038 2.402402
119.054 100.000000
120.057 6.806807
123.049 20.220220
130.047 8.908909
131.054 26.526527
132.025 5.805806
132.058 3.403403
133.034 87.687688
134.037 6.806807
147.050 40.340340
148.053 3.503504
175.045 47.547548
176.049 4.604605


Name: 4-Methylumbelliferone
Synon: $:00in-source
DB#: MetaboBASE0116
InChIKey: HSHNITRMYYLLCV-UHFFFAOYSA-N
Instrument_type: LC-ESI-TOF
Instrument: impact HD
Ion_mode: N
Formula: C10H8O3
MW: 176
ExactMass: 176.04734411599998
Comments: "cas number=5980-33-6" "SMILES=Cc1cc(=O)oc2c1ccc(c2)O" "InChI=InChI=1S/C10H8O3/c1-6-4-10(12)13-9-5-7(11)2-3-8(6)9/h2-5,11H,1H3" "computed SMILES=O=C1OC=2C=C(O)C=CC2C(=C1)C" "license=License CC-BY-NC-SA 4.0 International" "author=Plant Biology, The Noble Foundation, Ardmore, OK, US/Dennis Fine, Daniel Wherritt, and Lloyd Sumner" "ionization=ESI" "collision gas=Nitrogen" "peak width=0.035" "date=2013-09-04 07:08:32+02:00" "column=Waters Acquity BEH C18 1.7um x 2.1 x 150 mm" "retention time=345.6" "raw data file=D:\Data\Confirmed Standards\Reinjection 2 uL\4-Methylumbelliferone.d" "SPLASH=splash10-004i-0900000000-7310a945d17eac4e2059" "submitter=Aiko Barsch (Bruker)" "MoNA Rating=3.888888888888889"
Num Peaks: 6
147.045 1.301301
175.041 100.000000
176.043 13.113113
177.045 1.201201
756.091 2.602603
757.096 1.101101


Name: 5-Methoxysalicylic acid
Synon: $:00in-source
DB#: MetaboBASE0117
InChIKey: IZZIWIAOVZOBLF-UHFFFAOYSA-N
Instrument_type: LC-ESI-TOF
Instrument: impact HD
Ion_mode: N
Formula: C8H8O4
MW: 168
ExactMass: 168.042258736
Comments: "cas number=2612-02-4" "SMILES=COc1ccc(c(c1)C(=O)O)O" "InChI=InChI=1S/C8H8O4/c1-12-5-2-3-7(9)6(4-5)8(10)11/h2-4,9H,1H3,(H,10,11)" "computed SMILES=O=C(O)C1=CC(OC)=CC=C1O" "license=License CC-BY-NC-SA 4.0 International" "author=Plant Biology, The Noble Foundation, Ardmore, OK, US/Dennis Fine, Daniel Wherritt, and Lloyd Sumner" "ionization=ESI" "collision gas=Nitrogen" "peak width=0.031" "date=2013-09-04 06:27:44+02:00" "column=Waters Acquity BEH C18 1.7um x 2.1 x 150 mm" "retention time=321.6" "raw data file=D:\Data\Confirmed Standards\Reinjection 2 uL\5-Methoxysalicylic acid.d" "SPLASH=splash10-0a4i-0529000000-a613547802dab4125d68" "submitter=Aiko Barsch (Bruker)" "MoNA Rating=3.888888888888889"
Num Peaks: 47
108.022 20.720721
152.012 53.453453
153.017 6.606607
166.999 3.103103
167.035 50.950951
168.039 4.104104
169.014 2.902903
189.017 2.102102
207.027 2.602603
213.019 2.402402
214.027 13.013013
215.033 3.203203
222.970 4.704705
229.050 4.604605
230.057 2.302302
246.053 2.102102
249.957 2.602603
250.988 3.203203
258.017 3.303303
259.023 2.502503
266.960 2.702703
273.040 19.119119
274.044 3.403403
275.020 2.102102
315.935 2.402402
319.046 6.206206
333.061 18.918919
334.064 3.203203
335.040 2.002002
341.028 4.404404
341.086 2.102102
343.043 6.406406
349.056 15.315315
350.059 2.902903
357.025 4.804805
357.059 100.000000
358.062 14.714715
359.036 10.110110
359.062 2.802803
372.964 2.602603
373.972 2.402402
387.988 25.625626
388.991 5.805806
415.947 2.102102
463.063 2.502503
537.063 3.603604
537.985 2.802803


Name: 5-Methoxysalicylic acid
Synon: $:00in-source
DB#: MetaboBASE0118
InChIKey: IZZIWIAOVZOBLF-UHFFFAOYSA-N
Precursor_type: [M-H]-
Spectrum_type: MS2
PrecursorMZ: 167.2
Instrument_type: LC-ESI-TOF
Instrument: impact HD
Ion_mode: N
Collision_energy: 20
Formula: C8H8O4
MW: 168
ExactMass: 168.042258736
Comments: "cas number=2612-02-4" "SMILES=COc1ccc(c(c1)C(=O)O)O" "InChI=InChI=1S/C8H8O4/c1-12-5-2-3-7(9)6(4-5)8(10)11/h2-4,9H,1H3,(H,10,11)" "computed SMILES=O=C(O)C1=CC(OC)=CC=C1O" "license=License CC-BY-NC-SA 4.0 International" "author=Plant Biology, The Noble Foundation, Ardmore, OK, US/Dennis Fine, Daniel Wherritt, and Lloyd Sumner" "ionization=ESI" "isolation width=5" "collision gas=Nitrogen" "peak width=0.033" "date=2013-09-05 20:27:05+02:00" "column=Waters Acquity BEH C18 1.7um x 2.1 x 150 mm" "retention time=319.8" "raw data file=C:\Data\Confirmed Standards\Reinjection 2 uL\MSMS\5-Methoxysalicylic acid MSMS.d" "computed mass accuracy=986.9453588515009" "computed mass error=0.16501726399997096" "SPLASH=splash10-0a4i-0900000000-e2d69678bf5361774dbf" "submitter=Aiko Barsch (Bruker)" "MoNA Rating=4.166666666666666"
Num Peaks: 3
108.022 100.000000
109.026 6.006006
152.012 12.312312


Name: 5-Methoxysalicylic acid
Synon: $:00in-source
DB#: MetaboBASE0119
InChIKey: IZZIWIAOVZOBLF-UHFFFAOYSA-N
Precursor_type: [M-H]-
Spectrum_type: MS2
PrecursorMZ: 167.036
Instrument_type: LC-ESI-TOF
Instrument: impact HD
Ion_mode: N
Collision_energy: 10
Formula: C8H8O4
MW: 168
ExactMass: 168.042258736
Comments: "cas number=2612-02-4" "SMILES=COc1ccc(c(c1)C(=O)O)O" "InChI=InChI=1S/C8H8O4/c1-12-5-2-3-7(9)6(4-5)8(10)11/h2-4,9H,1H3,(H,10,11)" "computed SMILES=O=C(O)C1=CC(OC)=CC=C1O" "license=License CC-BY-NC-SA 4.0 International" "author=Plant Biology, The Noble Foundation, Ardmore, OK, US/Dennis Fine, Daniel Wherritt, and Lloyd Sumner" "ionization=ESI" "isolation width=5" "collision gas=Nitrogen" "peak width=0.032" "date=2013-09-05 20:27:05+02:00" "column=Waters Acquity BEH C18 1.7um x 2.1 x 150 mm" "retention time=319.8" "raw data file=C:\Data\Confirmed Standards\Reinjection 2 uL\MSMS\5-Methoxysalicylic acid MSMS.d" "computed mass accuracy=6.090088364087367" "computed mass error=0.0010172639999836974" "SPLASH=splash10-0pvi-0900000000-46471751a79101b1fd39" "submitter=Aiko Barsch (Bruker)" "MoNA Rating=4.545454545454546"
Num Peaks: 8
95.013 2.402402
108.023 100.000000
109.026 5.605606
123.010 3.003003
152.013 75.875876
153.016 5.405405
167.036 52.452452
168.040 4.904905


Name: Desmethylxanthohumol
Synon: $:00in-source
DB#: MetaboBASE0120
InChIKey: FUSADYLVRMROPL-UXBLZVDNSA-N
Instrument_type: LC-ESI-TOF
Instrument: impact HD
Ion_mode: N
Formula: C20H20O5
MW: 340
ExactMass: 340.13107374
Comments: "cas number=115063-39-3" "SMILES=CC(=CCc1c(cc(c(c1O)C(=O)/C=C/c2ccc(cc2)O)O)O)C" "InChI=InChI=1S/C20H20O5/c1-12(2)3-9-15-17(23)11-18(24)19(20(15)25)16(22)10-6-13-4-7-14(21)8-5-13/h3-8,10-11,21,23-25H,9H2,1-2H3/b10-6+" "computed SMILES=O=C(C=CC1=CC=C(O)C=C1)C2=C(O)C=C(O)C(=C2O)CC=C(C)C" "license=License CC-BY-NC-SA 4.0 International" "author=Plant Biology, The Noble Foundation, Ardmore, OK, US/Dennis Fine, Daniel Wherritt, and Lloyd Sumner" "ionization=ESI" "collision gas=Nitrogen" "peak width=0.017" "date=2013-09-04 09:51:40+02:00" "column=Waters Acquity BEH C18 1.7um x 2.1 x 150 mm" "retention time=1126.2" "raw data file=D:\Data\Confirmed Standards\Reinjection 2 uL\Desmethylxanthohumol.d" "SPLASH=splash10-000i-0009000000-6bfe956898b4539e080e" "submitter=Aiko Barsch (Bruker)" "MoNA Rating=3.888888888888889"
Num Peaks: 4
219.0669 0.800801
339.1251 100.000000
340.1284 17.617618
341.1307 2.102102


Name: Desmethylxanthohumol
Synon: $:00in-source
DB#: MetaboBASE0121
InChIKey: FUSADYLVRMROPL-UXBLZVDNSA-N
Precursor_type: [M-H]-
Spectrum_type: MS2
PrecursorMZ: 339.121
Instrument_type: LC-ESI-TOF
Instrument: impact HD
Ion_mode: N
Collision_energy: 30
Formula: C20H20O5
MW: 340
ExactMass: 340.13107374
Comments: "cas number=115063-39-3" "SMILES=CC(=CCc1c(cc(c(c1O)C(=O)/C=C/c2ccc(cc2)O)O)O)C" "InChI=InChI=1S/C20H20O5/c1-12(2)3-9-15-17(23)11-18(24)19(20(15)25)16(22)10-6-13-4-7-14(21)8-5-13/h3-8,10-11,21,23-25H,9H2,1-2H3/b10-6+" "computed SMILES=O=C(C=CC1=CC=C(O)C=C1)C2=C(O)C=C(O)C(=C2O)CC=C(C)C" "license=License CC-BY-NC-SA 4.0 International" "author=Plant Biology, The Noble Foundation, Ardmore, OK, US/Dennis Fine, Daniel Wherritt, and Lloyd Sumner" "ionization=ESI" "isolation width=5" "collision gas=Nitrogen" "peak width=0.034" "date=2013-09-05 23:51:21+02:00" "column=Waters Acquity BEH C18 1.7um x 2.1 x 150 mm" "retention time=1126.2" "raw data file=C:\Data\Confirmed Standards\Reinjection 2 uL\MSMS\Desmethylxanthohumol MSMS.d" "computed mass accuracy=8.249975672416138" "computed mass error=-0.002797740000005433" "SPLASH=splash10-014i-0940000000-46dc70d70ca70dcf01b4" "submitter=Aiko Barsch (Bruker)" "MoNA Rating=4.545454545454546"
Num Peaks: 23
107.049 2.202202
109.065 6.606607
119.049 100.000000
120.052 7.007007
131.085 2.902903
132.092 2.102102
133.065 20.820821
134.068 2.702703
145.029 2.402402
149.061 2.502503
151.076 10.610611
175.074 9.109109
176.009 10.210210
177.016 3.203203
190.025 2.202202
191.071 3.303303
219.064 70.270270
220.067 11.511512
233.081 9.509510
245.080 5.705706
246.089 2.302302
339.121 8.508509
340.127 2.202202


Name: Xanthohumol
Synon: $:00in-source
DB#: MetaboBASE0122
InChIKey: ORXQGKIUCDPEAJ-YRNVUSSQSA-N
Instrument_type: LC-ESI-TOF
Instrument: impact HD
Ion_mode: N
Formula: C21H22O5
MW: 354
ExactMass: 354.146723804
Comments: "cas number=569-83-5" "SMILES=CC(=CCc1c(cc(c(c1O)C(=O)/C=C/c2ccc(cc2)O)OC)O)C" "InChI=InChI=1S/C21H22O5/c1-13(2)4-10-16-18(24)12-19(26-3)20(21(16)25)17(23)11-7-14-5-8-15(22)9-6-14/h4-9,11-12,22,24-25H,10H2,1-3H3/b11-7+" "computed SMILES=O=C(C=CC1=CC=C(O)C=C1)C=2C(OC)=CC(O)=C(C2O)CC=C(C)C" "license=License CC-BY-NC-SA 4.0 International" "author=Plant Biology, The Noble Foundation, Ardmore, OK, US/Dennis Fine, Daniel Wherritt, and Lloyd Sumner" "ionization=ESI" "collision gas=Nitrogen" "peak width=0.017" "date=2013-09-04 09:10:54+02:00" "column=Waters Acquity BEH C18 1.7um x 2.1 x 150 mm" "retention time=1230.6" "raw data file=D:\Data\Confirmed Standards\Reinjection 2 uL\Xanthohumol (vial 41).d" "SPLASH=splash10-0udi-0009000000-adffe3727a9d190af9ea" "submitter=Aiko Barsch (Bruker)" "MoNA Rating=3.888888888888889"
Num Peaks: 4
233.0815 1.901902
353.1393 100.000000
354.1426 18.618619
355.1452 2.202202


Name: Xanthohumol
Synon: $:00in-source
DB#: MetaboBASE0123
InChIKey: ORXQGKIUCDPEAJ-YRNVUSSQSA-N
Precursor_type: [M-H]-
Spectrum_type: MS2
PrecursorMZ: 353.1389
Instrument_type: LC-ESI-TOF
Instrument: impact HD
Ion_mode: N
Collision_energy: 20
Formula: C21H22O5
MW: 354
ExactMass: 354.146723804
Comments: "cas number=569-83-5" "SMILES=CC(=CCc1c(cc(c(c1O)C(=O)/C=C/c2ccc(cc2)O)OC)O)C" "InChI=InChI=1S/C21H22O5/c1-13(2)4-10-16-18(24)12-19(26-3)20(21(16)25)17(23)11-7-14-5-8-15(22)9-6-14/h4-9,11-12,22,24-25H,10H2,1-3H3/b11-7+" "computed SMILES=O=C(C=CC1=CC=C(O)C=C1)C=2C(OC)=CC(O)=C(C2O)CC=C(C)C" "license=License CC-BY-NC-SA 4.0 International" "author=Plant Biology, The Noble Foundation, Ardmore, OK, US/Dennis Fine, Daniel Wherritt, and Lloyd Sumner" "ionization=ESI" "isolation width=5" "collision gas=Nitrogen" "peak width=0.022" "date=2013-09-05 23:10:31+02:00" "column=Waters Acquity BEH C18 1.7um x 2.1 x 150 mm" "retention time=1230.6" "raw data file=C:\Data\Confirmed Standards\Reinjection 2 uL\MSMS\Xanthohumol (vial 41) MSMS.d" "computed mass accuracy=1.5512423015620498" "computed mass error=-5.478040000070905E-4" "SPLASH=splash10-0ue9-0159000000-89390bf396bc026f25db" "submitter=Aiko Barsch (Bruker)" "MoNA Rating=4.583333333333334"
Num Peaks: 7
119.0503 23.923924
233.0817 68.268268
234.0848 6.806807
295.0605 2.902903
353.1389 100.000000
354.1419 15.415415
355.1446 2.102102


Name: Vanillic acid
Synon: $:00in-source
DB#: MetaboBASE0124
InChIKey: WKOLLVMJNQIZCI-UHFFFAOYSA-N
Instrument_type: LC-ESI-TOF
Instrument: impact HD
Ion_mode: N
Formula: C8H8O4
MW: 168
ExactMass: 168.042258736
Comments: "cas number=121-34-6" "SMILES=COc1cc(ccc1O)C(=O)O" "InChI=InChI=1S/C8H8O4/c1-12-7-4-5(8(10)11)2-3-6(7)9/h2-4,9H,1H3,(H,10,11)" "computed SMILES=O=C(O)C1=CC=C(O)C(OC)=C1" "license=License CC-BY-NC-SA 4.0 International" "author=Plant Biology, The Noble Foundation, Ardmore, OK, US/Dennis Fine, Daniel Wherritt, and Lloyd Sumner" "ionization=ESI" "collision gas=Nitrogen" "peak width=0.014" "date=2014-01-10 05:50:33+01:00" "column=Waters Acquity BEH C18 1.7um x 2.1 x 150 mm" "retention time=154.8" "raw data file=C:\Data\Confirmed Standards\14Jan9 Confirmed stds MSMS\Vanillic Acid (vial 31).d" "SPLASH=splash10-014i-0923211100-7e9f357f7429cff05524" "submitter=Aiko Barsch (Bruker)" "MoNA Rating=3.888888888888889"
Num Peaks: 44
123.0442 7.607608
152.0109 12.012012
153.0147 2.202202
167.0350 100.000000
168.0378 7.107107
235.0224 6.806807
266.9642 2.202202
273.0406 5.705706
289.0703 18.618619
290.0743 3.103103
296.9879 2.902903
303.0359 3.403403
333.0605 9.409409
341.0840 3.203203
357.0583 33.333333
357.9616 4.104104
358.0613 5.705706
402.9762 5.405405
403.9749 2.102102
417.9984 2.702703
419.0215 3.203203
425.0431 4.304304
475.0256 5.505506
479.0909 2.702703
479.9980 8.308308
531.1010 2.302302
541.0648 15.715716
542.0643 3.703704
547.0825 6.206206
602.0339 11.011011
603.0422 2.602603
609.0533 2.202202
652.0198 3.903904
666.0208 3.103103
724.0732 10.010010
725.0790 2.702703
731.0838 2.002002
746.0540 2.202202
792.0536 2.302302
914.0975 4.904905
915.0936 4.004004
916.1030 2.202202
1104.1245 3.903904
1105.1179 2.502503


Name: Vanillic acid
Synon: $:00in-source
DB#: MetaboBASE0125
InChIKey: WKOLLVMJNQIZCI-UHFFFAOYSA-N
Precursor_type: [M-H]-
Spectrum_type: MS2
PrecursorMZ: 167.1
Instrument_type: LC-ESI-TOF
Instrument: impact HD
Ion_mode: N
Collision_energy: 20
Formula: C8H8O4
MW: 168
ExactMass: 168.042258736
Comments: "cas number=121-34-6" "SMILES=COc1cc(ccc1O)C(=O)O" "InChI=InChI=1S/C8H8O4/c1-12-7-4-5(8(10)11)2-3-6(7)9/h2-4,9H,1H3,(H,10,11)" "computed SMILES=O=C(O)C1=CC=C(O)C(OC)=C1" "license=License CC-BY-NC-SA 4.0 International" "author=Plant Biology, The Noble Foundation, Ardmore, OK, US/Dennis Fine, Daniel Wherritt, and Lloyd Sumner" "ionization=ESI" "isolation width=5" "collision gas=Nitrogen" "peak width=0.015" "date=2014-01-10 05:50:33+01:00" "column=Waters Acquity BEH C18 1.7um x 2.1 x 150 mm" "retention time=154.8" "raw data file=C:\Data\Confirmed Standards\14Jan9 Confirmed stds MSMS\Vanillic Acid (vial 31).d" "computed mass accuracy=389.0919449430081" "computed mass error=0.06501726399997665" "SPLASH=splash10-0a4i-0900000000-8e112ffa4dcc7c08b0fd" "submitter=Aiko Barsch (Bruker)" "MoNA Rating=3.5714285714285716"
Num Peaks: 2
108.0216 100.000000
152.0119 37.037037


Name: Vanillic acid
Synon: $:00in-source
DB#: MetaboBASE0126
InChIKey: WKOLLVMJNQIZCI-UHFFFAOYSA-N
Instrument_type: LC-ESI-TOF
Instrument: impact HD
Ion_mode: N
Formula: C8H8O4
MW: 168
ExactMass: 168.042258736
Comments: "cas number=121-34-6" "SMILES=COc1cc(ccc1O)C(=O)O" "InChI=InChI=1S/C8H8O4/c1-12-7-4-5(8(10)11)2-3-6(7)9/h2-4,9H,1H3,(H,10,11)" "computed SMILES=O=C(O)C1=CC=C(O)C(OC)=C1" "license=License CC-BY-NC-SA 4.0 International" "author=Plant Biology, The Noble Foundation, Ardmore, OK, US/Dennis Fine, Daniel Wherritt, and Lloyd Sumner" "ionization=ESI" "collision gas=Nitrogen" "peak width=0.03" "date=2013-09-04 02:23:07+02:00" "column=Waters Acquity BEH C18 1.7um x 2.1 x 150 mm" "retention time=154.8" "raw data file=D:\Data\Confirmed Standards\Reinjection 2 uL\Vanillic Acid (vial 31)_1490.d" "SPLASH=splash10-0a4i-0429110000-57f8760ce65d48cdc01f" "submitter=Aiko Barsch (Bruker)" "MoNA Rating=3.888888888888889"
Num Peaks: 26
108.021 7.307307
123.045 10.410410
152.011 25.725726
167.035 34.634635
168.038 2.902903
230.058 2.602603
245.081 6.306306
273.040 4.104104
274.046 3.303303
289.071 20.920921
290.074 3.303303
303.050 3.303303
333.061 23.323323
334.064 3.803804
341.085 3.303303
357.059 100.000000
358.062 15.515516
359.063 2.802803
417.998 5.205205
419.028 4.204204
475.028 3.103103
479.094 8.008008
479.998 3.203203
483.975 2.802803
541.065 20.320320
542.067 4.804805


Name: Vanillic acid
Synon: $:00in-source
DB#: MetaboBASE0127
InChIKey: WKOLLVMJNQIZCI-UHFFFAOYSA-N
Precursor_type: [M-H]-
Spectrum_type: MS2
PrecursorMZ: 167.0353
Instrument_type: LC-ESI-TOF
Instrument: impact HD
Ion_mode: N
Collision_energy: 10
Formula: C8H8O4
MW: 168
ExactMass: 168.042258736
Comments: "cas number=121-34-6" "SMILES=COc1cc(ccc1O)C(=O)O" "InChI=InChI=1S/C8H8O4/c1-12-7-4-5(8(10)11)2-3-6(7)9/h2-4,9H,1H3,(H,10,11)" "computed SMILES=O=C(O)C1=CC=C(O)C(OC)=C1" "license=License CC-BY-NC-SA 4.0 International" "author=Plant Biology, The Noble Foundation, Ardmore, OK, US/Dennis Fine, Daniel Wherritt, and Lloyd Sumner" "ionization=ESI" "isolation width=5" "collision gas=Nitrogen" "peak width=0.017" "date=2014-01-10 05:50:33+01:00" "column=Waters Acquity BEH C18 1.7um x 2.1 x 150 mm" "retention time=154.8" "raw data file=C:\Data\Confirmed Standards\14Jan9 Confirmed stds MSMS\Vanillic Acid (vial 31).d" "computed mass accuracy=1.899382944736122" "computed mass error=3.1726399998888155E-4" "SPLASH=splash10-0uxr-0900000000-29a2674dccd1fa478bd5" "submitter=Aiko Barsch (Bruker)" "MoNA Rating=4.583333333333334"
Num Peaks: 4
108.0229 46.746747
123.0441 36.336336
152.0116 100.000000
167.0353 55.855856


Name: Salicylic acid
Synon: $:00in-source
DB#: MetaboBASE0128
InChIKey: YGSDEFSMJLZEOE-UHFFFAOYSA-N
Instrument_type: LC-ESI-TOF
Instrument: impact HD
Ion_mode: N
Formula: C7H6O3
MW: 138
ExactMass: 138.03169405199998
Comments: "cas number=69-72-7" "SMILES=c1ccc(c(c1)C(=O)O)O" "InChI=InChI=1S/C7H6O3/c8-6-4-2-1-3-5(6)7(9)10/h1-4,8H,(H,9,10)" "computed SMILES=O=C(O)C=1C=CC=CC1O" "license=License CC-BY-NC-SA 4.0 International" "author=Plant Biology, The Noble Foundation, Ardmore, OK, US/Dennis Fine, Daniel Wherritt, and Lloyd Sumner" "ionization=ESI" "collision gas=Nitrogen" "peak width=0.03" "date=2013-09-04 04:25:26+02:00" "column=Waters Acquity BEH C18 1.7um x 2.1 x 150 mm" "retention time=297" "raw data file=D:\Data\Confirmed Standards\Reinjection 2 uL\Salicylic acid (vial 34).d" "SPLASH=splash10-002b-0496100000-97708001d2a6d031beff" "submitter=Aiko Barsch (Bruker)" "MoNA Rating=3.888888888888889"
Num Peaks: 19
137.025 64.164164
138.028 5.005005
219.947 3.803804
281.065 3.103103
283.978 7.907908
297.038 100.000000
298.042 14.014014
299.014 19.719720
300.018 3.103103
313.003 4.504505
325.972 4.504505
327.968 82.382382
328.972 15.515516
451.035 15.715716
452.039 3.403403
509.964 3.603604
617.066 3.803804
647.996 4.204204
669.977 3.603604


Name: Salicylic acid
Synon: $:00in-source
DB#: MetaboBASE0129
InChIKey: YGSDEFSMJLZEOE-UHFFFAOYSA-N
Precursor_type: [M-H]-
Spectrum_type: MS2
PrecursorMZ: 137.025
Instrument_type: LC-ESI-TOF
Instrument: impact HD
Ion_mode: N
Collision_energy: 10
Formula: C7H6O3
MW: 138
ExactMass: 138.03169405199998
Comments: "cas number=69-72-7" "SMILES=c1ccc(c(c1)C(=O)O)O" "InChI=InChI=1S/C7H6O3/c8-6-4-2-1-3-5(6)7(9)10/h1-4,8H,(H,9,10)" "computed SMILES=O=C(O)C=1C=CC=CC1O" "license=License CC-BY-NC-SA 4.0 International" "author=Plant Biology, The Noble Foundation, Ardmore, OK, US/Dennis Fine, Daniel Wherritt, and Lloyd Sumner" "ionization=ESI" "isolation width=5" "collision gas=Nitrogen" "peak width=0.021" "date=2014-07-26 03:54:47+02:00" "column=Waters Acquity BEH C18 1.7um x 2.1 x 150 mm" "retention time=297" "raw data file=C:\Data\Confirmed standards 24_July_2014\MSMS\Salicylic acid vial 34_1-A,7_01_488.d" "computed mass accuracy=4.247020616810279" "computed mass error=5.819480000184285E-4" "SPLASH=splash10-000i-0900000000-f88c693bac9b89416a52" "submitter=Aiko Barsch (Bruker)" "MoNA Rating=3.9285714285714284"
Num Peaks: 2
137.0250 100.000000
138.0287 7.307307


Name: Lupulone
Synon: $:00in-source
DB#: MetaboBASE0130
InChIKey: WPVSVIXDXMNGGN-UHFFFAOYSA-N
Instrument_type: LC-ESI-TOF
Instrument: impact HD
Ion_mode: N
Formula: C26H38O4
MW: 414
ExactMass: 414.277009696
Comments: "cas number=468-28-0" "SMILES=CC(C)CC(=O)C1=C(C(C(=O)C(=C1O)CC=C(C)C)(CC=C(C)C)CC=C(C)C)O" "InChI=InChI=1S/C26H38O4/c1-16(2)9-10-20-23(28)22(21(27)15-19(7)8)25(30)26(24(20)29,13-11-17(3)4)14-12-18(5)6/h9,11-12,19,28,30H,10,13-15H2,1-8H3" "computed SMILES=O=C(C1=C(O)C(=C(O)C(C1=O)(CC=C(C)C)CC=C(C)C)CC=C(C)C)CC(C)C" "computed InChI=InChI=1S/C26H38O4/c1-16(2)9-10-20-23(28)22(21(27)15-19(7)8)25(30)26(24(20)29,13-11-17(3)4)14-12-18(5)6/h9,11-12,19,28-29H,10,13-15H2,1-8H3" "license=License CC-BY-NC-SA 4.0 International" "author=Plant Biology, The Noble Foundation, Ardmore, OK, US/Dennis Fine, Daniel Wherritt, and Lloyd Sumner" "ionization=ESI" "collision gas=Nitrogen" "peak width=0.019" "date=2013-09-04 10:32:27+02:00" "column=Waters Acquity BEH C18 1.7um x 2.1 x 150 mm" "retention time=1878" "raw data file=D:\Data\Confirmed Standards\Reinjection 2 uL\Lupulone (vial 43).d" "SPLASH=splash10-03di-0000900000-f773c44563ff3535ef4e" "submitter=Aiko Barsch (Bruker)" "MoNA Rating=3.5"
Num Peaks: 3
413.2693 100.000000
414.2725 22.922923
415.2751 3.303303


Name: Lupulone
Synon: $:00in-source
DB#: MetaboBASE0131
InChIKey: WPVSVIXDXMNGGN-UHFFFAOYSA-N
Precursor_type: [M-H]-
Spectrum_type: MS2
PrecursorMZ: 413.3
Instrument_type: LC-ESI-TOF
Instrument: impact HD
Ion_mode: N
Collision_energy: 50
Formula: C26H38O4
MW: 414
ExactMass: 414.277009696
Comments: "cas number=468-28-0" "SMILES=CC(C)CC(=O)C1=C(C(C(=O)C(=C1O)CC=C(C)C)(CC=C(C)C)CC=C(C)C)O" "InChI=InChI=1S/C26H38O4/c1-16(2)9-10-20-23(28)22(21(27)15-19(7)8)25(30)26(24(20)29,13-11-17(3)4)14-12-18(5)6/h9,11-12,19,28,30H,10,13-15H2,1-8H3" "computed SMILES=O=C(C1=C(O)C(=C(O)C(C1=O)(CC=C(C)C)CC=C(C)C)CC=C(C)C)CC(C)C" "computed InChI=InChI=1S/C26H38O4/c1-16(2)9-10-20-23(28)22(21(27)15-19(7)8)25(30)26(24(20)29,13-11-17(3)4)14-12-18(5)6/h9,11-12,19,28-29H,10,13-15H2,1-8H3" "license=License CC-BY-NC-SA 4.0 International" "author=Plant Biology, The Noble Foundation, Ardmore, OK, US/Dennis Fine, Daniel Wherritt, and Lloyd Sumner" "ionization=ESI" "isolation width=5" "collision gas=Nitrogen" "peak width=0.015" "date=2014-01-10 07:12:07+01:00" "column=Waters Acquity BEH C18 1.7um x 2.1 x 150 mm" "retention time=1870.2" "raw data file=C:\Data\Confirmed Standards\14Jan9 Confirmed stds MSMS\Lupulone (vial 43).d" "computed mass accuracy=73.23083474475781" "computed mass error=0.030266304000008404" "SPLASH=splash10-0udi-0098000000-1f3f92233d58bd5063de" "submitter=Aiko Barsch (Bruker)" "MoNA Rating=4.166666666666666"
Num Peaks: 25
125.0601 6.006006
217.0869 5.205205
221.0819 4.404404
229.0746 3.203203
230.0627 3.303303
231.0680 6.806807
233.0819 39.139139
234.0870 4.004004
243.0736 8.408408
245.0905 7.107107
257.0854 2.802803
257.1515 5.105105
258.0941 3.203203
259.1314 8.908909
261.1161 4.404404
271.1072 2.102102
283.1359 6.306306
286.1219 2.302302
287.1285 7.507508
289.1442 9.409409
290.1521 2.502503
301.1439 100.000000
302.1473 22.222222
303.1520 3.103103
329.1755 10.410410


Name: Lupulone
Synon: $:00in-source
DB#: MetaboBASE0132
InChIKey: WPVSVIXDXMNGGN-UHFFFAOYSA-N
Precursor_type: [M-H]-
Spectrum_type: MS2
PrecursorMZ: 413.2693
Instrument_type: LC-ESI-TOF
Instrument: impact HD
Ion_mode: N
Collision_energy: 20
Formula: C26H38O4
MW: 414
ExactMass: 414.277009696
Comments: "cas number=468-28-0" "SMILES=CC(C)CC(=O)C1=C(C(C(=O)C(=C1O)CC=C(C)C)(CC=C(C)C)CC=C(C)C)O" "InChI=InChI=1S/C26H38O4/c1-16(2)9-10-20-23(28)22(21(27)15-19(7)8)25(30)26(24(20)29,13-11-17(3)4)14-12-18(5)6/h9,11-12,19,28,30H,10,13-15H2,1-8H3" "computed SMILES=O=C(C1=C(O)C(=C(O)C(C1=O)(CC=C(C)C)CC=C(C)C)CC=C(C)C)CC(C)C" "computed InChI=InChI=1S/C26H38O4/c1-16(2)9-10-20-23(28)22(21(27)15-19(7)8)25(30)26(24(20)29,13-11-17(3)4)14-12-18(5)6/h9,11-12,19,28-29H,10,13-15H2,1-8H3" "license=License CC-BY-NC-SA 4.0 International" "author=Plant Biology, The Noble Foundation, Ardmore, OK, US/Dennis Fine, Daniel Wherritt, and Lloyd Sumner" "ionization=ESI" "isolation width=5" "collision gas=Nitrogen" "peak width=0.01" "date=2014-01-10 07:12:07+01:00" "column=Waters Acquity BEH C18 1.7um x 2.1 x 150 mm" "retention time=1870.2" "raw data file=C:\Data\Confirmed Standards\14Jan9 Confirmed stds MSMS\Lupulone (vial 43).d" "computed mass accuracy=1.0494270927358278" "computed mass error=-4.3369600001597064E-4" "SPLASH=splash10-03di-0000900000-23e31ceb6010d811c96a" "submitter=Aiko Barsch (Bruker)" "MoNA Rating=4.230769230769231"
Num Peaks: 5
301.1445 6.106106
344.1979 5.205205
413.2693 100.000000
414.2726 19.119119
415.2738 2.402402


Name: Lupulone
Synon: $:00in-source
DB#: MetaboBASE0133
InChIKey: WPVSVIXDXMNGGN-UHFFFAOYSA-N
Precursor_type: [M-H]-
Spectrum_type: MS2
PrecursorMZ: 413.2693
Instrument_type: LC-ESI-TOF
Instrument: impact HD
Ion_mode: N
Collision_energy: 30
Formula: C26H38O4
MW: 414
ExactMass: 414.277009696
Comments: "cas number=468-28-0" "SMILES=CC(C)CC(=O)C1=C(C(C(=O)C(=C1O)CC=C(C)C)(CC=C(C)C)CC=C(C)C)O" "InChI=InChI=1S/C26H38O4/c1-16(2)9-10-20-23(28)22(21(27)15-19(7)8)25(30)26(24(20)29,13-11-17(3)4)14-12-18(5)6/h9,11-12,19,28,30H,10,13-15H2,1-8H3" "computed SMILES=O=C(C1=C(O)C(=C(O)C(C1=O)(CC=C(C)C)CC=C(C)C)CC=C(C)C)CC(C)C" "computed InChI=InChI=1S/C26H38O4/c1-16(2)9-10-20-23(28)22(21(27)15-19(7)8)25(30)26(24(20)29,13-11-17(3)4)14-12-18(5)6/h9,11-12,19,28-29H,10,13-15H2,1-8H3" "license=License CC-BY-NC-SA 4.0 International" "author=Plant Biology, The Noble Foundation, Ardmore, OK, US/Dennis Fine, Daniel Wherritt, and Lloyd Sumner" "ionization=ESI" "isolation width=5" "collision gas=Nitrogen" "peak width=0.015" "date=2014-01-10 07:12:07+01:00" "column=Waters Acquity BEH C18 1.7um x 2.1 x 150 mm" "retention time=1870.2" "raw data file=C:\Data\Confirmed Standards\14Jan9 Confirmed stds MSMS\Lupulone (vial 43).d" "computed mass accuracy=1.0494270927358278" "computed mass error=-4.3369600001597064E-4" "SPLASH=splash10-0udi-0029100000-985b76a8e876628ab986" "submitter=Aiko Barsch (Bruker)" "MoNA Rating=4.230769230769231"
Num Peaks: 13
233.0818 14.814815
275.1286 2.502503
276.1359 4.904905
287.1278 2.602603
289.1441 8.008008
301.1444 100.000000
302.1477 14.114114
329.1787 2.702703
344.1981 8.908909
345.2027 2.002002
369.2793 3.103103
413.2693 21.521522
414.2721 5.305305


Name: Lupulone
Synon: $:00in-source
DB#: MetaboBASE0134
InChIKey: WPVSVIXDXMNGGN-UHFFFAOYSA-N
Precursor_type: [M-H]-
Spectrum_type: MS2
PrecursorMZ: 413.2693
Instrument_type: LC-ESI-TOF
Instrument: impact HD
Ion_mode: N
Collision_energy: 10
Formula: C26H38O4
MW: 414
ExactMass: 414.277009696
Comments: "cas number=468-28-0" "SMILES=CC(C)CC(=O)C1=C(C(C(=O)C(=C1O)CC=C(C)C)(CC=C(C)C)CC=C(C)C)O" "InChI=InChI=1S/C26H38O4/c1-16(2)9-10-20-23(28)22(21(27)15-19(7)8)25(30)26(24(20)29,13-11-17(3)4)14-12-18(5)6/h9,11-12,19,28,30H,10,13-15H2,1-8H3" "computed SMILES=O=C(C1=C(O)C(=C(O)C(C1=O)(CC=C(C)C)CC=C(C)C)CC=C(C)C)CC(C)C" "computed InChI=InChI=1S/C26H38O4/c1-16(2)9-10-20-23(28)22(21(27)15-19(7)8)25(30)26(24(20)29,13-11-17(3)4)14-12-18(5)6/h9,11-12,19,28-29H,10,13-15H2,1-8H3" "license=License CC-BY-NC-SA 4.0 International" "author=Plant Biology, The Noble Foundation, Ardmore, OK, US/Dennis Fine, Daniel Wherritt, and Lloyd Sumner" "ionization=ESI" "isolation width=5" "collision gas=Nitrogen" "peak width=0.01" "date=2014-01-10 07:12:07+01:00" "column=Waters Acquity BEH C18 1.7um x 2.1 x 150 mm" "retention time=1870.2" "raw data file=C:\Data\Confirmed Standards\14Jan9 Confirmed stds MSMS\Lupulone (vial 43).d" "computed mass accuracy=1.0494270927358278" "computed mass error=-4.3369600001597064E-4" "SPLASH=splash10-03di-0000900000-7143e8fc26059d2dc4e8" "submitter=Aiko Barsch (Bruker)" "MoNA Rating=4.230769230769231"
Num Peaks: 3
413.2693 100.000000
414.2725 20.920921
415.2755 2.402402


Name: Lupulone
Synon: $:00in-source
DB#: MetaboBASE0135
InChIKey: WPVSVIXDXMNGGN-UHFFFAOYSA-N
Instrument_type: LC-ESI-TOF
Instrument: impact HD
Ion_mode: N
Formula: C26H38O4
MW: 414
ExactMass: 414.277009696
Comments: "cas number=468-28-0" "SMILES=CC(C)CC(=O)C1=C(C(C(=O)C(=C1O)CC=C(C)C)(CC=C(C)C)CC=C(C)C)O" "InChI=InChI=1S/C26H38O4/c1-16(2)9-10-20-23(28)22(21(27)15-19(7)8)25(30)26(24(20)29,13-11-17(3)4)14-12-18(5)6/h9,11-12,19,28,30H,10,13-15H2,1-8H3" "computed SMILES=O=C(C1=C(O)C(=C(O)C(C1=O)(CC=C(C)C)CC=C(C)C)CC=C(C)C)CC(C)C" "computed InChI=InChI=1S/C26H38O4/c1-16(2)9-10-20-23(28)22(21(27)15-19(7)8)25(30)26(24(20)29,13-11-17(3)4)14-12-18(5)6/h9,11-12,19,28-29H,10,13-15H2,1-8H3" "license=License CC-BY-NC-SA 4.0 International" "author=Plant Biology, The Noble Foundation, Ardmore, OK, US/Dennis Fine, Daniel Wherritt, and Lloyd Sumner" "ionization=ESI" "collision gas=Nitrogen" "peak width=0.0089" "date=2014-01-10 07:12:07+01:00" "column=Waters Acquity BEH C18 1.7um x 2.1 x 150 mm" "retention time=1870.2" "raw data file=C:\Data\Confirmed Standards\14Jan9 Confirmed stds MSMS\Lupulone (vial 43).d" "SPLASH=splash10-03di-0000900000-2a4adb03a255aff3e5e9" "submitter=Aiko Barsch (Bruker)" "MoNA Rating=3.5"
Num Peaks: 3
413.2696 100.000000
414.2730 20.620621
415.2752 2.502503


Name: Lupulone
Synon: $:00in-source
DB#: MetaboBASE0136
InChIKey: WPVSVIXDXMNGGN-UHFFFAOYSA-N
Precursor_type: [M-H]-
Spectrum_type: MS2
PrecursorMZ: 413.3
Instrument_type: LC-ESI-TOF
Instrument: impact HD
Ion_mode: N
Collision_energy: 40
Formula: C26H38O4
MW: 414
ExactMass: 414.277009696
Comments: "cas number=468-28-0" "SMILES=CC(C)CC(=O)C1=C(C(C(=O)C(=C1O)CC=C(C)C)(CC=C(C)C)CC=C(C)C)O" "InChI=InChI=1S/C26H38O4/c1-16(2)9-10-20-23(28)22(21(27)15-19(7)8)25(30)26(24(20)29,13-11-17(3)4)14-12-18(5)6/h9,11-12,19,28,30H,10,13-15H2,1-8H3" "computed SMILES=O=C(C1=C(O)C(=C(O)C(C1=O)(CC=C(C)C)CC=C(C)C)CC=C(C)C)CC(C)C" "computed InChI=InChI=1S/C26H38O4/c1-16(2)9-10-20-23(28)22(21(27)15-19(7)8)25(30)26(24(20)29,13-11-17(3)4)14-12-18(5)6/h9,11-12,19,28-29H,10,13-15H2,1-8H3" "license=License CC-BY-NC-SA 4.0 International" "author=Plant Biology, The Noble Foundation, Ardmore, OK, US/Dennis Fine, Daniel Wherritt, and Lloyd Sumner" "ionization=ESI" "isolation width=5" "collision gas=Nitrogen" "peak width=0.012" "date=2014-01-10 07:12:07+01:00" "column=Waters Acquity BEH C18 1.7um x 2.1 x 150 mm" "retention time=1870.2" "raw data file=C:\Data\Confirmed Standards\14Jan9 Confirmed stds MSMS\Lupulone (vial 43).d" "computed mass accuracy=73.23083474475781" "computed mass error=0.030266304000008404" "SPLASH=splash10-0udi-0029000000-2d711adabd6e63dde487" "submitter=Aiko Barsch (Bruker)" "MoNA Rating=4.166666666666666"
Num Peaks: 8
233.0817 18.218218
245.0863 3.003003
259.1313 3.103103
287.1280 3.803804
289.1432 8.508509
301.1443 100.000000
302.1476 13.313313
329.1751 5.605606


Name: Hydrocinnamic acid
Synon: $:00in-source
DB#: MetaboBASE0137
InChIKey: XMIIGOLPHOKFCH-UHFFFAOYSA-N
Instrument_type: LC-ESI-TOF
Instrument: impact HD
Ion_mode: N
Formula: C9H10O2
MW: 150
ExactMass: 150.06807956
Comments: "cas number=501-52-0" "SMILES=c1ccc(cc1)CCC(=O)O" "InChI=InChI=1S/C9H10O2/c10-9(11)7-6-8-4-2-1-3-5-8/h1-5H,6-7H2,(H,10,11)" "computed SMILES=O=C(O)CCC=1C=CC=CC1" "license=License CC-BY-NC-SA 4.0 International" "author=Plant Biology, The Noble Foundation, Ardmore, OK, US/Dennis Fine, Daniel Wherritt, and Lloyd Sumner" "ionization=ESI" "collision gas=Nitrogen" "peak width=0.03" "date=2013-09-04 01:42:18+02:00" "column=Waters Acquity BEH C18 1.7um x 2.1 x 150 mm" "retention time=470.4" "raw data file=D:\Data\Confirmed Standards\Reinjection 2 uL\Hydrocinnamic acid (vial 30)_1489.d" "SPLASH=splash10-00dj-0229210000-3bd038d0275527aaf06e" "submitter=Aiko Barsch (Bruker)" "MoNA Rating=3.888888888888889"
Num Peaks: 34
149.061 50.750751
150.064 4.204204
217.048 14.014014
231.984 5.605606
248.987 4.304304
251.002 4.104104
279.019 14.014014
285.036 3.703704
305.137 5.005005
321.111 100.000000
322.114 18.418418
323.116 3.203203
339.988 3.103103
343.966 3.703704
355.060 3.103103
382.051 16.516517
383.081 12.712713
384.086 3.803804
387.103 3.103103
389.098 4.904905
399.055 4.204204
415.097 3.103103
444.051 21.721722
445.055 4.804805
448.029 3.103103
487.144 8.608609
493.160 5.805806
548.115 14.814815
549.115 5.305305
561.145 3.203203
652.175 7.107107
659.194 3.803804
665.210 6.206206
837.262 3.503504


Name: Boswellic acid, alpha
Synon: $:00in-source
DB#: MetaboBASE0138
InChIKey: BZXULBWGROURAF-IKNLXHIFSA-N
Precursor_type: [M-H]-
Spectrum_type: MS2
PrecursorMZ: 455.3571
Instrument_type: LC-ESI-TOF
Instrument: impact HD
Ion_mode: N
Collision_energy: 20
Formula: C30H48O3
MW: 456
ExactMass: 456.36034539599996
Comments: "cas number=471-66-9" "SMILES=C[C@@]12CC[C@@]3(C(=CC[C@H]4[C@]3(CC[C@@H]5[C@@]4(CC[C@H]([C@]5(C)C(=O)O)O)C)C)[C@@H]1CC(CC2)(C)C)C" "InChI=InChI=1S/C30H48O3/c1-25(2)14-15-26(3)16-17-28(5)19(20(26)18-25)8-9-21-27(4)12-11-23(31)30(7,24(32)33)22(27)10-13-29(21,28)6/h8,20-23,31H,9-18H2,1-7H3,(H,32,33)/t20-,21+,22+,23+,26+,27+,28+,29+,30+/m0/s1" "computed SMILES=O=C(O)C1(C)C(O)CCC2(C)C3CC=C4C5CC(C)(C)CCC5(C)CCC4(C)C3(C)CCC12" "license=License CC-BY-NC-SA 4.0 International" "author=Plant Biology, The Noble Foundation, Ardmore, OK, US/Dennis Fine, Daniel Wherritt, and Lloyd Sumner" "ionization=ESI" "isolation width=5" "collision gas=Nitrogen" "peak width=0.017" "date=2014-07-26 08:41:14+02:00" "column=Waters Acquity BEH C18 1.7um x 2.1 x 150 mm" "retention time=1946.4" "raw data file=C:\Data\Confirmed standards 24_July_2014\MSMS\Boswellic acid, alpha vial 66_1-B,6_01_495.d" "computed mass accuracy=8.851523342967452" "computed mass error=0.004030604000035964" "SPLASH=splash10-0a4i-0000900000-22617bff1ec664a667d8" "submitter=Aiko Barsch (Bruker)" "MoNA Rating=4.545454545454546"
Num Peaks: 5
453.3421 28.528529
454.3445 10.410410
455.3571 100.000000
456.3602 29.329329
457.3631 2.102102


Name: Boswellic acid, alpha
Synon: $:00in-source
DB#: MetaboBASE0139
InChIKey: BZXULBWGROURAF-IKNLXHIFSA-N
Precursor_type: [M-H]-
Spectrum_type: MS2
PrecursorMZ: 455.3565
Instrument_type: LC-ESI-TOF
Instrument: impact HD
Ion_mode: N
Collision_energy: 30
Formula: C30H48O3
MW: 456
ExactMass: 456.36034539599996
Comments: "cas number=471-66-9" "SMILES=C[C@@]12CC[C@@]3(C(=CC[C@H]4[C@]3(CC[C@@H]5[C@@]4(CC[C@H]([C@]5(C)C(=O)O)O)C)C)[C@@H]1CC(CC2)(C)C)C" "InChI=InChI=1S/C30H48O3/c1-25(2)14-15-26(3)16-17-28(5)19(20(26)18-25)8-9-21-27(4)12-11-23(31)30(7,24(32)33)22(27)10-13-29(21,28)6/h8,20-23,31H,9-18H2,1-7H3,(H,32,33)/t20-,21+,22+,23+,26+,27+,28+,29+,30+/m0/s1" "computed SMILES=O=C(O)C1(C)C(O)CCC2(C)C3CC=C4C5CC(C)(C)CCC5(C)CCC4(C)C3(C)CCC12" "license=License CC-BY-NC-SA 4.0 International" "author=Plant Biology, The Noble Foundation, Ardmore, OK, US/Dennis Fine, Daniel Wherritt, and Lloyd Sumner" "ionization=ESI" "isolation width=5" "collision gas=Nitrogen" "peak width=0.017" "date=2014-07-26 08:41:14+02:00" "column=Waters Acquity BEH C18 1.7um x 2.1 x 150 mm" "retention time=1946.4" "raw data file=C:\Data\Confirmed standards 24_July_2014\MSMS\Boswellic acid, alpha vial 66_1-B,6_01_495.d" "computed mass accuracy=7.533886087090107" "computed mass error=0.0034306040000160465" "SPLASH=splash10-0a4i-0000900000-c8f2e40f5fc112298c85" "submitter=Aiko Barsch (Bruker)" "MoNA Rating=4.545454545454546"
Num Peaks: 5
453.3420 19.519520
454.3449 7.507508
455.3565 100.000000
456.3603 30.030030
457.3631 2.302302


Name: Boswellic acid, alpha
Synon: $:00in-source
DB#: MetaboBASE0140
InChIKey: BZXULBWGROURAF-IKNLXHIFSA-N
Instrument_type: LC-ESI-TOF
Instrument: impact HD
Ion_mode: N
Formula: C30H48O3
MW: 456
ExactMass: 456.36034539599996
Comments: "cas number=471-66-9" "SMILES=C[C@@]12CC[C@@]3(C(=CC[C@H]4[C@]3(CC[C@@H]5[C@@]4(CC[C@H]([C@]5(C)C(=O)O)O)C)C)[C@@H]1CC(CC2)(C)C)C" "InChI=InChI=1S/C30H48O3/c1-25(2)14-15-26(3)16-17-28(5)19(20(26)18-25)8-9-21-27(4)12-11-23(31)30(7,24(32)33)22(27)10-13-29(21,28)6/h8,20-23,31H,9-18H2,1-7H3,(H,32,33)/t20-,21+,22+,23+,26+,27+,28+,29+,30+/m0/s1" "computed SMILES=O=C(O)C1(C)C(O)CCC2(C)C3CC=C4C5CC(C)(C)CCC5(C)CCC4(C)C3(C)CCC12" "license=License CC-BY-NC-SA 4.0 International" "author=Plant Biology, The Noble Foundation, Ardmore, OK, US/Dennis Fine, Daniel Wherritt, and Lloyd Sumner" "ionization=ESI" "collision gas=Nitrogen" "peak width=0.019" "date=2013-09-05 14:18:32+02:00" "column=Waters Acquity BEH C18 1.7um x 2.1 x 150 mm" "retention time=1946.4" "raw data file=D:\Data\Confirmed Standards\Reinjection 2 uL\Boswellic acid, alpha-   .d" "SPLASH=splash10-0a4i-0000900000-5380db1c007c7de56973" "submitter=Aiko Barsch (Bruker)" "MoNA Rating=3.888888888888889"
Num Peaks: 5
455.3555 100.000000
456.3586 29.029029
457.3617 4.004004
523.3434 5.505506
524.3466 1.801802


Name: Boswellic acid, alpha
Synon: $:00in-source
DB#: MetaboBASE0141
InChIKey: BZXULBWGROURAF-IKNLXHIFSA-N
Precursor_type: [M-H]-
Spectrum_type: MS2
PrecursorMZ: 455.3573
Instrument_type: LC-ESI-TOF
Instrument: impact HD
Ion_mode: N
Collision_energy: 10
Formula: C30H48O3
MW: 456
ExactMass: 456.36034539599996
Comments: "cas number=471-66-9" "SMILES=C[C@@]12CC[C@@]3(C(=CC[C@H]4[C@]3(CC[C@@H]5[C@@]4(CC[C@H]([C@]5(C)C(=O)O)O)C)C)[C@@H]1CC(CC2)(C)C)C" "InChI=InChI=1S/C30H48O3/c1-25(2)14-15-26(3)16-17-28(5)19(20(26)18-25)8-9-21-27(4)12-11-23(31)30(7,24(32)33)22(27)10-13-29(21,28)6/h8,20-23,31H,9-18H2,1-7H3,(H,32,33)/t20-,21+,22+,23+,26+,27+,28+,29+,30+/m0/s1" "computed SMILES=O=C(O)C1(C)C(O)CCC2(C)C3CC=C4C5CC(C)(C)CCC5(C)CCC4(C)C3(C)CCC12" "license=License CC-BY-NC-SA 4.0 International" "author=Plant Biology, The Noble Foundation, Ardmore, OK, US/Dennis Fine, Daniel Wherritt, and Lloyd Sumner" "ionization=ESI" "isolation width=5" "collision gas=Nitrogen" "peak width=0.017" "date=2014-07-26 08:41:14+02:00" "column=Waters Acquity BEH C18 1.7um x 2.1 x 150 mm" "retention time=1946.4" "raw data file=C:\Data\Confirmed standards 24_July_2014\MSMS\Boswellic acid, alpha vial 66_1-B,6_01_495.d" "computed mass accuracy=9.290734989957564" "computed mass error=0.004230604000042604" "SPLASH=splash10-0a4i-0000900000-e5fa90a027cf1e9d801d" "submitter=Aiko Barsch (Bruker)" "MoNA Rating=4.545454545454546"
Num Peaks: 5
453.3419 34.434434
454.3445 11.611612
455.3573 100.000000
456.3606 29.629630
457.3633 1.601602


Name: Boswellic acid, alpha
Synon: $:00in-source
DB#: MetaboBASE0142
InChIKey: BZXULBWGROURAF-IKNLXHIFSA-N
Precursor_type: [M-H]-
Spectrum_type: MS2
PrecursorMZ: 455.3568
Instrument_type: LC-ESI-TOF
Instrument: impact HD
Ion_mode: N
Collision_energy: 40
Formula: C30H48O3
MW: 456
ExactMass: 456.36034539599996
Comments: "cas number=471-66-9" "SMILES=C[C@@]12CC[C@@]3(C(=CC[C@H]4[C@]3(CC[C@@H]5[C@@]4(CC[C@H]([C@]5(C)C(=O)O)O)C)C)[C@@H]1CC(CC2)(C)C)C" "InChI=InChI=1S/C30H48O3/c1-25(2)14-15-26(3)16-17-28(5)19(20(26)18-25)8-9-21-27(4)12-11-23(31)30(7,24(32)33)22(27)10-13-29(21,28)6/h8,20-23,31H,9-18H2,1-7H3,(H,32,33)/t20-,21+,22+,23+,26+,27+,28+,29+,30+/m0/s1" "computed SMILES=O=C(O)C1(C)C(O)CCC2(C)C3CC=C4C5CC(C)(C)CCC5(C)CCC4(C)C3(C)CCC12" "license=License CC-BY-NC-SA 4.0 International" "author=Plant Biology, The Noble Foundation, Ardmore, OK, US/Dennis Fine, Daniel Wherritt, and Lloyd Sumner" "ionization=ESI" "isolation width=5" "collision gas=Nitrogen" "peak width=0.017" "date=2014-07-26 08:41:14+02:00" "column=Waters Acquity BEH C18 1.7um x 2.1 x 150 mm" "retention time=1946.4" "raw data file=C:\Data\Confirmed standards 24_July_2014\MSMS\Boswellic acid, alpha vial 66_1-B,6_01_495.d" "computed mass accuracy=8.192705149136735" "computed mass error=0.003730604000054427" "SPLASH=splash10-0a4i-0000900000-76330893afd024ee07b8" "submitter=Aiko Barsch (Bruker)" "MoNA Rating=4.545454545454546"
Num Peaks: 8
375.3082 6.106106
377.3228 7.707708
409.3111 6.206206
409.3508 6.806807
437.3434 6.806807
453.3416 7.007007
455.3568 100.000000
456.3601 28.128128


Name: Boswellic acid, alpha
Synon: $:00in-source
DB#: MetaboBASE0143
InChIKey: BZXULBWGROURAF-IKNLXHIFSA-N
Precursor_type: [M-H]-
Spectrum_type: MS2
PrecursorMZ: 455.3593
Instrument_type: LC-ESI-TOF
Instrument: impact HD
Ion_mode: N
Collision_energy: 50
Formula: C30H48O3
MW: 456
ExactMass: 456.36034539599996
Comments: "cas number=471-66-9" "SMILES=C[C@@]12CC[C@@]3(C(=CC[C@H]4[C@]3(CC[C@@H]5[C@@]4(CC[C@H]([C@]5(C)C(=O)O)O)C)C)[C@@H]1CC(CC2)(C)C)C" "InChI=InChI=1S/C30H48O3/c1-25(2)14-15-26(3)16-17-28(5)19(20(26)18-25)8-9-21-27(4)12-11-23(31)30(7,24(32)33)22(27)10-13-29(21,28)6/h8,20-23,31H,9-18H2,1-7H3,(H,32,33)/t20-,21+,22+,23+,26+,27+,28+,29+,30+/m0/s1" "computed SMILES=O=C(O)C1(C)C(O)CCC2(C)C3CC=C4C5CC(C)(C)CCC5(C)CCC4(C)C3(C)CCC12" "license=License CC-BY-NC-SA 4.0 International" "author=Plant Biology, The Noble Foundation, Ardmore, OK, US/Dennis Fine, Daniel Wherritt, and Lloyd Sumner" "ionization=ESI" "isolation width=5" "collision gas=Nitrogen" "peak width=0.013" "date=2014-07-26 08:41:14+02:00" "column=Waters Acquity BEH C18 1.7um x 2.1 x 150 mm" "retention time=1946.4" "raw data file=C:\Data\Confirmed standards 24_July_2014\MSMS\Boswellic acid, alpha vial 66_1-B,6_01_495.d" "computed mass accuracy=13.682830239883435" "computed mass error=0.006230604000052153" "SPLASH=splash10-0a4i-0001900000-ad65b341d0a79d9ceef6" "submitter=Aiko Barsch (Bruker)" "MoNA Rating=4.545454545454546"
Num Peaks: 6
377.3255 41.141141
409.3130 24.424424
409.3547 52.252252
437.3400 59.959960
455.3593 100.000000
456.3588 23.123123


Name: Pygenic acid B b
Synon: $:00in-source
DB#: MetaboBASE0144
InChIKey: JXSVIVRDWWRQRT-VULHWTOISA-N
Precursor_type: [M-H]-
Spectrum_type: MS2
PrecursorMZ: 487.3465
Instrument_type: LC-ESI-TOF
Instrument: impact HD
Ion_mode: N
Collision_energy: 50
Formula: C30H48O5
MW: 488
ExactMass: 488.35017463599996
Comments: "cas number=89786-83-4" "SMILES=C[C@@H]1CC[C@@]2(CC[C@@]3(C(=CC[C@H]4[C@]3(CCC5[C@@]4(CC(C(C5(C)CO)O)O)C)C)[C@@H]2[C@H]1C)C)C(=O)O" "InChI=InChI=1S/C30H48O5/c1-17-9-12-30(25(34)35)14-13-28(5)19(23(30)18(17)2)7-8-22-26(3)15-20(32)24(33)27(4,16-31)21(26)10-11-29(22,28)6/h7,17-18,20-24,31-33H,8-16H2,1-6H3,(H,34,35)/t17-,18+,20?,21?,22-,23+,24?,26+,27?,28-,29-,30+/m1/s1" "computed SMILES=O=C(O)C12CCC(C)C(C)C2C3=CCC4C5(C)CC(O)C(O)C(C)(CO)C5CCC4(C)C3(C)CC1" "computed InChI=InChI=1S/C30H48O5/c1-17-9-12-30(25(34)35)14-13-28(5)19(23(30)18(17)2)7-8-22-26(3)15-20(32)24(33)27(4,16-31)21(26)10-11-29(22,28)6/h7,17-18,20-24,31-33H,8-16H2,1-6H3,(H,34,35)/t17-,18+,20-,21-,22-,23+,24-,26+,27-,28-,29-,30+/m1/s1" "license=License CC-BY-NC-SA 4.0 International" "author=Plant Biology, The Noble Foundation, Ardmore, OK, US/Dennis Fine, Daniel Wherritt, and Lloyd Sumner" "ionization=ESI" "isolation width=5" "collision gas=Nitrogen" "peak width=0.016" "date=2013-11-16 09:17:17+01:00" "column=Waters Acquity BEH C18 1.7um x 2.1 x 150 mm" "retention time=1143" "raw data file=C:\Data\Confirmed Standards\Confirmed stds MSMS 14Nov13\Pygenic acid B MSMS (vial 62).d" "computed mass accuracy=7.389740154118687" "computed mass error=0.0036013640000192026" "SPLASH=splash10-000i-0000900000-c811147698e7155feb22" "submitter=Aiko Barsch (Bruker)" "MoNA Rating=3.846153846153846"
Num Peaks: 2
487.3465 100.000000
488.3506 41.041041


Name: Pygenic acid B b
Synon: $:00in-source
DB#: MetaboBASE0145
InChIKey: JXSVIVRDWWRQRT-VULHWTOISA-N
Precursor_type: [M-H]-
Spectrum_type: MS2
PrecursorMZ: 487.343
Instrument_type: LC-ESI-TOF
Instrument: impact HD
Ion_mode: N
Collision_energy: 10
Formula: C30H48O5
MW: 488
ExactMass: 488.35017463599996
Comments: "cas number=89786-83-4" "SMILES=C[C@@H]1CC[C@@]2(CC[C@@]3(C(=CC[C@H]4[C@]3(CCC5[C@@]4(CC(C(C5(C)CO)O)O)C)C)[C@@H]2[C@H]1C)C)C(=O)O" "InChI=InChI=1S/C30H48O5/c1-17-9-12-30(25(34)35)14-13-28(5)19(23(30)18(17)2)7-8-22-26(3)15-20(32)24(33)27(4,16-31)21(26)10-11-29(22,28)6/h7,17-18,20-24,31-33H,8-16H2,1-6H3,(H,34,35)/t17-,18+,20?,21?,22-,23+,24?,26+,27?,28-,29-,30+/m1/s1" "computed SMILES=O=C(O)C12CCC(C)C(C)C2C3=CCC4C5(C)CC(O)C(O)C(C)(CO)C5CCC4(C)C3(C)CC1" "computed InChI=InChI=1S/C30H48O5/c1-17-9-12-30(25(34)35)14-13-28(5)19(23(30)18(17)2)7-8-22-26(3)15-20(32)24(33)27(4,16-31)21(26)10-11-29(22,28)6/h7,17-18,20-24,31-33H,8-16H2,1-6H3,(H,34,35)/t17-,18+,20-,21-,22-,23+,24-,26+,27-,28-,29-,30+/m1/s1" "license=License CC-BY-NC-SA 4.0 International" "author=Plant Biology, The Noble Foundation, Ardmore, OK, US/Dennis Fine, Daniel Wherritt, and Lloyd Sumner" "ionization=ESI" "isolation width=5" "collision gas=Nitrogen" "peak width=0.013" "date=2014-07-25 22:27:39+02:00" "column=Waters Acquity BEH C18 1.7um x 2.1 x 150 mm" "retention time=1143" "raw data file=C:\Data\Confirmed standards 24_July_2014\MSMS\Z Lei std 28 May 2014_1-F,8_01_480.d" "computed mass accuracy=0.20799313839559253" "computed mass error=1.0136400004512325E-4" "SPLASH=splash10-000i-0000900000-799911082a85c75bab90" "submitter=Aiko Barsch (Bruker)" "MoNA Rating=4.615384615384616"
Num Peaks: 6
485.3263 0.200200
487.2543 0.100100
487.3430 100.000000
488.3462 26.926927
489.3478 1.901902
490.3475 0.200200


Name: Pygenic acid B b
Synon: $:00in-source
DB#: MetaboBASE0146
InChIKey: JXSVIVRDWWRQRT-VULHWTOISA-N
Precursor_type: [M-H]-
Spectrum_type: MS2
PrecursorMZ: 487.3433
Instrument_type: LC-ESI-TOF
Instrument: impact HD
Ion_mode: N
Collision_energy: 20
Formula: C30H48O5
MW: 488
ExactMass: 488.35017463599996
Comments: "cas number=89786-83-4" "SMILES=C[C@@H]1CC[C@@]2(CC[C@@]3(C(=CC[C@H]4[C@]3(CCC5[C@@]4(CC(C(C5(C)CO)O)O)C)C)[C@@H]2[C@H]1C)C)C(=O)O" "InChI=InChI=1S/C30H48O5/c1-17-9-12-30(25(34)35)14-13-28(5)19(23(30)18(17)2)7-8-22-26(3)15-20(32)24(33)27(4,16-31)21(26)10-11-29(22,28)6/h7,17-18,20-24,31-33H,8-16H2,1-6H3,(H,34,35)/t17-,18+,20?,21?,22-,23+,24?,26+,27?,28-,29-,30+/m1/s1" "computed SMILES=O=C(O)C12CCC(C)C(C)C2C3=CCC4C5(C)CC(O)C(O)C(C)(CO)C5CCC4(C)C3(C)CC1" "computed InChI=InChI=1S/C30H48O5/c1-17-9-12-30(25(34)35)14-13-28(5)19(23(30)18(17)2)7-8-22-26(3)15-20(32)24(33)27(4,16-31)21(26)10-11-29(22,28)6/h7,17-18,20-24,31-33H,8-16H2,1-6H3,(H,34,35)/t17-,18+,20-,21-,22-,23+,24-,26+,27-,28-,29-,30+/m1/s1" "license=License CC-BY-NC-SA 4.0 International" "author=Plant Biology, The Noble Foundation, Ardmore, OK, US/Dennis Fine, Daniel Wherritt, and Lloyd Sumner" "ionization=ESI" "isolation width=5" "collision gas=Nitrogen" "peak width=0.013" "date=2014-07-25 22:27:39+02:00" "column=Waters Acquity BEH C18 1.7um x 2.1 x 150 mm" "retention time=1143" "raw data file=C:\Data\Confirmed standards 24_July_2014\MSMS\Z Lei std 28 May 2014_1-F,8_01_480.d" "computed mass accuracy=0.823575496014125" "computed mass error=4.013640000266605E-4" "SPLASH=splash10-000i-0000900000-de7fc61f2f23a28313b7" "submitter=Aiko Barsch (Bruker)" "MoNA Rating=4.615384615384616"
Num Peaks: 5
485.3276 0.300300
487.3433 100.000000
488.3459 26.126126
489.3476 1.701702
490.3538 0.100100


Name: Pygenic acid B b
Synon: $:00in-source
DB#: MetaboBASE0147
InChIKey: JXSVIVRDWWRQRT-VULHWTOISA-N
Precursor_type: [M-H]-
Spectrum_type: MS2
PrecursorMZ: 487.3432
Instrument_type: LC-ESI-TOF
Instrument: impact HD
Ion_mode: N
Collision_energy: 30
Formula: C30H48O5
MW: 488
ExactMass: 488.35017463599996
Comments: "cas number=89786-83-4" "SMILES=C[C@@H]1CC[C@@]2(CC[C@@]3(C(=CC[C@H]4[C@]3(CCC5[C@@]4(CC(C(C5(C)CO)O)O)C)C)[C@@H]2[C@H]1C)C)C(=O)O" "InChI=InChI=1S/C30H48O5/c1-17-9-12-30(25(34)35)14-13-28(5)19(23(30)18(17)2)7-8-22-26(3)15-20(32)24(33)27(4,16-31)21(26)10-11-29(22,28)6/h7,17-18,20-24,31-33H,8-16H2,1-6H3,(H,34,35)/t17-,18+,20?,21?,22-,23+,24?,26+,27?,28-,29-,30+/m1/s1" "computed SMILES=O=C(O)C12CCC(C)C(C)C2C3=CCC4C5(C)CC(O)C(O)C(C)(CO)C5CCC4(C)C3(C)CC1" "computed InChI=InChI=1S/C30H48O5/c1-17-9-12-30(25(34)35)14-13-28(5)19(23(30)18(17)2)7-8-22-26(3)15-20(32)24(33)27(4,16-31)21(26)10-11-29(22,28)6/h7,17-18,20-24,31-33H,8-16H2,1-6H3,(H,34,35)/t17-,18+,20-,21-,22-,23+,24-,26+,27-,28-,29-,30+/m1/s1" "license=License CC-BY-NC-SA 4.0 International" "author=Plant Biology, The Noble Foundation, Ardmore, OK, US/Dennis Fine, Daniel Wherritt, and Lloyd Sumner" "ionization=ESI" "isolation width=5" "collision gas=Nitrogen" "peak width=0.013" "date=2014-07-25 22:27:39+02:00" "column=Waters Acquity BEH C18 1.7um x 2.1 x 150 mm" "retention time=1143" "raw data file=C:\Data\Confirmed standards 24_July_2014\MSMS\Z Lei std 28 May 2014_1-F,8_01_480.d" "computed mass accuracy=0.6183814610561151" "computed mass error=3.0136400005176256E-4" "SPLASH=splash10-000i-0000900000-bcff93a2225c4aa8e90f" "submitter=Aiko Barsch (Bruker)" "MoNA Rating=4.615384615384616"
Num Peaks: 6
485.3241 0.200200
487.2591 0.100100
487.3432 100.000000
488.3456 25.925926
489.3477 1.901902
490.3466 0.200200


Name: Pygenic acid B b
Synon: $:00in-source
DB#: MetaboBASE0148
InChIKey: JXSVIVRDWWRQRT-VULHWTOISA-N
Precursor_type: [M-H]-
Spectrum_type: MS2
PrecursorMZ: 487.3427
Instrument_type: LC-ESI-TOF
Instrument: impact HD
Ion_mode: N
Collision_energy: 40
Formula: C30H48O5
MW: 488
ExactMass: 488.35017463599996
Comments: "cas number=89786-83-4" "SMILES=C[C@@H]1CC[C@@]2(CC[C@@]3(C(=CC[C@H]4[C@]3(CCC5[C@@]4(CC(C(C5(C)CO)O)O)C)C)[C@@H]2[C@H]1C)C)C(=O)O" "InChI=InChI=1S/C30H48O5/c1-17-9-12-30(25(34)35)14-13-28(5)19(23(30)18(17)2)7-8-22-26(3)15-20(32)24(33)27(4,16-31)21(26)10-11-29(22,28)6/h7,17-18,20-24,31-33H,8-16H2,1-6H3,(H,34,35)/t17-,18+,20?,21?,22-,23+,24?,26+,27?,28-,29-,30+/m1/s1" "computed SMILES=O=C(O)C12CCC(C)C(C)C2C3=CCC4C5(C)CC(O)C(O)C(C)(CO)C5CCC4(C)C3(C)CC1" "computed InChI=InChI=1S/C30H48O5/c1-17-9-12-30(25(34)35)14-13-28(5)19(23(30)18(17)2)7-8-22-26(3)15-20(32)24(33)27(4,16-31)21(26)10-11-29(22,28)6/h7,17-18,20-24,31-33H,8-16H2,1-6H3,(H,34,35)/t17-,18+,20-,21-,22-,23+,24-,26+,27-,28-,29-,30+/m1/s1" "license=License CC-BY-NC-SA 4.0 International" "author=Plant Biology, The Noble Foundation, Ardmore, OK, US/Dennis Fine, Daniel Wherritt, and Lloyd Sumner" "ionization=ESI" "isolation width=5" "collision gas=Nitrogen" "peak width=0.014" "date=2014-07-25 22:27:39+02:00" "column=Waters Acquity BEH C18 1.7um x 2.1 x 150 mm" "retention time=1143" "raw data file=C:\Data\Confirmed standards 24_July_2014\MSMS\Z Lei std 28 May 2014_1-F,8_01_480.d" "computed mass accuracy=0.40758997722394824" "computed mass error=-1.9863599999325743E-4" "SPLASH=splash10-000i-0000900000-4c467e27aee45fc75e8f" "submitter=Aiko Barsch (Bruker)" "MoNA Rating=4.615384615384616"
Num Peaks: 8
407.2989 0.100100
485.3280 0.200200
487.2326 0.100100
487.3427 100.000000
487.4464 0.200200
488.3457 27.427427
489.3485 2.102102
490.3503 0.200200


Name: Pygenic acid B b
Synon: $:00in-source
DB#: MetaboBASE0149
InChIKey: JXSVIVRDWWRQRT-VULHWTOISA-N
Precursor_type: [M-H]-
Spectrum_type: MS2
PrecursorMZ: 487.3426
Instrument_type: LC-ESI-TOF
Instrument: impact HD
Ion_mode: N
Collision_energy: 50
Formula: C30H48O5
MW: 488
ExactMass: 488.350174636
Comments: "cas number=89786-83-4" "SMILES=C[C@@H]1CC[C@@]2(CC[C@@]3(C(=CC[C@H]4[C@]3(CCC5[C@@]4(CC(C(C5(C)CO)O)O)C)C)[C@@H]2[C@H]1C)C)C(=O)O" "InChI=InChI=1S/C30H48O5/c1-17-9-12-30(25(34)35)14-13-28(5)19(23(30)18(17)2)7-8-22-26(3)15-20(32)24(33)27(4,16-31)21(26)10-11-29(22,28)6/h7,17-18,20-24,31-33H,8-16H2,1-6H3,(H,34,35)/t17-,18+,20?,21?,22-,23+,24?,26+,27?,28-,29-,30+/m1/s1" "computed SMILES=O=C(O)C12CCC(C)C(C)C2C3=CCC4C5(C)CC(O)C(O)C(C)(CO)C5CCC4(C)C3(C)CC1" "computed InChI=InChI=1S/C30H48O5/c1-17-9-12-30(25(34)35)14-13-28(5)19(23(30)18(17)2)7-8-22-26(3)15-20(32)24(33)27(4,16-31)21(26)10-11-29(22,28)6/h7,17-18,20-24,31-33H,8-16H2,1-6H3,(H,34,35)/t17-,18+,20-,21-,22-,23+,24-,26+,27-,28-,29-,30+/m1/s1" "license=License CC-BY-NC-SA 4.0 International" "author=Plant Biology, The Noble Foundation, Ardmore, OK, US/Dennis Fine, Daniel Wherritt, and Lloyd Sumner" "ionization=ESI" "isolation width=5" "collision gas=Nitrogen" "peak width=0.016" "date=2014-07-25 22:27:39+02:00" "column=Waters Acquity BEH C18 1.7um x 2.1 x 150 mm" "retention time=1143" "raw data file=C:\Data\Confirmed standards 24_July_2014\MSMS\Z Lei std 28 May 2014_1-F,8_01_480.d" "computed mass accuracy=0.6127845175549989" "computed mass error=-2.986360000249988E-4" "SPLASH=splash10-000i-0000900000-78822ccc7688861c3bcc" "submitter=Aiko Barsch (Bruker)" "MoNA Rating=4.615384615384616"
Num Peaks: 6
373.2894 0.300300
407.2943 0.400400
409.3129 0.400400
487.3426 100.000000
488.3452 28.128128
489.3466 2.102102


Name: Pygenic acid B b
Synon: $:00in-source
DB#: MetaboBASE0150
InChIKey: JXSVIVRDWWRQRT-VULHWTOISA-N
Instrument_type: LC-ESI-TOF
Instrument: impact HD
Ion_mode: N
Formula: C30H48O5
MW: 488
ExactMass: 488.35017463599996
Comments: "cas number=89786-83-4" "SMILES=C[C@@H]1CC[C@@]2(CC[C@@]3(C(=CC[C@H]4[C@]3(CCC5[C@@]4(CC(C(C5(C)CO)O)O)C)C)[C@@H]2[C@H]1C)C)C(=O)O" "InChI=InChI=1S/C30H48O5/c1-17-9-12-30(25(34)35)14-13-28(5)19(23(30)18(17)2)7-8-22-26(3)15-20(32)24(33)27(4,16-31)21(26)10-11-29(22,28)6/h7,17-18,20-24,31-33H,8-16H2,1-6H3,(H,34,35)/t17-,18+,20?,21?,22-,23+,24?,26+,27?,28-,29-,30+/m1/s1" "computed SMILES=O=C(O)C12CCC(C)C(C)C2C3=CCC4C5(C)CC(O)C(O)C(C)(CO)C5CCC4(C)C3(C)CC1" "computed InChI=InChI=1S/C30H48O5/c1-17-9-12-30(25(34)35)14-13-28(5)19(23(30)18(17)2)7-8-22-26(3)15-20(32)24(33)27(4,16-31)21(26)10-11-29(22,28)6/h7,17-18,20-24,31-33H,8-16H2,1-6H3,(H,34,35)/t17-,18+,20-,21-,22-,23+,24-,26+,27-,28-,29-,30+/m1/s1" "license=License CC-BY-NC-SA 4.0 International" "author=Plant Biology, The Noble Foundation, Ardmore, OK, US/Dennis Fine, Daniel Wherritt, and Lloyd Sumner" "ionization=ESI" "collision gas=Nitrogen" "peak width=0.028" "date=2013-09-05 11:35:29+02:00" "column=Waters Acquity BEH C18 1.7um x 2.1 x 150 mm" "retention time=1143" "raw data file=D:\Data\Confirmed Standards\Reinjection 2 uL\Pygenic acid B (vial 62).d" "SPLASH=splash10-000i-0000900001-92f262d9e05eb1686a8f" "submitter=Aiko Barsch (Bruker)" "MoNA Rating=3.888888888888889"
Num Peaks: 11
487.340 100.000000
488.344 29.429429
489.346 4.704705
555.327 9.209209
623.315 2.202202
975.690 12.612613
976.693 7.907908
977.697 2.302302
997.671 3.503504
998.674 2.202202
1065.654 1.001001


Name: Pygenic acid C b
Synon: $:00in-source
DB#: MetaboBASE0151
InChIKey: NFPZOORPDJBGME-LCRJMXSQSA-N
Spectrum_type: MS2
PrecursorMZ: 487.3433
Instrument_type: LC-ESI-TOF
Instrument: impact HD
Ion_mode: N
Collision_energy: 10
Formula: C30H48O6
MW: 504
ExactMass: 504.345089256
Comments: "cas number=254098-65-2" "computed SMILES=O=C(O)C12CCC(C)C(C)C2C3=CCC4C(C)(CCC5C(C)(CO)C(O)C(O)C(O)C45C)C3(C)CC1" "computed InChI=InChI=1S/C30H48O6/c1-16-9-12-30(25(35)36)14-13-27(4)18(21(30)17(16)2)7-8-20-28(27,5)11-10-19-26(3,15-31)23(33)22(32)24(34)29(19,20)6/h7,16-17,19-24,31-34H,8-15H2,1-6H3,(H,35,36)/t16-,17+,19+,20+,21+,22+,23-,24-,26-,27-,28-,29+,30+/m1/s1" "license=License CC-BY-NC-SA 4.0 International" "author=Plant Biology, The Noble Foundation, Ardmore, OK, US/Dennis Fine, Daniel Wherritt, and Lloyd Sumner" "ionization=ESI" "isolation width=5" "collision gas=Nitrogen" "peak width=0.015" "date=2014-07-26 07:19:23+02:00" "column=Waters Acquity BEH C18 1.7um x 2.1 x 150 mm" "retention time=1064.4" "raw data file=C:\Data\Confirmed standards 24_July_2014\MSMS\Pygenic Acid C vial 63_1-B,4_01_493.d" "SPLASH=splash10-000i-0000900000-9335459bf4bca5382ec0" "submitter=Aiko Barsch (Bruker)" "MoNA Rating=3.125"
Num Peaks: 5
487.3433 100.000000
488.3455 27.227227
489.3510 1.501502
1389.0693 0.400400
1430.0331 0.400400


Name: Pygenic acid C b
Synon: $:00in-source
DB#: MetaboBASE0152
InChIKey: NFPZOORPDJBGME-LCRJMXSQSA-N
Spectrum_type: MS2
PrecursorMZ: 487.3432
Instrument_type: LC-ESI-TOF
Instrument: impact HD
Ion_mode: N
Collision_energy: 40
Formula: C30H48O6
MW: 504
ExactMass: 504.345089256
Comments: "cas number=254098-65-2" "computed SMILES=O=C(O)C12CCC(C)C(C)C2C3=CCC4C(C)(CCC5C(C)(CO)C(O)C(O)C(O)C45C)C3(C)CC1" "computed InChI=InChI=1S/C30H48O6/c1-16-9-12-30(25(35)36)14-13-27(4)18(21(30)17(16)2)7-8-20-28(27,5)11-10-19-26(3,15-31)23(33)22(32)24(34)29(19,20)6/h7,16-17,19-24,31-34H,8-15H2,1-6H3,(H,35,36)/t16-,17+,19+,20+,21+,22+,23-,24-,26-,27-,28-,29+,30+/m1/s1" "license=License CC-BY-NC-SA 4.0 International" "author=Plant Biology, The Noble Foundation, Ardmore, OK, US/Dennis Fine, Daniel Wherritt, and Lloyd Sumner" "ionization=ESI" "isolation width=5" "collision gas=Nitrogen" "peak width=0.016" "date=2014-07-26 07:19:23+02:00" "column=Waters Acquity BEH C18 1.7um x 2.1 x 150 mm" "retention time=1064.4" "raw data file=C:\Data\Confirmed standards 24_July_2014\MSMS\Pygenic Acid C vial 63_1-B,4_01_493.d" "SPLASH=splash10-000i-0000900000-b63ae66f92f1e39d7ef7" "submitter=Aiko Barsch (Bruker)" "MoNA Rating=3.125"
Num Peaks: 3
487.3432 100.000000
488.3453 28.828829
489.3467 2.102102


Name: Pygenic acid C b
Synon: $:00in-source
DB#: MetaboBASE0153
InChIKey: NFPZOORPDJBGME-LCRJMXSQSA-N
Spectrum_type: MS2
PrecursorMZ: 487.343
Instrument_type: LC-ESI-TOF
Instrument: impact HD
Ion_mode: N
Collision_energy: 20
Formula: C30H48O6
MW: 504
ExactMass: 504.345089256
Comments: "cas number=254098-65-2" "computed SMILES=O=C(O)C12CCC(C)C(C)C2C3=CCC4C(C)(CCC5C(C)(CO)C(O)C(O)C(O)C45C)C3(C)CC1" "computed InChI=InChI=1S/C30H48O6/c1-16-9-12-30(25(35)36)14-13-27(4)18(21(30)17(16)2)7-8-20-28(27,5)11-10-19-26(3,15-31)23(33)22(32)24(34)29(19,20)6/h7,16-17,19-24,31-34H,8-15H2,1-6H3,(H,35,36)/t16-,17+,19+,20+,21+,22+,23-,24-,26-,27-,28-,29+,30+/m1/s1" "license=License CC-BY-NC-SA 4.0 International" "author=Plant Biology, The Noble Foundation, Ardmore, OK, US/Dennis Fine, Daniel Wherritt, and Lloyd Sumner" "ionization=ESI" "isolation width=5" "collision gas=Nitrogen" "peak width=0.016" "date=2014-07-26 07:19:23+02:00" "column=Waters Acquity BEH C18 1.7um x 2.1 x 150 mm" "retention time=1064.4" "raw data file=C:\Data\Confirmed standards 24_July_2014\MSMS\Pygenic Acid C vial 63_1-B,4_01_493.d" "SPLASH=splash10-000i-0000900000-2e8a8ff47135944668c4" "submitter=Aiko Barsch (Bruker)" "MoNA Rating=3.125"
Num Peaks: 6
487.3430 100.000000
487.4228 0.400400
488.3455 26.726727
489.3491 1.901902
1251.3998 0.400400
1411.6605 0.300300


Name: Pygenic acid C b
Synon: $:00in-source
DB#: MetaboBASE0154
InChIKey: NFPZOORPDJBGME-LCRJMXSQSA-N
Spectrum_type: MS2
PrecursorMZ: 487.3435
Instrument_type: LC-ESI-TOF
Instrument: impact HD
Ion_mode: N
Collision_energy: 30
Formula: C30H48O6
MW: 504
ExactMass: 504.34508925599994
Comments: "cas number=254098-65-2" "computed SMILES=O=C(O)C12CCC(C)C(C)C2C3=CCC4C(C)(CCC5C(C)(CO)C(O)C(O)C(O)C45C)C3(C)CC1" "computed InChI=InChI=1S/C30H48O6/c1-16-9-12-30(25(35)36)14-13-27(4)18(21(30)17(16)2)7-8-20-28(27,5)11-10-19-26(3,15-31)23(33)22(32)24(34)29(19,20)6/h7,16-17,19-24,31-34H,8-15H2,1-6H3,(H,35,36)/t16-,17+,19+,20+,21+,22+,23-,24-,26-,27-,28-,29+,30+/m1/s1" "license=License CC-BY-NC-SA 4.0 International" "author=Plant Biology, The Noble Foundation, Ardmore, OK, US/Dennis Fine, Daniel Wherritt, and Lloyd Sumner" "ionization=ESI" "isolation width=5" "collision gas=Nitrogen" "peak width=0.016" "date=2014-07-26 07:19:23+02:00" "column=Waters Acquity BEH C18 1.7um x 2.1 x 150 mm" "retention time=1064.4" "raw data file=C:\Data\Confirmed standards 24_July_2014\MSMS\Pygenic Acid C vial 63_1-B,4_01_493.d" "SPLASH=splash10-000i-0000900000-8e52f9dee2a2218a90d5" "submitter=Aiko Barsch (Bruker)" "MoNA Rating=3.125"
Num Peaks: 6
487.3435 100.000000
488.3460 26.226226
489.3478 1.901902
1268.3607 0.400400
1411.0679 0.300300
1478.6356 0.300300


Name: Pygenic acid C b
Synon: $:00in-source
DB#: MetaboBASE0155
InChIKey: NFPZOORPDJBGME-LCRJMXSQSA-N
Spectrum_type: MS2
PrecursorMZ: 487.3428
Instrument_type: LC-ESI-TOF
Instrument: impact HD
Ion_mode: N
Collision_energy: 50
Formula: C30H48O6
MW: 504
ExactMass: 504.34508925599994
Comments: "cas number=254098-65-2" "computed SMILES=O=C(O)C12CCC(C)C(C)C2C3=CCC4C(C)(CCC5C(C)(CO)C(O)C(O)C(O)C45C)C3(C)CC1" "computed InChI=InChI=1S/C30H48O6/c1-16-9-12-30(25(35)36)14-13-27(4)18(21(30)17(16)2)7-8-20-28(27,5)11-10-19-26(3,15-31)23(33)22(32)24(34)29(19,20)6/h7,16-17,19-24,31-34H,8-15H2,1-6H3,(H,35,36)/t16-,17+,19+,20+,21+,22+,23-,24-,26-,27-,28-,29+,30+/m1/s1" "license=License CC-BY-NC-SA 4.0 International" "author=Plant Biology, The Noble Foundation, Ardmore, OK, US/Dennis Fine, Daniel Wherritt, and Lloyd Sumner" "ionization=ESI" "isolation width=5" "collision gas=Nitrogen" "peak width=0.018" "date=2014-07-26 07:19:23+02:00" "column=Waters Acquity BEH C18 1.7um x 2.1 x 150 mm" "retention time=1064.4" "raw data file=C:\Data\Confirmed standards 24_July_2014\MSMS\Pygenic Acid C vial 63_1-B,4_01_493.d" "SPLASH=splash10-000i-0000900000-eecf4c6e0179c6a4be7c" "submitter=Aiko Barsch (Bruker)" "MoNA Rating=3.125"
Num Peaks: 3
487.3428 100.000000
488.3445 29.129129
489.3466 2.702703


Name: Pygenic acid C b
Synon: $:00in-source
DB#: MetaboBASE0156
InChIKey: NFPZOORPDJBGME-LCRJMXSQSA-N
Instrument_type: LC-ESI-TOF
Instrument: impact HD
Ion_mode: N
Formula: C30H48O6
MW: 504
ExactMass: 504.34508925599994
Comments: "cas number=254098-65-2" "computed SMILES=O=C(O)C12CCC(C)C(C)C2C3=CCC4C(C)(CCC5C(C)(CO)C(O)C(O)C(O)C45C)C3(C)CC1" "computed InChI=InChI=1S/C30H48O6/c1-16-9-12-30(25(35)36)14-13-27(4)18(21(30)17(16)2)7-8-20-28(27,5)11-10-19-26(3,15-31)23(33)22(32)24(34)29(19,20)6/h7,16-17,19-24,31-34H,8-15H2,1-6H3,(H,35,36)/t16-,17+,19+,20+,21+,22+,23-,24-,26-,27-,28-,29+,30+/m1/s1" "license=License CC-BY-NC-SA 4.0 International" "author=Plant Biology, The Noble Foundation, Ardmore, OK, US/Dennis Fine, Daniel Wherritt, and Lloyd Sumner" "ionization=ESI" "collision gas=Nitrogen" "peak width=0.029" "date=2013-09-05 12:16:16+02:00" "column=Waters Acquity BEH C18 1.7um x 2.1 x 150 mm" "retention time=1064.4" "raw data file=D:\Data\Confirmed Standards\Reinjection 2 uL\Pygenic acid C (vial 63).d" "SPLASH=splash10-0udi-1000090000-bcda9da203357275b5dd" "submitter=Aiko Barsch (Bruker)" "MoNA Rating=3.888888888888889"
Num Peaks: 14
503.342 100.000000
504.346 30.930931
505.348 5.005005
549.348 6.006006
550.351 1.901902
571.330 8.908909
572.333 2.602603
639.317 2.402402
707.304 1.201201
1007.690 8.808809
1008.695 5.205205
1009.696 1.701702
1029.671 1.801802
1030.674 1.201201


Name: Pygenic acid C a
Synon: $:00in-source
DB#: MetaboBASE0157
InChIKey: NFPZOORPDJBGME-LCRJMXSQSA-N
Spectrum_type: MS2
PrecursorMZ: 487.3433
Instrument_type: LC-ESI-TOF
Instrument: impact HD
Ion_mode: N
Collision_energy: 10
Formula: C30H48O6
MW: 504
ExactMass: 504.34508925599994
Comments: "cas number=254098-65-2" "computed SMILES=O=C(O)C12CCC(C)C(C)C2C3=CCC4C(C)(CCC5C(C)(CO)C(O)C(O)C(O)C45C)C3(C)CC1" "computed InChI=InChI=1S/C30H48O6/c1-16-9-12-30(25(35)36)14-13-27(4)18(21(30)17(16)2)7-8-20-28(27,5)11-10-19-26(3,15-31)23(33)22(32)24(34)29(19,20)6/h7,16-17,19-24,31-34H,8-15H2,1-6H3,(H,35,36)/t16-,17+,19+,20+,21+,22+,23-,24-,26-,27-,28-,29+,30+/m1/s1" "license=License CC-BY-NC-SA 4.0 International" "author=Plant Biology, The Noble Foundation, Ardmore, OK, US/Dennis Fine, Daniel Wherritt, and Lloyd Sumner" "ionization=ESI" "isolation width=5" "collision gas=Nitrogen" "peak width=0.015" "date=2014-07-26 07:19:23+02:00" "column=Waters Acquity BEH C18 1.7um x 2.1 x 150 mm" "retention time=1049.4" "raw data file=C:\Data\Confirmed standards 24_July_2014\MSMS\Pygenic Acid C vial 63_1-B,4_01_493.d" "SPLASH=splash10-000i-0000900000-9335459bf4bca5382ec0" "submitter=Aiko Barsch (Bruker)" "MoNA Rating=3.125"
Num Peaks: 5
487.3433 100.000000
488.3455 27.227227
489.3510 1.501502
1389.0693 0.400400
1430.0331 0.400400


Name: Pygenic acid C a
Synon: $:00in-source
DB#: MetaboBASE0158
InChIKey: NFPZOORPDJBGME-LCRJMXSQSA-N
Spectrum_type: MS2
PrecursorMZ: 487.3428
Instrument_type: LC-ESI-TOF
Instrument: impact HD
Ion_mode: N
Collision_energy: 50
Formula: C30H48O6
MW: 504
ExactMass: 504.345089256
Comments: "cas number=254098-65-2" "computed SMILES=O=C(O)C12CCC(C)C(C)C2C3=CCC4C(C)(CCC5C(C)(CO)C(O)C(O)C(O)C45C)C3(C)CC1" "computed InChI=InChI=1S/C30H48O6/c1-16-9-12-30(25(35)36)14-13-27(4)18(21(30)17(16)2)7-8-20-28(27,5)11-10-19-26(3,15-31)23(33)22(32)24(34)29(19,20)6/h7,16-17,19-24,31-34H,8-15H2,1-6H3,(H,35,36)/t16-,17+,19+,20+,21+,22+,23-,24-,26-,27-,28-,29+,30+/m1/s1" "license=License CC-BY-NC-SA 4.0 International" "author=Plant Biology, The Noble Foundation, Ardmore, OK, US/Dennis Fine, Daniel Wherritt, and Lloyd Sumner" "ionization=ESI" "isolation width=5" "collision gas=Nitrogen" "peak width=0.018" "date=2014-07-26 07:19:23+02:00" "column=Waters Acquity BEH C18 1.7um x 2.1 x 150 mm" "retention time=1049.4" "raw data file=C:\Data\Confirmed standards 24_July_2014\MSMS\Pygenic Acid C vial 63_1-B,4_01_493.d" "SPLASH=splash10-000i-0000900000-eecf4c6e0179c6a4be7c" "submitter=Aiko Barsch (Bruker)" "MoNA Rating=3.125"
Num Peaks: 3
487.3428 100.000000
488.3445 29.129129
489.3466 2.702703


Name: Pygenic acid C a
Synon: $:00in-source
DB#: MetaboBASE0159
InChIKey: NFPZOORPDJBGME-LCRJMXSQSA-N
Spectrum_type: MS2
PrecursorMZ: 487.3435
Instrument_type: LC-ESI-TOF
Instrument: impact HD
Ion_mode: N
Collision_energy: 30
Formula: C30H48O6
MW: 504
ExactMass: 504.34508925599994
Comments: "cas number=254098-65-2" "computed SMILES=O=C(O)C12CCC(C)C(C)C2C3=CCC4C(C)(CCC5C(C)(CO)C(O)C(O)C(O)C45C)C3(C)CC1" "computed InChI=InChI=1S/C30H48O6/c1-16-9-12-30(25(35)36)14-13-27(4)18(21(30)17(16)2)7-8-20-28(27,5)11-10-19-26(3,15-31)23(33)22(32)24(34)29(19,20)6/h7,16-17,19-24,31-34H,8-15H2,1-6H3,(H,35,36)/t16-,17+,19+,20+,21+,22+,23-,24-,26-,27-,28-,29+,30+/m1/s1" "license=License CC-BY-NC-SA 4.0 International" "author=Plant Biology, The Noble Foundation, Ardmore, OK, US/Dennis Fine, Daniel Wherritt, and Lloyd Sumner" "ionization=ESI" "isolation width=5" "collision gas=Nitrogen" "peak width=0.016" "date=2014-07-26 07:19:23+02:00" "column=Waters Acquity BEH C18 1.7um x 2.1 x 150 mm" "retention time=1049.4" "raw data file=C:\Data\Confirmed standards 24_July_2014\MSMS\Pygenic Acid C vial 63_1-B,4_01_493.d" "SPLASH=splash10-000i-0000900000-8e52f9dee2a2218a90d5" "submitter=Aiko Barsch (Bruker)" "MoNA Rating=3.125"
Num Peaks: 6
487.3435 100.000000
488.3460 26.226226
489.3478 1.901902
1268.3607 0.400400
1411.0679 0.300300
1478.6356 0.300300


Name: Pygenic acid C a
Synon: $:00in-source
DB#: MetaboBASE0160
InChIKey: NFPZOORPDJBGME-LCRJMXSQSA-N
Spectrum_type: MS2
PrecursorMZ: 487.3432
Instrument_type: LC-ESI-TOF
Instrument: impact HD
Ion_mode: N
Collision_energy: 40
Formula: C30H48O6
MW: 504
ExactMass: 504.34508925599994
Comments: "cas number=254098-65-2" "computed SMILES=O=C(O)C12CCC(C)C(C)C2C3=CCC4C(C)(CCC5C(C)(CO)C(O)C(O)C(O)C45C)C3(C)CC1" "computed InChI=InChI=1S/C30H48O6/c1-16-9-12-30(25(35)36)14-13-27(4)18(21(30)17(16)2)7-8-20-28(27,5)11-10-19-26(3,15-31)23(33)22(32)24(34)29(19,20)6/h7,16-17,19-24,31-34H,8-15H2,1-6H3,(H,35,36)/t16-,17+,19+,20+,21+,22+,23-,24-,26-,27-,28-,29+,30+/m1/s1" "license=License CC-BY-NC-SA 4.0 International" "author=Plant Biology, The Noble Foundation, Ardmore, OK, US/Dennis Fine, Daniel Wherritt, and Lloyd Sumner" "ionization=ESI" "isolation width=5" "collision gas=Nitrogen" "peak width=0.016" "date=2014-07-26 07:19:23+02:00" "column=Waters Acquity BEH C18 1.7um x 2.1 x 150 mm" "retention time=1049.4" "raw data file=C:\Data\Confirmed standards 24_July_2014\MSMS\Pygenic Acid C vial 63_1-B,4_01_493.d" "SPLASH=splash10-000i-0000900000-b63ae66f92f1e39d7ef7" "submitter=Aiko Barsch (Bruker)" "MoNA Rating=3.125"
Num Peaks: 3
487.3432 100.000000
488.3453 28.828829
489.3467 2.102102


Name: Pygenic acid C a
Synon: $:00in-source
DB#: MetaboBASE0161
InChIKey: NFPZOORPDJBGME-LCRJMXSQSA-N
Spectrum_type: MS2
PrecursorMZ: 487.343
Instrument_type: LC-ESI-TOF
Instrument: impact HD
Ion_mode: N
Collision_energy: 20
Formula: C30H48O6
MW: 504
ExactMass: 504.345089256
Comments: "cas number=254098-65-2" "computed SMILES=O=C(O)C12CCC(C)C(C)C2C3=CCC4C(C)(CCC5C(C)(CO)C(O)C(O)C(O)C45C)C3(C)CC1" "computed InChI=InChI=1S/C30H48O6/c1-16-9-12-30(25(35)36)14-13-27(4)18(21(30)17(16)2)7-8-20-28(27,5)11-10-19-26(3,15-31)23(33)22(32)24(34)29(19,20)6/h7,16-17,19-24,31-34H,8-15H2,1-6H3,(H,35,36)/t16-,17+,19+,20+,21+,22+,23-,24-,26-,27-,28-,29+,30+/m1/s1" "license=License CC-BY-NC-SA 4.0 International" "author=Plant Biology, The Noble Foundation, Ardmore, OK, US/Dennis Fine, Daniel Wherritt, and Lloyd Sumner" "ionization=ESI" "isolation width=5" "collision gas=Nitrogen" "peak width=0.016" "date=2014-07-26 07:19:23+02:00" "column=Waters Acquity BEH C18 1.7um x 2.1 x 150 mm" "retention time=1049.4" "raw data file=C:\Data\Confirmed standards 24_July_2014\MSMS\Pygenic Acid C vial 63_1-B,4_01_493.d" "SPLASH=splash10-000i-0000900000-2e8a8ff47135944668c4" "submitter=Aiko Barsch (Bruker)" "MoNA Rating=3.125"
Num Peaks: 6
487.3430 100.000000
487.4228 0.400400
488.3455 26.726727
489.3491 1.901902
1251.3998 0.400400
1411.6605 0.300300


Name: Pygenic acid C a
Synon: $:00in-source
DB#: MetaboBASE0162
InChIKey: NFPZOORPDJBGME-LCRJMXSQSA-N
Instrument_type: LC-ESI-TOF
Instrument: impact HD
Ion_mode: N
Formula: C30H48O6
MW: 504
ExactMass: 504.34508925599994
Comments: "cas number=254098-65-2" "computed SMILES=O=C(O)C12CCC(C)C(C)C2C3=CCC4C(C)(CCC5C(C)(CO)C(O)C(O)C(O)C45C)C3(C)CC1" "computed InChI=InChI=1S/C30H48O6/c1-16-9-12-30(25(35)36)14-13-27(4)18(21(30)17(16)2)7-8-20-28(27,5)11-10-19-26(3,15-31)23(33)22(32)24(34)29(19,20)6/h7,16-17,19-24,31-34H,8-15H2,1-6H3,(H,35,36)/t16-,17+,19+,20+,21+,22+,23-,24-,26-,27-,28-,29+,30+/m1/s1" "license=License CC-BY-NC-SA 4.0 International" "author=Plant Biology, The Noble Foundation, Ardmore, OK, US/Dennis Fine, Daniel Wherritt, and Lloyd Sumner" "ionization=ESI" "collision gas=Nitrogen" "peak width=0.024" "date=2013-09-05 12:16:16+02:00" "column=Waters Acquity BEH C18 1.7um x 2.1 x 150 mm" "retention time=1049.4" "raw data file=D:\Data\Confirmed Standards\Reinjection 2 uL\Pygenic acid C (vial 63).d" "SPLASH=splash10-0udi-0000090000-8bf3694114172ebfb2de" "submitter=Aiko Barsch (Bruker)" "MoNA Rating=3.888888888888889"
Num Peaks: 20
112.986 2.402402
146.961 1.101101
174.956 2.402402
242.943 1.001001
248.964 1.201201
503.339 100.000000
504.342 29.029029
505.344 4.604605
549.344 4.604605
550.349 1.501502
571.326 13.013013
572.330 3.703704
639.314 3.803804
640.317 1.301301
707.300 2.702703
708.305 1.301301
775.288 1.501502
843.275 1.001001
1007.687 1.601602
1008.686 1.401401


Name: Pygenic acid B a
Synon: $:00in-source
DB#: MetaboBASE0163
InChIKey: JXSVIVRDWWRQRT-UMCOSQRYSA-N
Precursor_type: [M-H]-
Spectrum_type: MS2
PrecursorMZ: 487.343
Instrument_type: LC-ESI-TOF
Instrument: impact HD
Ion_mode: N
Collision_energy: 10
Formula: C30H48O5
MW: 488
ExactMass: 488.35017463599996
Comments: "cas number=89786-83-4" "SMILES=C[C@@H]1CC[C@@]2(CC[C@@]3(C(=CC[C@H]4[C@]3(CC[C@@H]5[C@@]4(C[C@H]([C@H]([C@]5(C)CO)O)O)C)C)[C@@H]2[C@H]1C)C)C(=O)O" "InChI=InChI=1S/C30H48O5/c1-17-9-12-30(25(34)35)14-13-28(5)19(23(30)18(17)2)7-8-22-26(3)15-20(32)24(33)27(4,16-31)21(26)10-11-29(22,28)6/h7,17-18,20-24,31-33H,8-16H2,1-6H3,(H,34,35)/t17-,18+,20-,21-,22-,23+,24-,26+,27-,28-,29-,30+/m1/s1" "computed SMILES=O=C(O)C12CCC(C)C(C)C2C3=CCC4C5(C)CC(O)C(O)C(C)(CO)C5CCC4(C)C3(C)CC1" "license=License CC-BY-NC-SA 4.0 International" "author=Plant Biology, The Noble Foundation, Ardmore, OK, US/Dennis Fine, Daniel Wherritt, and Lloyd Sumner" "ionization=ESI" "isolation width=5" "collision gas=Nitrogen" "peak width=0.013" "date=2014-07-25 22:27:39+02:00" "column=Waters Acquity BEH C18 1.7um x 2.1 x 150 mm" "retention time=1134" "raw data file=C:\Data\Confirmed standards 24_July_2014\MSMS\Z Lei std 28 May 2014_1-F,8_01_480.d" "computed mass accuracy=0.20799313839559253" "computed mass error=1.0136400004512325E-4" "SPLASH=splash10-000i-0000900000-799911082a85c75bab90" "submitter=Aiko Barsch (Bruker)" "MoNA Rating=4.615384615384616"
Num Peaks: 6
485.3263 0.200200
487.2543 0.100100
487.3430 100.000000
488.3462 26.926927
489.3478 1.901902
490.3475 0.200200


Name: Pygenic acid B a
Synon: $:00in-source
DB#: MetaboBASE0164
InChIKey: JXSVIVRDWWRQRT-UMCOSQRYSA-N
Precursor_type: [M-H]-
Spectrum_type: MS2
PrecursorMZ: 487.3432
Instrument_type: LC-ESI-TOF
Instrument: impact HD
Ion_mode: N
Collision_energy: 30
Formula: C30H48O5
MW: 488
ExactMass: 488.35017463599996
Comments: "cas number=89786-83-4" "SMILES=C[C@@H]1CC[C@@]2(CC[C@@]3(C(=CC[C@H]4[C@]3(CC[C@@H]5[C@@]4(C[C@H]([C@H]([C@]5(C)CO)O)O)C)C)[C@@H]2[C@H]1C)C)C(=O)O" "InChI=InChI=1S/C30H48O5/c1-17-9-12-30(25(34)35)14-13-28(5)19(23(30)18(17)2)7-8-22-26(3)15-20(32)24(33)27(4,16-31)21(26)10-11-29(22,28)6/h7,17-18,20-24,31-33H,8-16H2,1-6H3,(H,34,35)/t17-,18+,20-,21-,22-,23+,24-,26+,27-,28-,29-,30+/m1/s1" "computed SMILES=O=C(O)C12CCC(C)C(C)C2C3=CCC4C5(C)CC(O)C(O)C(C)(CO)C5CCC4(C)C3(C)CC1" "license=License CC-BY-NC-SA 4.0 International" "author=Plant Biology, The Noble Foundation, Ardmore, OK, US/Dennis Fine, Daniel Wherritt, and Lloyd Sumner" "ionization=ESI" "isolation width=5" "collision gas=Nitrogen" "peak width=0.013" "date=2014-07-25 22:27:39+02:00" "column=Waters Acquity BEH C18 1.7um x 2.1 x 150 mm" "retention time=1134" "raw data file=C:\Data\Confirmed standards 24_July_2014\MSMS\Z Lei std 28 May 2014_1-F,8_01_480.d" "computed mass accuracy=0.6183814610561151" "computed mass error=3.0136400005176256E-4" "SPLASH=splash10-000i-0000900000-bcff93a2225c4aa8e90f" "submitter=Aiko Barsch (Bruker)" "MoNA Rating=4.615384615384616"
Num Peaks: 6
485.3241 0.200200
487.2591 0.100100
487.3432 100.000000
488.3456 25.925926
489.3477 1.901902
490.3466 0.200200


Name: Pygenic acid B a
Synon: $:00in-source
DB#: MetaboBASE0165
InChIKey: JXSVIVRDWWRQRT-UMCOSQRYSA-N
Precursor_type: [M-H]-
Spectrum_type: MS2
PrecursorMZ: 487.3427
Instrument_type: LC-ESI-TOF
Instrument: impact HD
Ion_mode: N
Collision_energy: 40
Formula: C30H48O5
MW: 488
ExactMass: 488.35017463599996
Comments: "cas number=89786-83-4" "SMILES=C[C@@H]1CC[C@@]2(CC[C@@]3(C(=CC[C@H]4[C@]3(CC[C@@H]5[C@@]4(C[C@H]([C@H]([C@]5(C)CO)O)O)C)C)[C@@H]2[C@H]1C)C)C(=O)O" "InChI=InChI=1S/C30H48O5/c1-17-9-12-30(25(34)35)14-13-28(5)19(23(30)18(17)2)7-8-22-26(3)15-20(32)24(33)27(4,16-31)21(26)10-11-29(22,28)6/h7,17-18,20-24,31-33H,8-16H2,1-6H3,(H,34,35)/t17-,18+,20-,21-,22-,23+,24-,26+,27-,28-,29-,30+/m1/s1" "computed SMILES=O=C(O)C12CCC(C)C(C)C2C3=CCC4C5(C)CC(O)C(O)C(C)(CO)C5CCC4(C)C3(C)CC1" "license=License CC-BY-NC-SA 4.0 International" "author=Plant Biology, The Noble Foundation, Ardmore, OK, US/Dennis Fine, Daniel Wherritt, and Lloyd Sumner" "ionization=ESI" "isolation width=5" "collision gas=Nitrogen" "peak width=0.014" "date=2014-07-25 22:27:39+02:00" "column=Waters Acquity BEH C18 1.7um x 2.1 x 150 mm" "retention time=1134" "raw data file=C:\Data\Confirmed standards 24_July_2014\MSMS\Z Lei std 28 May 2014_1-F,8_01_480.d" "computed mass accuracy=0.40758997722394824" "computed mass error=-1.9863599999325743E-4" "SPLASH=splash10-000i-0000900000-4c467e27aee45fc75e8f" "submitter=Aiko Barsch (Bruker)" "MoNA Rating=4.615384615384616"
Num Peaks: 8
407.2989 0.100100
485.3280 0.200200
487.2326 0.100100
487.3427 100.000000
487.4464 0.200200
488.3457 27.427427
489.3485 2.102102
490.3503 0.200200


Name: Pygenic acid B a
Synon: $:00in-source
DB#: MetaboBASE0166
InChIKey: JXSVIVRDWWRQRT-UMCOSQRYSA-N
Precursor_type: [M-H]-
Spectrum_type: MS2
PrecursorMZ: 487.3426
Instrument_type: LC-ESI-TOF
Instrument: impact HD
Ion_mode: N
Collision_energy: 50
Formula: C30H48O5
MW: 488
ExactMass: 488.350174636
Comments: "cas number=89786-83-4" "SMILES=C[C@@H]1CC[C@@]2(CC[C@@]3(C(=CC[C@H]4[C@]3(CC[C@@H]5[C@@]4(C[C@H]([C@H]([C@]5(C)CO)O)O)C)C)[C@@H]2[C@H]1C)C)C(=O)O" "InChI=InChI=1S/C30H48O5/c1-17-9-12-30(25(34)35)14-13-28(5)19(23(30)18(17)2)7-8-22-26(3)15-20(32)24(33)27(4,16-31)21(26)10-11-29(22,28)6/h7,17-18,20-24,31-33H,8-16H2,1-6H3,(H,34,35)/t17-,18+,20-,21-,22-,23+,24-,26+,27-,28-,29-,30+/m1/s1" "computed SMILES=O=C(O)C12CCC(C)C(C)C2C3=CCC4C5(C)CC(O)C(O)C(C)(CO)C5CCC4(C)C3(C)CC1" "license=License CC-BY-NC-SA 4.0 International" "author=Plant Biology, The Noble Foundation, Ardmore, OK, US/Dennis Fine, Daniel Wherritt, and Lloyd Sumner" "ionization=ESI" "isolation width=5" "collision gas=Nitrogen" "peak width=0.016" "date=2014-07-25 22:27:39+02:00" "column=Waters Acquity BEH C18 1.7um x 2.1 x 150 mm" "retention time=1134" "raw data file=C:\Data\Confirmed standards 24_July_2014\MSMS\Z Lei std 28 May 2014_1-F,8_01_480.d" "computed mass accuracy=0.6127845175549989" "computed mass error=-2.986360000249988E-4" "SPLASH=splash10-000i-0000900000-78822ccc7688861c3bcc" "submitter=Aiko Barsch (Bruker)" "MoNA Rating=4.615384615384616"
Num Peaks: 6
373.2894 0.300300
407.2943 0.400400
409.3129 0.400400
487.3426 100.000000
488.3452 28.128128
489.3466 2.102102


Name: Pygenic acid B a
Synon: $:00in-source
DB#: MetaboBASE0167
InChIKey: JXSVIVRDWWRQRT-UMCOSQRYSA-N
Precursor_type: [M-H]-
Spectrum_type: MS2
PrecursorMZ: 487.3433
Instrument_type: LC-ESI-TOF
Instrument: impact HD
Ion_mode: N
Collision_energy: 20
Formula: C30H48O5
MW: 488
ExactMass: 488.350174636
Comments: "cas number=89786-83-4" "SMILES=C[C@@H]1CC[C@@]2(CC[C@@]3(C(=CC[C@H]4[C@]3(CC[C@@H]5[C@@]4(C[C@H]([C@H]([C@]5(C)CO)O)O)C)C)[C@@H]2[C@H]1C)C)C(=O)O" "InChI=InChI=1S/C30H48O5/c1-17-9-12-30(25(34)35)14-13-28(5)19(23(30)18(17)2)7-8-22-26(3)15-20(32)24(33)27(4,16-31)21(26)10-11-29(22,28)6/h7,17-18,20-24,31-33H,8-16H2,1-6H3,(H,34,35)/t17-,18+,20-,21-,22-,23+,24-,26+,27-,28-,29-,30+/m1/s1" "computed SMILES=O=C(O)C12CCC(C)C(C)C2C3=CCC4C5(C)CC(O)C(O)C(C)(CO)C5CCC4(C)C3(C)CC1" "license=License CC-BY-NC-SA 4.0 International" "author=Plant Biology, The Noble Foundation, Ardmore, OK, US/Dennis Fine, Daniel Wherritt, and Lloyd Sumner" "ionization=ESI" "isolation width=5" "collision gas=Nitrogen" "peak width=0.013" "date=2014-07-25 22:27:39+02:00" "column=Waters Acquity BEH C18 1.7um x 2.1 x 150 mm" "retention time=1134" "raw data file=C:\Data\Confirmed standards 24_July_2014\MSMS\Z Lei std 28 May 2014_1-F,8_01_480.d" "computed mass accuracy=0.8235754958974856" "computed mass error=4.013639999698171E-4" "SPLASH=splash10-000i-0000900000-de7fc61f2f23a28313b7" "submitter=Aiko Barsch (Bruker)" "MoNA Rating=4.615384615384616"
Num Peaks: 5
485.3276 0.300300
487.3433 100.000000
488.3459 26.126126
489.3476 1.701702
490.3538 0.100100


Name: Pygenic acid B a
Synon: $:00in-source
DB#: MetaboBASE0168
InChIKey: JXSVIVRDWWRQRT-UMCOSQRYSA-N
Instrument_type: LC-ESI-TOF
Instrument: impact HD
Ion_mode: N
Formula: C30H48O5
MW: 488
ExactMass: 488.35017463599996
Comments: "cas number=89786-83-4" "SMILES=C[C@@H]1CC[C@@]2(CC[C@@]3(C(=CC[C@H]4[C@]3(CC[C@@H]5[C@@]4(C[C@H]([C@H]([C@]5(C)CO)O)O)C)C)[C@@H]2[C@H]1C)C)C(=O)O" "InChI=InChI=1S/C30H48O5/c1-17-9-12-30(25(34)35)14-13-28(5)19(23(30)18(17)2)7-8-22-26(3)15-20(32)24(33)27(4,16-31)21(26)10-11-29(22,28)6/h7,17-18,20-24,31-33H,8-16H2,1-6H3,(H,34,35)/t17-,18+,20-,21-,22-,23+,24-,26+,27-,28-,29-,30+/m1/s1" "computed SMILES=O=C(O)C12CCC(C)C(C)C2C3=CCC4C5(C)CC(O)C(O)C(C)(CO)C5CCC4(C)C3(C)CC1" "license=License CC-BY-NC-SA 4.0 International" "author=Plant Biology, The Noble Foundation, Ardmore, OK, US/Dennis Fine, Daniel Wherritt, and Lloyd Sumner" "ionization=ESI" "collision gas=Nitrogen" "peak width=0.029" "date=2013-09-05 11:35:29+02:00" "column=Waters Acquity BEH C18 1.7um x 2.1 x 150 mm" "retention time=1134" "raw data file=D:\Data\Confirmed Standards\Reinjection 2 uL\Pygenic acid B (vial 62).d" "SPLASH=splash10-000i-0000910001-5b9b43aae02f1e95380f" "submitter=Aiko Barsch (Bruker)" "MoNA Rating=3.888888888888889"
Num Peaks: 13
487.342 100.000000
488.346 28.028028
489.348 4.704705
555.329 11.911912
556.333 3.703704
623.316 3.403403
624.321 1.201201
691.302 1.901902
975.690 10.610611
976.694 6.606607
977.697 1.901902
997.671 2.602603
998.676 1.501502


Name: Ursolic acid
Synon: $:00in-source
DB#: MetaboBASE0169
InChIKey: WCGUUGGRBIKTOS-GPOJBZKASA-N
Instrument_type: LC-ESI-TOF
Instrument: impact HD
Ion_mode: N
Formula: C30H48O3
MW: 456
ExactMass: 456.36034539599996
Comments: "cas number=77-52-1" "SMILES=C[C@@H]1CC[C@@]2(CC[C@@]3(C(=CC[C@H]4[C@]3(CC[C@@H]5[C@@]4(CC[C@@H](C5(C)C)O)C)C)[C@@H]2[C@H]1C)C)C(=O)O" "InChI=InChI=1S/C30H48O3/c1-18-10-15-30(25(32)33)17-16-28(6)20(24(30)19(18)2)8-9-22-27(5)13-12-23(31)26(3,4)21(27)11-14-29(22,28)7/h8,18-19,21-24,31H,9-17H2,1-7H3,(H,32,33)/t18-,19+,21+,22-,23+,24+,27+,28-,29-,30+/m1/s1" "computed SMILES=O=C(O)C12CCC(C)C(C)C2C3=CCC4C5(C)CCC(O)C(C)(C)C5CCC4(C)C3(C)CC1" "license=License CC-BY-NC-SA 4.0 International" "author=Plant Biology, The Noble Foundation, Ardmore, OK, US/Dennis Fine, Daniel Wherritt, and Lloyd Sumner" "ionization=ESI" "collision gas=Nitrogen" "peak width=0.028" "date=2013-09-05 13:37:46+02:00" "column=Waters Acquity BEH C18 1.7um x 2.1 x 150 mm" "retention time=1693.8" "raw data file=D:\Data\Confirmed Standards\Reinjection 2 uL\Ursolic acid (vial 65).d" "SPLASH=splash10-0a4i-0000930000-25139768b4507e334b4a" "submitter=Aiko Barsch (Bruker)" "MoNA Rating=3.888888888888889"
Num Peaks: 20
248.973 2.102102
293.179 1.101101
455.354 100.000000
456.357 29.529530
457.360 4.904905
513.313 1.101101
523.341 26.226226
524.344 8.008008
525.347 1.401401
551.341 1.401401
585.311 1.701702
591.328 7.707708
592.332 2.502503
653.298 1.401401
659.316 3.103103
660.318 1.101101
727.302 1.201201
911.713 3.503504
912.717 2.502503
933.695 1.501502


Name: Ursolic acid
Synon: $:00in-source
DB#: MetaboBASE0170
InChIKey: WCGUUGGRBIKTOS-GPOJBZKASA-N
Precursor_type: [M-H]-
Spectrum_type: MS2
PrecursorMZ: 455.3521
Instrument_type: LC-ESI-TOF
Instrument: impact HD
Ion_mode: N
Collision_energy: 30
Formula: C30H48O3
MW: 456
ExactMass: 456.36034539599996
Comments: "cas number=77-52-1" "SMILES=C[C@@H]1CC[C@@]2(CC[C@@]3(C(=CC[C@H]4[C@]3(CC[C@@H]5[C@@]4(CC[C@@H](C5(C)C)O)C)C)[C@@H]2[C@H]1C)C)C(=O)O" "InChI=InChI=1S/C30H48O3/c1-18-10-15-30(25(32)33)17-16-28(6)20(24(30)19(18)2)8-9-22-27(5)13-12-23(31)26(3,4)21(27)11-14-29(22,28)7/h8,18-19,21-24,31H,9-17H2,1-7H3,(H,32,33)/t18-,19+,21+,22-,23+,24+,27+,28-,29-,30+/m1/s1" "computed SMILES=O=C(O)C12CCC(C)C(C)C2C3=CCC4C5(C)CCC(O)C(C)(C)C5CCC4(C)C3(C)CC1" "license=License CC-BY-NC-SA 4.0 International" "author=Plant Biology, The Noble Foundation, Ardmore, OK, US/Dennis Fine, Daniel Wherritt, and Lloyd Sumner" "ionization=ESI" "isolation width=5" "collision gas=Nitrogen" "peak width=0.016" "date=2014-07-26 08:00:18+02:00" "column=Waters Acquity BEH C18 1.7um x 2.1 x 150 mm" "retention time=1693.8" "raw data file=G:\Sumner Lab Data Management Workspace Jun2013\Projects\NSF-JST Metabolomics Nov2011-Sep2014\UPLC-MS-MSMS\Confirmed standards 24_July_2014\Ursolic Acid vial 65_1-B,5_01_494.d" "computed mass accuracy=2.1288932234187303" "computed mass error=-9.693959999594881E-4" "SPLASH=splash10-0a4i-0000900000-3ad5cc2bdb4d3808c5b8" "submitter=Aiko Barsch (Bruker)" "MoNA Rating=4.583333333333334"
Num Peaks: 5
453.3362 2.302302
454.3409 0.900901
455.3521 100.000000
456.3550 28.328328
457.3540 2.202202


Name: Ursolic acid
Synon: $:00in-source
DB#: MetaboBASE0171
InChIKey: WCGUUGGRBIKTOS-GPOJBZKASA-N
Precursor_type: [M-H]-
Spectrum_type: MS2
PrecursorMZ: 455.352
Instrument_type: LC-ESI-TOF
Instrument: impact HD
Ion_mode: N
Collision_energy: 20
Formula: C30H48O3
MW: 456
ExactMass: 456.36034539599996
Comments: "cas number=77-52-1" "SMILES=C[C@@H]1CC[C@@]2(CC[C@@]3(C(=CC[C@H]4[C@]3(CC[C@@H]5[C@@]4(CC[C@@H](C5(C)C)O)C)C)[C@@H]2[C@H]1C)C)C(=O)O" "InChI=InChI=1S/C30H48O3/c1-18-10-15-30(25(32)33)17-16-28(6)20(24(30)19(18)2)8-9-22-27(5)13-12-23(31)26(3,4)21(27)11-14-29(22,28)7/h8,18-19,21-24,31H,9-17H2,1-7H3,(H,32,33)/t18-,19+,21+,22-,23+,24+,27+,28-,29-,30+/m1/s1" "computed SMILES=O=C(O)C12CCC(C)C(C)C2C3=CCC4C5(C)CCC(O)C(C)(C)C5CCC4(C)C3(C)CC1" "license=License CC-BY-NC-SA 4.0 International" "author=Plant Biology, The Noble Foundation, Ardmore, OK, US/Dennis Fine, Daniel Wherritt, and Lloyd Sumner" "ionization=ESI" "isolation width=5" "collision gas=Nitrogen" "peak width=0.016" "date=2014-07-26 08:00:18+02:00" "column=Waters Acquity BEH C18 1.7um x 2.1 x 150 mm" "retention time=1693.8" "raw data file=G:\Sumner Lab Data Management Workspace Jun2013\Projects\NSF-JST Metabolomics Nov2011-Sep2014\UPLC-MS-MSMS\Confirmed standards 24_July_2014\Ursolic Acid vial 65_1-B,5_01_494.d" "computed mass accuracy=2.3485040144574514" "computed mass error=-0.0010693959999912295" "SPLASH=splash10-0a4i-0000900000-63b4335e8110c54aba6e" "submitter=Aiko Barsch (Bruker)" "MoNA Rating=4.583333333333334"
Num Peaks: 5
453.3365 2.002002
454.3382 0.700701
455.3520 100.000000
456.3549 30.030030
457.3571 2.002002


Name: Ursolic acid
Synon: $:00in-source
DB#: MetaboBASE0172
InChIKey: WCGUUGGRBIKTOS-GPOJBZKASA-N
Precursor_type: [M-H]-
Spectrum_type: MS2
PrecursorMZ: 455.3511
Instrument_type: LC-ESI-TOF
Instrument: impact HD
Ion_mode: N
Collision_energy: 50
Formula: C30H48O3
MW: 456
ExactMass: 456.36034539599996
Comments: "cas number=77-52-1" "SMILES=C[C@@H]1CC[C@@]2(CC[C@@]3(C(=CC[C@H]4[C@]3(CC[C@@H]5[C@@]4(CC[C@@H](C5(C)C)O)C)C)[C@@H]2[C@H]1C)C)C(=O)O" "InChI=InChI=1S/C30H48O3/c1-18-10-15-30(25(32)33)17-16-28(6)20(24(30)19(18)2)8-9-22-27(5)13-12-23(31)26(3,4)21(27)11-14-29(22,28)7/h8,18-19,21-24,31H,9-17H2,1-7H3,(H,32,33)/t18-,19+,21+,22-,23+,24+,27+,28-,29-,30+/m1/s1" "computed SMILES=O=C(O)C12CCC(C)C(C)C2C3=CCC4C5(C)CCC(O)C(C)(C)C5CCC4(C)C3(C)CC1" "license=License CC-BY-NC-SA 4.0 International" "author=Plant Biology, The Noble Foundation, Ardmore, OK, US/Dennis Fine, Daniel Wherritt, and Lloyd Sumner" "ionization=ESI" "isolation width=5" "collision gas=Nitrogen" "peak width=0.017" "date=2014-07-26 08:00:18+02:00" "column=Waters Acquity BEH C18 1.7um x 2.1 x 150 mm" "retention time=1693.8" "raw data file=G:\Sumner Lab Data Management Workspace Jun2013\Projects\NSF-JST Metabolomics Nov2011-Sep2014\UPLC-MS-MSMS\Confirmed standards 24_July_2014\Ursolic Acid vial 65_1-B,5_01_494.d" "computed mass accuracy=4.325005473782065" "computed mass error=-0.0019693959999926847" "SPLASH=splash10-0a4i-0000900000-b6287e2cceb1071deab7" "submitter=Aiko Barsch (Bruker)" "MoNA Rating=4.583333333333334"
Num Peaks: 4
407.3279 2.602603
455.3511 100.000000
456.3543 28.828829
457.3557 1.601602


Name: Ursolic acid
Synon: $:00in-source
DB#: MetaboBASE0173
InChIKey: WCGUUGGRBIKTOS-GPOJBZKASA-N
Precursor_type: [M-H]-
Spectrum_type: MS2
PrecursorMZ: 455.3521
Instrument_type: LC-ESI-TOF
Instrument: impact HD
Ion_mode: N
Collision_energy: 10
Formula: C30H48O3
MW: 456
ExactMass: 456.36034539599996
Comments: "cas number=77-52-1" "SMILES=C[C@@H]1CC[C@@]2(CC[C@@]3(C(=CC[C@H]4[C@]3(CC[C@@H]5[C@@]4(CC[C@@H](C5(C)C)O)C)C)[C@@H]2[C@H]1C)C)C(=O)O" "InChI=InChI=1S/C30H48O3/c1-18-10-15-30(25(32)33)17-16-28(6)20(24(30)19(18)2)8-9-22-27(5)13-12-23(31)26(3,4)21(27)11-14-29(22,28)7/h8,18-19,21-24,31H,9-17H2,1-7H3,(H,32,33)/t18-,19+,21+,22-,23+,24+,27+,28-,29-,30+/m1/s1" "computed SMILES=O=C(O)C12CCC(C)C(C)C2C3=CCC4C5(C)CCC(O)C(C)(C)C5CCC4(C)C3(C)CC1" "license=License CC-BY-NC-SA 4.0 International" "author=Plant Biology, The Noble Foundation, Ardmore, OK, US/Dennis Fine, Daniel Wherritt, and Lloyd Sumner" "ionization=ESI" "isolation width=5" "collision gas=Nitrogen" "peak width=0.016" "date=2014-07-26 08:00:18+02:00" "column=Waters Acquity BEH C18 1.7um x 2.1 x 150 mm" "retention time=1693.8" "raw data file=G:\Sumner Lab Data Management Workspace Jun2013\Projects\NSF-JST Metabolomics Nov2011-Sep2014\UPLC-MS-MSMS\Confirmed standards 24_July_2014\Ursolic Acid vial 65_1-B,5_01_494.d" "computed mass accuracy=2.1288932234187303" "computed mass error=-9.693959999594881E-4" "SPLASH=splash10-0a4i-0000900000-27e80ae2f29ac7c2825c" "submitter=Aiko Barsch (Bruker)" "MoNA Rating=4.583333333333334"
Num Peaks: 5
453.3361 1.901902
454.3395 0.700701
455.3521 100.000000
456.3548 28.528529
457.3553 2.002002


Name: Ursolic acid
Synon: $:00in-source
DB#: MetaboBASE0174
InChIKey: WCGUUGGRBIKTOS-GPOJBZKASA-N
Precursor_type: [M-H]-
Spectrum_type: MS2
PrecursorMZ: 455.3522
Instrument_type: LC-ESI-TOF
Instrument: impact HD
Ion_mode: N
Collision_energy: 40
Formula: C30H48O3
MW: 456
ExactMass: 456.36034539599996
Comments: "cas number=77-52-1" "SMILES=C[C@@H]1CC[C@@]2(CC[C@@]3(C(=CC[C@H]4[C@]3(CC[C@@H]5[C@@]4(CC[C@@H](C5(C)C)O)C)C)[C@@H]2[C@H]1C)C)C(=O)O" "InChI=InChI=1S/C30H48O3/c1-18-10-15-30(25(32)33)17-16-28(6)20(24(30)19(18)2)8-9-22-27(5)13-12-23(31)26(3,4)21(27)11-14-29(22,28)7/h8,18-19,21-24,31H,9-17H2,1-7H3,(H,32,33)/t18-,19+,21+,22-,23+,24+,27+,28-,29-,30+/m1/s1" "computed SMILES=O=C(O)C12CCC(C)C(C)C2C3=CCC4C5(C)CCC(O)C(C)(C)C5CCC4(C)C3(C)CC1" "license=License CC-BY-NC-SA 4.0 International" "author=Plant Biology, The Noble Foundation, Ardmore, OK, US/Dennis Fine, Daniel Wherritt, and Lloyd Sumner" "ionization=ESI" "isolation width=5" "collision gas=Nitrogen" "peak width=0.017" "date=2014-07-26 08:00:18+02:00" "column=Waters Acquity BEH C18 1.7um x 2.1 x 150 mm" "retention time=1693.8" "raw data file=G:\Sumner Lab Data Management Workspace Jun2013\Projects\NSF-JST Metabolomics Nov2011-Sep2014\UPLC-MS-MSMS\Confirmed standards 24_July_2014\Ursolic Acid vial 65_1-B,5_01_494.d" "computed mass accuracy=1.909282528962395" "computed mass error=-8.693959999845902E-4" "SPLASH=splash10-0a4i-0000900000-433a030e07383bf9ecbf" "submitter=Aiko Barsch (Bruker)" "MoNA Rating=4.583333333333334"
Num Peaks: 4
453.3351 1.601602
455.3522 100.000000
456.3552 27.427427
457.3541 1.901902


Name: 18-Beta-glycyrrhetinic acid
Synon: $:00in-source
DB#: MetaboBASE0175
InChIKey: MPDGHEJMBKOTSU-YKLVYJNSSA-N
Precursor_type: [M]-
Spectrum_type: MS2
PrecursorMZ: 470.3373
Instrument_type: LC-ESI-TOF
Instrument: impact HD
Ion_mode: N
Collision_energy: 10
Formula: C30H46O4
MW: 470
ExactMass: 470.339609952
Comments: "cas number=471-53-4" "SMILES=C[C@]12CC[C@](C[C@H]1C3=CC(=O)[C@@H]4[C@]5(CC[C@@H](C([C@@H]5CC[C@]4([C@@]3(CC2)C)C)(C)C)O)C)(C)C(=O)O" "InChI=InChI=1S/C30H46O4/c1-25(2)21-8-11-30(7)23(28(21,5)10-9-22(25)32)20(31)16-18-19-17-27(4,24(33)34)13-12-26(19,3)14-15-29(18,30)6/h16,19,21-23,32H,8-15,17H2,1-7H3,(H,33,34)/t19-,21-,22-,23+,26+,27-,28-,29+,30+/m0/s1" "computed SMILES=O=C(O)C1(C)CCC2(C)CCC3(C(=CC(=O)C4C5(C)CCC(O)C(C)(C)C5CCC43C)C2C1)C" "computed InChI=InChI=1S/C30H46O4/c1-25(2)21-8-11-30(7)23(28(21,5)10-9-22(25)32)20(31)16-18-19-17-27(4,24(33)34)13-12-26(19,3)14-15-29(18,30)6/h16,19,21-23,32H,8-15,17H2,1-7H3,(H,33,34)/t19-,21-,22-,23?,26+,27+,28-,29+,30+/m0/s1" "license=License CC-BY-NC-SA 4.0 International" "author=Plant Biology, The Noble Foundation, Ardmore, OK, US/Dennis Fine, Daniel Wherritt, and Lloyd Sumner" "ionization=ESI" "isolation width=5" "collision gas=Nitrogen" "peak width=0.011" "date=2014-08-07 02:53:36+02:00" "column=Waters Acquity BEH C18 1.7um x 2.1 x 150 mm" "retention time=1449" "raw data file=C:\Data\Confirmed standards 24_July_2014\MSMS\Z Lei std 28 May 2014_1-F,8_01_562.d" "computed mass accuracy=3.7449126202140506" "computed mass error=-0.0017613720905274022" "SPLASH=splash10-014i-0000900000-125f02720b2a01ba256e" "submitter=Aiko Barsch (Bruker)" "MoNA Rating=4.583333333333334"
Num Peaks: 4
469.3344 100.000000
470.3373 34.434434
471.3396 4.404404
472.3434 0.500501


Name: 18-Beta-glycyrrhetinic acid
Synon: $:00in-source
DB#: MetaboBASE0176
InChIKey: MPDGHEJMBKOTSU-YKLVYJNSSA-N
Precursor_type: [M]-
Spectrum_type: MS2
PrecursorMZ: 470.3374
Instrument_type: LC-ESI-TOF
Instrument: impact HD
Ion_mode: N
Collision_energy: 20
Formula: C30H46O4
MW: 470
ExactMass: 470.339609952
Comments: "cas number=471-53-4" "SMILES=C[C@]12CC[C@](C[C@H]1C3=CC(=O)[C@@H]4[C@]5(CC[C@@H](C([C@@H]5CC[C@]4([C@@]3(CC2)C)C)(C)C)O)C)(C)C(=O)O" "InChI=InChI=1S/C30H46O4/c1-25(2)21-8-11-30(7)23(28(21,5)10-9-22(25)32)20(31)16-18-19-17-27(4,24(33)34)13-12-26(19,3)14-15-29(18,30)6/h16,19,21-23,32H,8-15,17H2,1-7H3,(H,33,34)/t19-,21-,22-,23+,26+,27-,28-,29+,30+/m0/s1" "computed SMILES=O=C(O)C1(C)CCC2(C)CCC3(C(=CC(=O)C4C5(C)CCC(O)C(C)(C)C5CCC43C)C2C1)C" "computed InChI=InChI=1S/C30H46O4/c1-25(2)21-8-11-30(7)23(28(21,5)10-9-22(25)32)20(31)16-18-19-17-27(4,24(33)34)13-12-26(19,3)14-15-29(18,30)6/h16,19,21-23,32H,8-15,17H2,1-7H3,(H,33,34)/t19-,21-,22-,23?,26+,27+,28-,29+,30+/m0/s1" "license=License CC-BY-NC-SA 4.0 International" "author=Plant Biology, The Noble Foundation, Ardmore, OK, US/Dennis Fine, Daniel Wherritt, and Lloyd Sumner" "ionization=ESI" "isolation width=5" "collision gas=Nitrogen" "peak width=0.011" "date=2014-08-07 02:53:36+02:00" "column=Waters Acquity BEH C18 1.7um x 2.1 x 150 mm" "retention time=1449" "raw data file=C:\Data\Confirmed standards 24_July_2014\MSMS\Z Lei std 28 May 2014_1-F,8_01_562.d" "computed mass accuracy=3.5322984958298114" "computed mass error=-0.0016613720905525042" "SPLASH=splash10-014i-0000900000-6466c540accc2a7ad380" "submitter=Aiko Barsch (Bruker)" "MoNA Rating=4.583333333333334"
Num Peaks: 5
425.3426 0.300300
469.3344 100.000000
470.3374 34.234234
471.3397 4.404404
472.3424 0.600601


Name: 18-Beta-glycyrrhetinic acid
Synon: $:00in-source
DB#: MetaboBASE0177
InChIKey: MPDGHEJMBKOTSU-YKLVYJNSSA-N
Precursor_type: [M]-
Spectrum_type: MS2
PrecursorMZ: 470.3369
Instrument_type: LC-ESI-TOF
Instrument: impact HD
Ion_mode: N
Collision_energy: 50
Formula: C30H46O4
MW: 470
ExactMass: 470.339609952
Comments: "cas number=471-53-4" "SMILES=C[C@]12CC[C@](C[C@H]1C3=CC(=O)[C@@H]4[C@]5(CC[C@@H](C([C@@H]5CC[C@]4([C@@]3(CC2)C)C)(C)C)O)C)(C)C(=O)O" "InChI=InChI=1S/C30H46O4/c1-25(2)21-8-11-30(7)23(28(21,5)10-9-22(25)32)20(31)16-18-19-17-27(4,24(33)34)13-12-26(19,3)14-15-29(18,30)6/h16,19,21-23,32H,8-15,17H2,1-7H3,(H,33,34)/t19-,21-,22-,23+,26+,27-,28-,29+,30+/m0/s1" "computed SMILES=O=C(O)C1(C)CCC2(C)CCC3(C(=CC(=O)C4C5(C)CCC(O)C(C)(C)C5CCC43C)C2C1)C" "computed InChI=InChI=1S/C30H46O4/c1-25(2)21-8-11-30(7)23(28(21,5)10-9-22(25)32)20(31)16-18-19-17-27(4,24(33)34)13-12-26(19,3)14-15-29(18,30)6/h16,19,21-23,32H,8-15,17H2,1-7H3,(H,33,34)/t19-,21-,22-,23?,26+,27+,28-,29+,30+/m0/s1" "license=License CC-BY-NC-SA 4.0 International" "author=Plant Biology, The Noble Foundation, Ardmore, OK, US/Dennis Fine, Daniel Wherritt, and Lloyd Sumner" "ionization=ESI" "isolation width=5" "collision gas=Nitrogen" "peak width=0.015" "date=2014-08-07 02:53:36+02:00" "column=Waters Acquity BEH C18 1.7um x 2.1 x 150 mm" "retention time=1449" "raw data file=C:\Data\Confirmed standards 24_July_2014\MSMS\Z Lei std 28 May 2014_1-F,8_01_562.d" "computed mass accuracy=4.595370022085617" "computed mass error=-0.002161372090540681" "SPLASH=splash10-00or-0000900000-ada4fdd603d1852beae8" "submitter=Aiko Barsch (Bruker)" "MoNA Rating=4.583333333333334"
Num Peaks: 67
325.2154 0.300300
339.2327 0.300300
341.2482 0.300300
353.2478 0.700701
354.2522 0.200200
355.2644 18.718719
356.2678 4.604605
357.2731 0.600601
393.2809 0.500501
394.2825 0.200200
395.2936 0.200200
407.2950 0.300300
409.3110 10.410410
410.3153 2.902903
411.3187 0.500501
423.3258 3.703704
424.3304 1.301301
425.2623 0.100100
425.3438 75.975976
426.3467 26.526527
427.3492 3.603604
428.3516 0.400400
453.3038 0.200200
469.2542 0.200200
469.3341 100.000000
470.3369 37.637638
471.3386 5.205205
472.3405 0.600601
1217.6810 0.200200
1223.2849 0.200200
1237.8197 0.200200
1261.2523 0.200200
1264.6123 0.100100
1272.7783 0.100100
1290.3938 0.100100
1296.7660 0.200200
1297.5873 0.200200
1302.7100 0.200200
1307.5000 0.200200
1333.4899 0.100100
1335.7858 0.100100
1336.4908 0.100100
1348.2832 0.100100
1355.2668 0.100100
1392.1483 0.200200
1400.6490 0.100100
1402.8112 0.100100
1404.4998 0.200200
1411.8367 0.100100
1416.7887 0.100100
1430.3718 0.200200
1440.5417 0.200200
1457.4000 0.100100
1464.2062 0.200200
1465.1168 0.100100
1467.2144 0.100100
1470.9611 0.200200
1478.7018 0.200200
1481.0653 0.100100
1483.9261 0.200200
1488.7318 0.100100
1490.0596 0.200200
1491.4612 0.200200
1491.7894 0.200200
1491.9839 0.200200
1495.3141 0.200200
1501.9802 0.100100


Name: 18-Beta-glycyrrhetinic acid
Synon: $:00in-source
DB#: MetaboBASE0178
InChIKey: MPDGHEJMBKOTSU-YKLVYJNSSA-N
Precursor_type: [M]-
Spectrum_type: MS2
PrecursorMZ: 470.3373
Instrument_type: LC-ESI-TOF
Instrument: impact HD
Ion_mode: N
Collision_energy: 40
Formula: C30H46O4
MW: 470
ExactMass: 470.339609952
Comments: "cas number=471-53-4" "SMILES=C[C@]12CC[C@](C[C@H]1C3=CC(=O)[C@@H]4[C@]5(CC[C@@H](C([C@@H]5CC[C@]4([C@@]3(CC2)C)C)(C)C)O)C)(C)C(=O)O" "InChI=InChI=1S/C30H46O4/c1-25(2)21-8-11-30(7)23(28(21,5)10-9-22(25)32)20(31)16-18-19-17-27(4,24(33)34)13-12-26(19,3)14-15-29(18,30)6/h16,19,21-23,32H,8-15,17H2,1-7H3,(H,33,34)/t19-,21-,22-,23+,26+,27-,28-,29+,30+/m0/s1" "computed SMILES=O=C(O)C1(C)CCC2(C)CCC3(C(=CC(=O)C4C5(C)CCC(O)C(C)(C)C5CCC43C)C2C1)C" "computed InChI=InChI=1S/C30H46O4/c1-25(2)21-8-11-30(7)23(28(21,5)10-9-22(25)32)20(31)16-18-19-17-27(4,24(33)34)13-12-26(19,3)14-15-29(18,30)6/h16,19,21-23,32H,8-15,17H2,1-7H3,(H,33,34)/t19-,21-,22-,23?,26+,27+,28-,29+,30+/m0/s1" "license=License CC-BY-NC-SA 4.0 International" "author=Plant Biology, The Noble Foundation, Ardmore, OK, US/Dennis Fine, Daniel Wherritt, and Lloyd Sumner" "ionization=ESI" "isolation width=5" "collision gas=Nitrogen" "peak width=0.015" "date=2014-08-07 02:53:36+02:00" "column=Waters Acquity BEH C18 1.7um x 2.1 x 150 mm" "retention time=1449" "raw data file=C:\Data\Confirmed standards 24_July_2014\MSMS\Z Lei std 28 May 2014_1-F,8_01_562.d" "computed mass accuracy=3.7449126202140506" "computed mass error=-0.0017613720905274022" "SPLASH=splash10-014i-0000900000-276dcd237f3df1b55bf7" "submitter=Aiko Barsch (Bruker)" "MoNA Rating=4.583333333333334"
Num Peaks: 15
353.2479 0.100100
355.2637 1.601602
356.2672 0.300300
409.3110 0.800801
410.3149 0.200200
423.3264 0.500501
424.3306 0.200200
425.3433 17.117117
426.3463 5.705706
427.3487 0.800801
469.3345 100.000000
469.4413 0.100100
470.3373 34.134134
471.3398 4.804805
472.3427 0.600601


Name: 18-Beta-glycyrrhetinic acid
Synon: $:00in-source
DB#: MetaboBASE0179
InChIKey: MPDGHEJMBKOTSU-YKLVYJNSSA-N
Instrument_type: LC-ESI-TOF
Instrument: impact HD
Ion_mode: N
Formula: C30H46O4
MW: 470
ExactMass: 470.339609952
Comments: "cas number=471-53-4" "SMILES=C[C@]12CC[C@](C[C@H]1C3=CC(=O)[C@@H]4[C@]5(CC[C@@H](C([C@@H]5CC[C@]4([C@@]3(CC2)C)C)(C)C)O)C)(C)C(=O)O" "InChI=InChI=1S/C30H46O4/c1-25(2)21-8-11-30(7)23(28(21,5)10-9-22(25)32)20(31)16-18-19-17-27(4,24(33)34)13-12-26(19,3)14-15-29(18,30)6/h16,19,21-23,32H,8-15,17H2,1-7H3,(H,33,34)/t19-,21-,22-,23+,26+,27-,28-,29+,30+/m0/s1" "computed SMILES=O=C(O)C1(C)CCC2(C)CCC3(C(=CC(=O)C4C5(C)CCC(O)C(C)(C)C5CCC43C)C2C1)C" "computed InChI=InChI=1S/C30H46O4/c1-25(2)21-8-11-30(7)23(28(21,5)10-9-22(25)32)20(31)16-18-19-17-27(4,24(33)34)13-12-26(19,3)14-15-29(18,30)6/h16,19,21-23,32H,8-15,17H2,1-7H3,(H,33,34)/t19-,21-,22-,23?,26+,27+,28-,29+,30+/m0/s1" "license=License CC-BY-NC-SA 4.0 International" "author=Plant Biology, The Noble Foundation, Ardmore, OK, US/Dennis Fine, Daniel Wherritt, and Lloyd Sumner" "ionization=ESI" "collision gas=Nitrogen" "peak width=0.023" "date=2013-09-05 14:59:17+02:00" "column=Waters Acquity BEH C18 1.7um x 2.1 x 150 mm" "retention time=1449" "raw data file=D:\Data\Confirmed Standards\Reinjection 2 uL\Glycyrrhetinic acid, 18 beta- .d" "SPLASH=splash10-014i-0000911000-952bbb171fba142dba69" "submitter=Aiko Barsch (Bruker)" "MoNA Rating=3.888888888888889"
Num Peaks: 20
112.9860 2.702703
151.9987 1.101101
161.0260 1.501502
174.9574 2.302302
242.9454 1.201201
248.9695 2.002002
265.1501 1.701702
469.3347 100.000000
470.3372 31.631632
471.3423 5.905906
537.3219 17.917918
538.3263 6.506507
605.3099 8.308308
606.3137 2.802803
673.2958 4.004004
674.3039 2.302302
741.2803 3.203203
809.2719 2.102102
939.6752 5.405405
940.6757 2.802803


Name: 18-Beta-glycyrrhetinic acid
Synon: $:00in-source
DB#: MetaboBASE0180
InChIKey: MPDGHEJMBKOTSU-YKLVYJNSSA-N
Instrument_type: LC-ESI-TOF
Instrument: impact HD
Ion_mode: N
Collision_energy: 10
Formula: C30H46O4
MW: 470
ExactMass: 470.339609952
Comments: "cas number=471-53-4" "SMILES=C[C@]12CC[C@](C[C@H]1C3=CC(=O)[C@@H]4[C@]5(CC[C@@H](C([C@@H]5CC[C@]4([C@@]3(CC2)C)C)(C)C)O)C)(C)C(=O)O" "InChI=InChI=1S/C30H46O4/c1-25(2)21-8-11-30(7)23(28(21,5)10-9-22(25)32)20(31)16-18-19-17-27(4,24(33)34)13-12-26(19,3)14-15-29(18,30)6/h16,19,21-23,32H,8-15,17H2,1-7H3,(H,33,34)/t19-,21-,22-,23+,26+,27-,28-,29+,30+/m0/s1" "computed SMILES=O=C(O)C1(C)CCC2(C)CCC3(C(=CC(=O)C4C5(C)CCC(O)C(C)(C)C5CCC43C)C2C1)C" "computed InChI=InChI=1S/C30H46O4/c1-25(2)21-8-11-30(7)23(28(21,5)10-9-22(25)32)20(31)16-18-19-17-27(4,24(33)34)13-12-26(19,3)14-15-29(18,30)6/h16,19,21-23,32H,8-15,17H2,1-7H3,(H,33,34)/t19-,21-,22-,23?,26+,27+,28-,29+,30+/m0/s1" "license=License CC-BY-NC-SA 4.0 International" "author=Plant Biology, The Noble Foundation, Ardmore, OK, US/Dennis Fine, Daniel Wherritt, and Lloyd Sumner" "ionization=ESI" "collision gas=Nitrogen" "peak width=0.017" "date=2013-11-12 19:07:40+01:00" "column=Waters Acquity BEH C18 1.7um x 2.1 x 150 mm" "retention time=1449" "raw data file=C:\Data\Confirmed Standards\Confirmed std 11Nov13\ZLei_Std_Mix_30_Oct_13_1966.d" "SPLASH=splash10-014u-0000700009-50048523dd30a3c69126" "submitter=Aiko Barsch (Bruker)" "MoNA Rating=4.444444444444445"
Num Peaks: 14
469.3332 100.000000
470.3365 26.426426
471.3395 3.703704
537.3201 1.801802
939.6750 85.085085
940.6785 52.952953
941.6818 15.915916
942.6852 2.902903
961.6588 2.002002
962.6625 1.201201
1410.0203 1.301301
1411.0253 1.301301
1432.0042 1.101101
1433.0084 1.101101


Name: 18-Beta-glycyrrhetinic acid
Synon: $:00in-source
DB#: MetaboBASE0181
InChIKey: MPDGHEJMBKOTSU-YKLVYJNSSA-N
Precursor_type: [M]-
Spectrum_type: MS2
PrecursorMZ: 470.3375
Instrument_type: LC-ESI-TOF
Instrument: impact HD
Ion_mode: N
Collision_energy: 30
Formula: C30H46O4
MW: 470
ExactMass: 470.339609952
Comments: "cas number=471-53-4" "SMILES=C[C@]12CC[C@](C[C@H]1C3=CC(=O)[C@@H]4[C@]5(CC[C@@H](C([C@@H]5CC[C@]4([C@@]3(CC2)C)C)(C)C)O)C)(C)C(=O)O" "InChI=InChI=1S/C30H46O4/c1-25(2)21-8-11-30(7)23(28(21,5)10-9-22(25)32)20(31)16-18-19-17-27(4,24(33)34)13-12-26(19,3)14-15-29(18,30)6/h16,19,21-23,32H,8-15,17H2,1-7H3,(H,33,34)/t19-,21-,22-,23+,26+,27-,28-,29+,30+/m0/s1" "computed SMILES=O=C(O)C1(C)CCC2(C)CCC3(C(=CC(=O)C4C5(C)CCC(O)C(C)(C)C5CCC43C)C2C1)C" "computed InChI=InChI=1S/C30H46O4/c1-25(2)21-8-11-30(7)23(28(21,5)10-9-22(25)32)20(31)16-18-19-17-27(4,24(33)34)13-12-26(19,3)14-15-29(18,30)6/h16,19,21-23,32H,8-15,17H2,1-7H3,(H,33,34)/t19-,21-,22-,23?,26+,27+,28-,29+,30+/m0/s1" "license=License CC-BY-NC-SA 4.0 International" "author=Plant Biology, The Noble Foundation, Ardmore, OK, US/Dennis Fine, Daniel Wherritt, and Lloyd Sumner" "ionization=ESI" "isolation width=5" "collision gas=Nitrogen" "peak width=0.011" "date=2014-08-07 02:53:36+02:00" "column=Waters Acquity BEH C18 1.7um x 2.1 x 150 mm" "retention time=1449" "raw data file=C:\Data\Confirmed standards 24_July_2014\MSMS\Z Lei std 28 May 2014_1-F,8_01_562.d" "computed mass accuracy=3.3196844618547456" "computed mass error=-0.0015613720905776063" "SPLASH=splash10-014i-0000900000-c50958d1a751bbfbca79" "submitter=Aiko Barsch (Bruker)" "MoNA Rating=4.583333333333334"
Num Peaks: 8
355.2643 0.100100
409.3109 0.100100
425.3429 2.202202
426.3465 0.600601
469.3345 100.000000
470.3375 33.533534
471.3391 4.304304
472.3413 0.400400


Name: Diosmetin
Synon: $:00in-source
DB#: MetaboBASE0182
InChIKey: MBNGWHIJMBWFHU-UHFFFAOYSA-N
Precursor_type: [M-H]-
Spectrum_type: MS2
PrecursorMZ: 299.058
Instrument_type: LC-ESI-TOF
Instrument: impact HD
Ion_mode: N
Collision_energy: 20
Formula: C16H12O6
MW: 300
ExactMass: 300.06338810399996
Comments: "cas number=520-34-3" "SMILES=COc1ccc(cc1O)c2cc(=O)c3c(cc(cc3o2)O)O" "InChI=InChI=1S/C16H12O6/c1-21-13-3-2-8(4-10(13)18)14-7-12(20)16-11(19)5-9(17)6-15(16)22-14/h2-7,17-19H,1H3" "computed SMILES=O=C1C=C(OC=2C=C(O)C=C(O)C12)C=3C=CC(OC)=C(O)C3" "license=License CC-BY-NC-SA 4.0 International" "author=Plant Biology, The Noble Foundation, Ardmore, OK, US/Dennis Fine, Daniel Wherritt, and Lloyd Sumner" "ionization=ESI" "isolation width=5" "collision gas=Nitrogen" "peak width=0.012" "date=2013-11-16 07:14:37+01:00" "column=Waters Acquity BEH C18 1.7um x 2.1 x 150 mm" "retention time=634.2" "raw data file=C:\Data\Confirmed Standards\Confirmed stds MSMS 14Nov13\Diosmetin MSMS (vial 58).d" "computed mass accuracy=6.3128088866638645" "computed mass error=0.0018878960000279221" "SPLASH=splash10-001i-0090000000-675379707ad9e98244a9" "submitter=Aiko Barsch (Bruker)" "MoNA Rating=4.545454545454546"
Num Peaks: 4
284.0347 100.000000
285.0374 12.912913
299.0580 30.030030
300.0611 3.403403


Name: Diosmetin
Synon: $:00in-source
DB#: MetaboBASE0183
InChIKey: MBNGWHIJMBWFHU-UHFFFAOYSA-N
Instrument_type: LC-ESI-TOF
Instrument: impact HD
Ion_mode: N
Collision_energy: 10
Formula: C16H12O6
MW: 300
ExactMass: 300.06338810399996
Comments: "cas number=520-34-3" "SMILES=COc1ccc(cc1O)c2cc(=O)c3c(cc(cc3o2)O)O" "InChI=InChI=1S/C16H12O6/c1-21-13-3-2-8(4-10(13)18)14-7-12(20)16-11(19)5-9(17)6-15(16)22-14/h2-7,17-19H,1H3" "computed SMILES=O=C1C=C(OC=2C=C(O)C=C(O)C12)C=3C=CC(OC)=C(O)C3" "license=License CC-BY-NC-SA 4.0 International" "author=Plant Biology, The Noble Foundation, Ardmore, OK, US/Dennis Fine, Daniel Wherritt, and Lloyd Sumner" "ionization=ESI" "collision gas=Nitrogen" "peak width=0.021" "date=2013-09-05 08:52:28+02:00" "column=Waters Acquity BEH C18 1.7um x 2.1 x 150 mm" "retention time=634.2" "raw data file=D:\Data\Confirmed Standards\Reinjection 2 uL\Diosmetin (vial 58).d" "SPLASH=splash10-0002-0091000000-188fb9f96e76251ce539" "submitter=Aiko Barsch (Bruker)" "MoNA Rating=4.444444444444445"
Num Peaks: 5
284.0321 16.516517
285.0355 2.302302
299.0560 100.000000
300.0593 16.616617
301.0610 2.102102


Name: Diosmetin
Synon: $:00in-source
DB#: MetaboBASE0184
InChIKey: MBNGWHIJMBWFHU-UHFFFAOYSA-N
Precursor_type: [M-H]-
Spectrum_type: MS2
PrecursorMZ: 299.1
Instrument_type: LC-ESI-TOF
Instrument: impact HD
Ion_mode: N
Collision_energy: 50
Formula: C16H12O6
MW: 300
ExactMass: 300.06338810399996
Comments: "cas number=520-34-3" "SMILES=COc1ccc(cc1O)c2cc(=O)c3c(cc(cc3o2)O)O" "InChI=InChI=1S/C16H12O6/c1-21-13-3-2-8(4-10(13)18)14-7-12(20)16-11(19)5-9(17)6-15(16)22-14/h2-7,17-19H,1H3" "computed SMILES=O=C1C=C(OC=2C=C(O)C=C(O)C12)C=3C=CC(OC)=C(O)C3" "license=License CC-BY-NC-SA 4.0 International" "author=Plant Biology, The Noble Foundation, Ardmore, OK, US/Dennis Fine, Daniel Wherritt, and Lloyd Sumner" "ionization=ESI" "isolation width=5" "collision gas=Nitrogen" "peak width=0.017" "date=2013-11-16 07:14:37+01:00" "column=Waters Acquity BEH C18 1.7um x 2.1 x 150 mm" "retention time=634.2" "raw data file=C:\Data\Confirmed Standards\Confirmed stds MSMS 14Nov13\Diosmetin MSMS (vial 58).d" "computed mass accuracy=146.7331862255364" "computed mass error=0.043887896000057935" "SPLASH=splash10-057i-0490000000-9c04ed66f8f3ed9e2ed8" "submitter=Aiko Barsch (Bruker)" "MoNA Rating=4.545454545454546"
Num Peaks: 11
107.0144 36.536537
133.0296 37.837838
151.0047 35.335335
199.0425 18.518519
211.0403 25.225225
227.0364 100.000000
228.0411 19.119119
239.0360 16.116116
255.0317 49.249249
256.0385 25.025025
284.0352 40.440440


Name: Diosmetin
Synon: $:00in-source
DB#: MetaboBASE0185
InChIKey: MBNGWHIJMBWFHU-UHFFFAOYSA-N
Precursor_type: [M-H]-
Spectrum_type: MS2
PrecursorMZ: 299.1
Instrument_type: LC-ESI-TOF
Instrument: impact HD
Ion_mode: N
Collision_energy: 40
Formula: C16H12O6
MW: 300
ExactMass: 300.06338810399996
Comments: "cas number=520-34-3" "SMILES=COc1ccc(cc1O)c2cc(=O)c3c(cc(cc3o2)O)O" "InChI=InChI=1S/C16H12O6/c1-21-13-3-2-8(4-10(13)18)14-7-12(20)16-11(19)5-9(17)6-15(16)22-14/h2-7,17-19H,1H3" "computed SMILES=O=C1C=C(OC=2C=C(O)C=C(O)C12)C=3C=CC(OC)=C(O)C3" "license=License CC-BY-NC-SA 4.0 International" "author=Plant Biology, The Noble Foundation, Ardmore, OK, US/Dennis Fine, Daniel Wherritt, and Lloyd Sumner" "ionization=ESI" "isolation width=5" "collision gas=Nitrogen" "peak width=0.017" "date=2013-11-16 07:14:37+01:00" "column=Waters Acquity BEH C18 1.7um x 2.1 x 150 mm" "retention time=634.2" "raw data file=C:\Data\Confirmed Standards\Confirmed stds MSMS 14Nov13\Diosmetin MSMS (vial 58).d" "computed mass accuracy=146.7331862255364" "computed mass error=0.043887896000057935" "SPLASH=splash10-001i-0190000000-77edda567cd76512c52d" "submitter=Aiko Barsch (Bruker)" "MoNA Rating=4.545454545454546"
Num Peaks: 21
107.0148 3.603604
123.0073 3.603604
132.0231 4.604605
133.0305 5.705706
134.0377 3.403403
150.0007 3.203203
151.0051 15.515516
188.0483 2.802803
200.0477 4.104104
211.0424 6.306306
227.0362 27.027027
228.0426 9.509510
239.0359 5.605606
240.0413 2.302302
255.0315 15.415415
256.0392 33.433433
257.0439 5.605606
283.0248 7.707708
284.0347 100.000000
285.0388 14.814815
286.0392 3.303303


Name: Corosolic acid
Synon: $:00in-source
DB#: MetaboBASE0186
InChIKey: HFGSQOYIOKBQOW-ZSDYHTTISA-N
Precursor_type: [M-H]-
Spectrum_type: MS2
PrecursorMZ: 471.3528
Instrument_type: LC-ESI-TOF
Instrument: impact HD
Ion_mode: N
Collision_energy: 20
Formula: C30H48O4
MW: 472
ExactMass: 472.355260016
Comments: "cas number=4547-24-4" "SMILES=C[C@@H]1CC[C@@]2(CC[C@@]3(C(=CC[C@H]4[C@]3(CC[C@@H]5[C@@]4(C[C@H]([C@@H](C5(C)C)O)O)C)C)[C@@H]2[C@H]1C)C)C(=O)O" "InChI=InChI=1S/C30H48O4/c1-17-10-13-30(25(33)34)15-14-28(6)19(23(30)18(17)2)8-9-22-27(5)16-20(31)24(32)26(3,4)21(27)11-12-29(22,28)7/h8,17-18,20-24,31-32H,9-16H2,1-7H3,(H,33,34)/t17-,18+,20-,21+,22-,23+,24+,27+,28-,29-,30+/m1/s1" "computed SMILES=O=C(O)C12CCC(C)C(C)C2C3=CCC4C5(C)CC(O)C(O)C(C)(C)C5CCC4(C)C3(C)CC1" "license=License CC-BY-NC-SA 4.0 International" "author=Plant Biology, The Noble Foundation, Ardmore, OK, US/Dennis Fine, Daniel Wherritt, and Lloyd Sumner" "ionization=ESI" "isolation width=5" "collision gas=Nitrogen" "peak width=0.013" "date=2014-07-26 05:16:40+02:00" "column=Waters Acquity BEH C18 1.7um x 2.1 x 150 mm" "retention time=1407" "raw data file=C:\Data\Confirmed standards 24_July_2014\MSMS\Corosolic acid vial 60_1-B,1_01_490.d" "computed mass accuracy=10.217365845718826" "computed mass error=0.004815984000003937" "SPLASH=splash10-00di-0000900000-8e55a8f6445a21d25155" "submitter=Aiko Barsch (Bruker)" "MoNA Rating=4.545454545454546"
Num Peaks: 4
471.3528 100.000000
472.3553 25.225225
473.3589 1.801802
474.3580 0.100100


Name: Corosolic acid
Synon: $:00in-source
DB#: MetaboBASE0187
InChIKey: HFGSQOYIOKBQOW-ZSDYHTTISA-N
Precursor_type: [M-H]-
Spectrum_type: MS2
PrecursorMZ: 471.3524
Instrument_type: LC-ESI-TOF
Instrument: impact HD
Ion_mode: N
Collision_energy: 10
Formula: C30H48O4
MW: 472
ExactMass: 472.355260016
Comments: "cas number=4547-24-4" "SMILES=C[C@@H]1CC[C@@]2(CC[C@@]3(C(=CC[C@H]4[C@]3(CC[C@@H]5[C@@]4(C[C@H]([C@@H](C5(C)C)O)O)C)C)[C@@H]2[C@H]1C)C)C(=O)O" "InChI=InChI=1S/C30H48O4/c1-17-10-13-30(25(33)34)15-14-28(6)19(23(30)18(17)2)8-9-22-27(5)16-20(31)24(32)26(3,4)21(27)11-12-29(22,28)7/h8,17-18,20-24,31-32H,9-16H2,1-7H3,(H,33,34)/t17-,18+,20-,21+,22-,23+,24+,27+,28-,29-,30+/m1/s1" "computed SMILES=O=C(O)C12CCC(C)C(C)C2C3=CCC4C5(C)CC(O)C(O)C(C)(C)C5CCC4(C)C3(C)CC1" "license=License CC-BY-NC-SA 4.0 International" "author=Plant Biology, The Noble Foundation, Ardmore, OK, US/Dennis Fine, Daniel Wherritt, and Lloyd Sumner" "ionization=ESI" "isolation width=5" "collision gas=Nitrogen" "peak width=0.013" "date=2014-07-26 05:16:40+02:00" "column=Waters Acquity BEH C18 1.7um x 2.1 x 150 mm" "retention time=1407" "raw data file=C:\Data\Confirmed standards 24_July_2014\MSMS\Corosolic acid vial 60_1-B,1_01_490.d" "computed mass accuracy=9.368752551149964" "computed mass error=0.004415983999990658" "SPLASH=splash10-00di-0000900000-e570b14aa4aa43281f38" "submitter=Aiko Barsch (Bruker)" "MoNA Rating=4.545454545454546"
Num Peaks: 5
471.3524 100.000000
471.4522 0.200200
472.3553 26.526527
473.3567 1.901902
474.3593 0.200200


Name: Corosolic acid
Synon: $:00in-source
DB#: MetaboBASE0188
InChIKey: HFGSQOYIOKBQOW-ZSDYHTTISA-N
Precursor_type: [M-H]-
Spectrum_type: MS2
PrecursorMZ: 471.3524
Instrument_type: LC-ESI-TOF
Instrument: impact HD
Ion_mode: N
Collision_energy: 40
Formula: C30H48O4
MW: 472
ExactMass: 472.355260016
Comments: "cas number=4547-24-4" "SMILES=C[C@@H]1CC[C@@]2(CC[C@@]3(C(=CC[C@H]4[C@]3(CC[C@@H]5[C@@]4(C[C@H]([C@@H](C5(C)C)O)O)C)C)[C@@H]2[C@H]1C)C)C(=O)O" "InChI=InChI=1S/C30H48O4/c1-17-10-13-30(25(33)34)15-14-28(6)19(23(30)18(17)2)8-9-22-27(5)16-20(31)24(32)26(3,4)21(27)11-12-29(22,28)7/h8,17-18,20-24,31-32H,9-16H2,1-7H3,(H,33,34)/t17-,18+,20-,21+,22-,23+,24+,27+,28-,29-,30+/m1/s1" "computed SMILES=O=C(O)C12CCC(C)C(C)C2C3=CCC4C5(C)CC(O)C(O)C(C)(C)C5CCC4(C)C3(C)CC1" "license=License CC-BY-NC-SA 4.0 International" "author=Plant Biology, The Noble Foundation, Ardmore, OK, US/Dennis Fine, Daniel Wherritt, and Lloyd Sumner" "ionization=ESI" "isolation width=5" "collision gas=Nitrogen" "peak width=0.014" "date=2014-07-26 05:16:40+02:00" "column=Waters Acquity BEH C18 1.7um x 2.1 x 150 mm" "retention time=1407" "raw data file=C:\Data\Confirmed standards 24_July_2014\MSMS\Corosolic acid vial 60_1-B,1_01_490.d" "computed mass accuracy=9.368752551149964" "computed mass error=0.004415983999990658" "SPLASH=splash10-00di-0000900000-151c3f0e61b7d1b62e83" "submitter=Aiko Barsch (Bruker)" "MoNA Rating=4.545454545454546"
Num Peaks: 11
393.3175 0.100100
423.3274 0.500501
471.3524 100.000000
472.3553 27.227227
473.3557 2.002002
474.3602 0.100100
1334.0836 0.100100
1344.5989 0.100100
1421.5358 0.100100
1427.1874 0.100100
1430.2495 0.100100


Name: Corosolic acid
Synon: $:00in-source
DB#: MetaboBASE0189
InChIKey: HFGSQOYIOKBQOW-ZSDYHTTISA-N
Instrument_type: LC-ESI-TOF
Instrument: impact HD
Ion_mode: N
Collision_energy: 10
Formula: C30H48O4
MW: 472
ExactMass: 472.355260016
Comments: "cas number=4547-24-4" "SMILES=C[C@@H]1CC[C@@]2(CC[C@@]3(C(=CC[C@H]4[C@]3(CC[C@@H]5[C@@]4(C[C@H]([C@@H](C5(C)C)O)O)C)C)[C@@H]2[C@H]1C)C)C(=O)O" "InChI=InChI=1S/C30H48O4/c1-17-10-13-30(25(33)34)15-14-28(6)19(23(30)18(17)2)8-9-22-27(5)16-20(31)24(32)26(3,4)21(27)11-12-29(22,28)7/h8,17-18,20-24,31-32H,9-16H2,1-7H3,(H,33,34)/t17-,18+,20-,21+,22-,23+,24+,27+,28-,29-,30+/m1/s1" "computed SMILES=O=C(O)C12CCC(C)C(C)C2C3=CCC4C5(C)CC(O)C(O)C(C)(C)C5CCC4(C)C3(C)CC1" "license=License CC-BY-NC-SA 4.0 International" "author=Plant Biology, The Noble Foundation, Ardmore, OK, US/Dennis Fine, Daniel Wherritt, and Lloyd Sumner" "ionization=ESI" "collision gas=Nitrogen" "peak width=0.024" "date=2013-09-05 10:13:58+02:00" "column=Waters Acquity BEH C18 1.7um x 2.1 x 150 mm" "retention time=1407" "raw data file=C:\Data\Confirmed Standards\Reinjection 2 uL\Corosolic acid   (vial 60).d" "SPLASH=splash10-00di-0000900001-1a07defbf0bf868504d8" "submitter=Aiko Barsch (Bruker)" "MoNA Rating=4.444444444444445"
Num Peaks: 12
297.243 1.401401
471.349 100.000000
472.352 31.031031
473.354 4.804805
539.336 9.309309
540.340 2.802803
607.323 1.201201
943.704 13.813814
944.706 8.808809
945.707 2.302302
965.685 2.202202
966.692 1.601602


Name: Corosolic acid
Synon: $:00in-source
DB#: MetaboBASE0190
InChIKey: HFGSQOYIOKBQOW-ZSDYHTTISA-N
Precursor_type: [M-H]-
Spectrum_type: MS2
PrecursorMZ: 471.3514
Instrument_type: LC-ESI-TOF
Instrument: impact HD
Ion_mode: N
Collision_energy: 50
Formula: C30H48O4
MW: 472
ExactMass: 472.355260016
Comments: "cas number=4547-24-4" "SMILES=C[C@@H]1CC[C@@]2(CC[C@@]3(C(=CC[C@H]4[C@]3(CC[C@@H]5[C@@]4(C[C@H]([C@@H](C5(C)C)O)O)C)C)[C@@H]2[C@H]1C)C)C(=O)O" "InChI=InChI=1S/C30H48O4/c1-17-10-13-30(25(33)34)15-14-28(6)19(23(30)18(17)2)8-9-22-27(5)16-20(31)24(32)26(3,4)21(27)11-12-29(22,28)7/h8,17-18,20-24,31-32H,9-16H2,1-7H3,(H,33,34)/t17-,18+,20-,21+,22-,23+,24+,27+,28-,29-,30+/m1/s1" "computed SMILES=O=C(O)C12CCC(C)C(C)C2C3=CCC4C5(C)CC(O)C(O)C(C)(C)C5CCC4(C)C3(C)CC1" "license=License CC-BY-NC-SA 4.0 International" "author=Plant Biology, The Noble Foundation, Ardmore, OK, US/Dennis Fine, Daniel Wherritt, and Lloyd Sumner" "ionization=ESI" "isolation width=5" "collision gas=Nitrogen" "peak width=0.016" "date=2014-07-26 05:16:40+02:00" "column=Waters Acquity BEH C18 1.7um x 2.1 x 150 mm" "retention time=1407" "raw data file=C:\Data\Confirmed standards 24_July_2014\MSMS\Corosolic acid vial 60_1-B,1_01_490.d" "computed mass accuracy=7.2472130135060695" "computed mass error=0.003415984000014305" "SPLASH=splash10-00di-0000900000-1c605655d304a7330562" "submitter=Aiko Barsch (Bruker)" "MoNA Rating=4.545454545454546"
Num Peaks: 7
393.3159 1.101101
405.3177 0.400400
423.3304 1.501502
424.3335 0.400400
471.3514 100.000000
472.3543 28.828829
473.3566 1.901902


Name: Corosolic acid
Synon: $:00in-source
DB#: MetaboBASE0191
InChIKey: HFGSQOYIOKBQOW-ZSDYHTTISA-N
Precursor_type: [M-H]-
Spectrum_type: MS2
PrecursorMZ: 471.3525
Instrument_type: LC-ESI-TOF
Instrument: impact HD
Ion_mode: N
Collision_energy: 30
Formula: C30H48O4
MW: 472
ExactMass: 472.355260016
Comments: "cas number=4547-24-4" "SMILES=C[C@@H]1CC[C@@]2(CC[C@@]3(C(=CC[C@H]4[C@]3(CC[C@@H]5[C@@]4(C[C@H]([C@@H](C5(C)C)O)O)C)C)[C@@H]2[C@H]1C)C)C(=O)O" "InChI=InChI=1S/C30H48O4/c1-17-10-13-30(25(33)34)15-14-28(6)19(23(30)18(17)2)8-9-22-27(5)16-20(31)24(32)26(3,4)21(27)11-12-29(22,28)7/h8,17-18,20-24,31-32H,9-16H2,1-7H3,(H,33,34)/t17-,18+,20-,21+,22-,23+,24+,27+,28-,29-,30+/m1/s1" "computed SMILES=O=C(O)C12CCC(C)C(C)C2C3=CCC4C5(C)CC(O)C(O)C(C)(C)C5CCC4(C)C3(C)CC1" "license=License CC-BY-NC-SA 4.0 International" "author=Plant Biology, The Noble Foundation, Ardmore, OK, US/Dennis Fine, Daniel Wherritt, and Lloyd Sumner" "ionization=ESI" "isolation width=5" "collision gas=Nitrogen" "peak width=0.013" "date=2014-07-26 05:16:40+02:00" "column=Waters Acquity BEH C18 1.7um x 2.1 x 150 mm" "retention time=1407" "raw data file=C:\Data\Confirmed standards 24_July_2014\MSMS\Corosolic acid vial 60_1-B,1_01_490.d" "computed mass accuracy=9.580906009880925" "computed mass error=0.004515984000022399" "SPLASH=splash10-00di-0000900000-996c8326bfd2bc120b37" "submitter=Aiko Barsch (Bruker)" "MoNA Rating=4.545454545454546"
Num Peaks: 6
469.3350 0.100100
471.3525 100.000000
471.4607 0.200200
472.3556 27.127127
473.3566 2.002002
474.3575 0.100100


Name: Pygenic acid A b
Synon: $:00in-source
DB#: MetaboBASE0192
InChIKey: HFGSQOYIOKBQOW-RFMFWNHYSA-N
Precursor_type: [M-H]-
Spectrum_type: MS2
PrecursorMZ: 471.3475
Instrument_type: LC-ESI-TOF
Instrument: impact HD
Ion_mode: N
Collision_energy: 20
Formula: C30H48O4
MW: 472
ExactMass: 472.355260016
Comments: "cas number=52213-27-1" "SMILES=C[C@H]1[C@@H]([C@@H]2[C@@](CC[C@@]3(C2=CC[C@H]4[C@]3(CC[C@@H]5[C@@]4(C[C@H]([C@H]([C@]5(C)C)O)O)C)C)C)(CC1)C(=O)O)C" "InChI=InChI=1S/C30H48O4/c1-17-10-13-30(25(33)34)15-14-28(6)19(23(30)18(17)2)8-9-22-27(5)16-20(31)24(32)26(3,4)21(27)11-12-29(22,28)7/h8,17-18,20-24,31-32H,9-16H2,1-7H3,(H,33,34)/t17-,18+,20-,21+,22-,23+,24-,27+,28-,29-,30+/m1/s1" "computed SMILES=O=C(O)C12CCC(C)C(C)C2C3=CCC4C5(C)CC(O)C(O)C(C)(C)C5CCC4(C)C3(C)CC1" "license=License CC-BY-NC-SA 4.0 International" "author=Plant Biology, The Noble Foundation, Ardmore, OK, US/Dennis Fine, Daniel Wherritt, and Lloyd Sumner" "ionization=ESI" "isolation width=5" "collision gas=Nitrogen" "peak width=0.015" "date=2014-07-26 05:57:36+02:00" "column=Waters Acquity BEH C18 1.7um x 2.1 x 150 mm" "retention time=1355.4" "raw data file=C:\Data\Confirmed standards 24_July_2014\MSMS\Pygenic Acid A vial 61_1-B,2_01_491.d" "computed mass accuracy=1.0268771977639704" "computed mass error=-4.840159999730531E-4" "SPLASH=splash10-00di-0000900000-875404fb9398f815c587" "submitter=Aiko Barsch (Bruker)" "MoNA Rating=4.583333333333334"
Num Peaks: 9
469.3323 2.002002
470.3354 0.700701
471.3475 100.000000
471.4540 0.200200
472.3504 26.726727
473.3531 2.002002
474.3508 0.200200
1468.6365 0.200200
1482.0559 0.200200


Name: Pygenic acid A b
Synon: $:00in-source
DB#: MetaboBASE0193
InChIKey: HFGSQOYIOKBQOW-RFMFWNHYSA-N
Precursor_type: [M-H]-
Spectrum_type: MS2
PrecursorMZ: 471.3476
Instrument_type: LC-ESI-TOF
Instrument: impact HD
Ion_mode: N
Collision_energy: 10
Formula: C30H48O4
MW: 472
ExactMass: 472.355260016
Comments: "cas number=52213-27-1" "SMILES=C[C@H]1[C@@H]([C@@H]2[C@@](CC[C@@]3(C2=CC[C@H]4[C@]3(CC[C@@H]5[C@@]4(C[C@H]([C@H]([C@]5(C)C)O)O)C)C)C)(CC1)C(=O)O)C" "InChI=InChI=1S/C30H48O4/c1-17-10-13-30(25(33)34)15-14-28(6)19(23(30)18(17)2)8-9-22-27(5)16-20(31)24(32)26(3,4)21(27)11-12-29(22,28)7/h8,17-18,20-24,31-32H,9-16H2,1-7H3,(H,33,34)/t17-,18+,20-,21+,22-,23+,24-,27+,28-,29-,30+/m1/s1" "computed SMILES=O=C(O)C12CCC(C)C(C)C2C3=CCC4C5(C)CC(O)C(O)C(C)(C)C5CCC4(C)C3(C)CC1" "license=License CC-BY-NC-SA 4.0 International" "author=Plant Biology, The Noble Foundation, Ardmore, OK, US/Dennis Fine, Daniel Wherritt, and Lloyd Sumner" "ionization=ESI" "isolation width=5" "collision gas=Nitrogen" "peak width=0.015" "date=2014-07-26 05:57:36+02:00" "column=Waters Acquity BEH C18 1.7um x 2.1 x 150 mm" "retention time=1355.4" "raw data file=C:\Data\Confirmed standards 24_July_2014\MSMS\Pygenic Acid A vial 61_1-B,2_01_491.d" "computed mass accuracy=0.8147193281522068" "computed mass error=-3.8401599999815517E-4" "SPLASH=splash10-00di-0000900000-9df2621d910ab252c46e" "submitter=Aiko Barsch (Bruker)" "MoNA Rating=4.615384615384616"
Num Peaks: 6
469.3292 1.801802
470.3340 0.800801
471.3476 100.000000
472.3504 27.127127
473.3523 2.302302
474.3604 0.200200


Name: Pygenic acid A b
Synon: $:00in-source
DB#: MetaboBASE0194
InChIKey: HFGSQOYIOKBQOW-RFMFWNHYSA-N
Precursor_type: [M-H]-
Spectrum_type: MS2
PrecursorMZ: 471.3476
Instrument_type: LC-ESI-TOF
Instrument: impact HD
Ion_mode: N
Collision_energy: 50
Formula: C30H48O4
MW: 472
ExactMass: 472.355260016
Comments: "cas number=52213-27-1" "SMILES=C[C@H]1[C@@H]([C@@H]2[C@@](CC[C@@]3(C2=CC[C@H]4[C@]3(CC[C@@H]5[C@@]4(C[C@H]([C@H]([C@]5(C)C)O)O)C)C)C)(CC1)C(=O)O)C" "InChI=InChI=1S/C30H48O4/c1-17-10-13-30(25(33)34)15-14-28(6)19(23(30)18(17)2)8-9-22-27(5)16-20(31)24(32)26(3,4)21(27)11-12-29(22,28)7/h8,17-18,20-24,31-32H,9-16H2,1-7H3,(H,33,34)/t17-,18+,20-,21+,22-,23+,24-,27+,28-,29-,30+/m1/s1" "computed SMILES=O=C(O)C12CCC(C)C(C)C2C3=CCC4C5(C)CC(O)C(O)C(C)(C)C5CCC4(C)C3(C)CC1" "license=License CC-BY-NC-SA 4.0 International" "author=Plant Biology, The Noble Foundation, Ardmore, OK, US/Dennis Fine, Daniel Wherritt, and Lloyd Sumner" "ionization=ESI" "isolation width=5" "collision gas=Nitrogen" "peak width=0.018" "date=2014-07-26 05:57:36+02:00" "column=Waters Acquity BEH C18 1.7um x 2.1 x 150 mm" "retention time=1355.4" "raw data file=C:\Data\Confirmed standards 24_July_2014\MSMS\Pygenic Acid A vial 61_1-B,2_01_491.d" "computed mass accuracy=0.8147193281522068" "computed mass error=-3.8401599999815517E-4" "SPLASH=splash10-00di-0000900000-1f1004ed71bebed72259" "submitter=Aiko Barsch (Bruker)" "MoNA Rating=4.615384615384616"
Num Peaks: 7
407.3303 1.601602
423.3259 3.603604
424.3311 1.701702
425.3364 0.900901
471.3476 100.000000
472.3504 29.129129
473.3523 2.202202


Name: Pygenic acid A b
Synon: $:00in-source
DB#: MetaboBASE0195
InChIKey: HFGSQOYIOKBQOW-RFMFWNHYSA-N
Instrument_type: LC-ESI-TOF
Instrument: impact HD
Ion_mode: N
Formula: C30H48O4
MW: 472
ExactMass: 472.355260016
Comments: "cas number=52213-27-1" "SMILES=C[C@H]1[C@@H]([C@@H]2[C@@](CC[C@@]3(C2=CC[C@H]4[C@]3(CC[C@@H]5[C@@]4(C[C@H]([C@H]([C@]5(C)C)O)O)C)C)C)(CC1)C(=O)O)C" "InChI=InChI=1S/C30H48O4/c1-17-10-13-30(25(33)34)15-14-28(6)19(23(30)18(17)2)8-9-22-27(5)16-20(31)24(32)26(3,4)21(27)11-12-29(22,28)7/h8,17-18,20-24,31-32H,9-16H2,1-7H3,(H,33,34)/t17-,18+,20-,21+,22-,23+,24-,27+,28-,29-,30+/m1/s1" "computed SMILES=O=C(O)C12CCC(C)C(C)C2C3=CCC4C5(C)CC(O)C(O)C(C)(C)C5CCC4(C)C3(C)CC1" "license=License CC-BY-NC-SA 4.0 International" "author=Plant Biology, The Noble Foundation, Ardmore, OK, US/Dennis Fine, Daniel Wherritt, and Lloyd Sumner" "ionization=ESI" "collision gas=Nitrogen" "peak width=0.029" "date=2013-09-05 10:54:44+02:00" "column=Waters Acquity BEH C18 1.7um x 2.1 x 150 mm" "retention time=1355.4" "raw data file=D:\Data\Confirmed Standards\Reinjection 2 uL\Pygenic acid A (vial 61).d" "SPLASH=splash10-00di-0000921001-b78f7eb9747e2e9a9350" "submitter=Aiko Barsch (Bruker)" "MoNA Rating=3.888888888888889"
Num Peaks: 31
112.985 1.501502
174.956 1.301301
248.969 1.201201
265.148 2.702703
469.332 1.801802
471.348 100.000000
472.351 29.029029
473.353 4.704705
529.306 1.201201
539.335 26.726727
540.338 8.408408
541.341 1.601602
567.334 1.401401
601.305 1.801802
607.322 9.609610
608.325 3.303303
669.292 1.801802
675.309 5.905906
676.312 2.302302
737.278 1.401401
743.295 3.403403
744.299 1.101101
805.267 1.301301
811.285 1.801802
879.272 1.001001
943.703 10.010010
944.704 6.106106
945.709 2.002002
965.683 2.702703
966.689 2.002002
1033.669 1.101101


Name: Pygenic acid A b
Synon: $:00in-source
DB#: MetaboBASE0196
InChIKey: HFGSQOYIOKBQOW-RFMFWNHYSA-N
Precursor_type: [M-H]-
Spectrum_type: MS2
PrecursorMZ: 471.3479
Instrument_type: LC-ESI-TOF
Instrument: impact HD
Ion_mode: N
Collision_energy: 30
Formula: C30H48O4
MW: 472
ExactMass: 472.355260016
Comments: "cas number=52213-27-1" "SMILES=C[C@H]1[C@@H]([C@@H]2[C@@](CC[C@@]3(C2=CC[C@H]4[C@]3(CC[C@@H]5[C@@]4(C[C@H]([C@H]([C@]5(C)C)O)O)C)C)C)(CC1)C(=O)O)C" "InChI=InChI=1S/C30H48O4/c1-17-10-13-30(25(33)34)15-14-28(6)19(23(30)18(17)2)8-9-22-27(5)16-20(31)24(32)26(3,4)21(27)11-12-29(22,28)7/h8,17-18,20-24,31-32H,9-16H2,1-7H3,(H,33,34)/t17-,18+,20-,21+,22-,23+,24-,27+,28-,29-,30+/m1/s1" "computed SMILES=O=C(O)C12CCC(C)C(C)C2C3=CCC4C5(C)CC(O)C(O)C(C)(C)C5CCC4(C)C3(C)CC1" "license=License CC-BY-NC-SA 4.0 International" "author=Plant Biology, The Noble Foundation, Ardmore, OK, US/Dennis Fine, Daniel Wherritt, and Lloyd Sumner" "ionization=ESI" "isolation width=5" "collision gas=Nitrogen" "peak width=0.015" "date=2014-07-26 05:57:36+02:00" "column=Waters Acquity BEH C18 1.7um x 2.1 x 150 mm" "retention time=1355.4" "raw data file=C:\Data\Confirmed standards 24_July_2014\MSMS\Pygenic Acid A vial 61_1-B,2_01_491.d" "computed mass accuracy=0.1782462593269598" "computed mass error=-8.401600001661791E-5" "SPLASH=splash10-00di-0000900000-7328ad9e168c65de50ad" "submitter=Aiko Barsch (Bruker)" "MoNA Rating=4.615384615384616"
Num Peaks: 9
423.3301 0.400400
469.3301 1.601602
470.3362 0.700701
471.2705 0.200200
471.3479 100.000000
472.3503 27.427427
473.3523 2.102102
474.3568 0.200200
1410.6206 0.200200


Name: Pygenic acid A b
Synon: $:00in-source
DB#: MetaboBASE0197
InChIKey: HFGSQOYIOKBQOW-RFMFWNHYSA-N
Precursor_type: [M-H]-
Spectrum_type: MS2
PrecursorMZ: 471.3478
Instrument_type: LC-ESI-TOF
Instrument: impact HD
Ion_mode: N
Collision_energy: 40
Formula: C30H48O4
MW: 472
ExactMass: 472.355260016
Comments: "cas number=52213-27-1" "SMILES=C[C@H]1[C@@H]([C@@H]2[C@@](CC[C@@]3(C2=CC[C@H]4[C@]3(CC[C@@H]5[C@@]4(C[C@H]([C@H]([C@]5(C)C)O)O)C)C)C)(CC1)C(=O)O)C" "InChI=InChI=1S/C30H48O4/c1-17-10-13-30(25(33)34)15-14-28(6)19(23(30)18(17)2)8-9-22-27(5)16-20(31)24(32)26(3,4)21(27)11-12-29(22,28)7/h8,17-18,20-24,31-32H,9-16H2,1-7H3,(H,33,34)/t17-,18+,20-,21+,22-,23+,24-,27+,28-,29-,30+/m1/s1" "computed SMILES=O=C(O)C12CCC(C)C(C)C2C3=CCC4C5(C)CC(O)C(O)C(C)(C)C5CCC4(C)C3(C)CC1" "license=License CC-BY-NC-SA 4.0 International" "author=Plant Biology, The Noble Foundation, Ardmore, OK, US/Dennis Fine, Daniel Wherritt, and Lloyd Sumner" "ionization=ESI" "isolation width=5" "collision gas=Nitrogen" "peak width=0.016" "date=2014-07-26 05:57:36+02:00" "column=Waters Acquity BEH C18 1.7um x 2.1 x 150 mm" "retention time=1355.4" "raw data file=C:\Data\Confirmed standards 24_July_2014\MSMS\Pygenic Acid A vial 61_1-B,2_01_491.d" "computed mass accuracy=0.39040385887346" "computed mass error=-1.8401599999151586E-4" "SPLASH=splash10-00di-0000900000-07f271e4647b6e9ccdc0" "submitter=Aiko Barsch (Bruker)" "MoNA Rating=4.615384615384616"
Num Peaks: 10
407.3320 0.400400
423.3263 1.501502
424.3283 0.400400
425.3409 0.300300
469.3342 0.700701
470.3307 0.400400
471.3478 100.000000
472.3501 28.428428
473.3537 1.801802
1503.2032 0.200200


Name: Pygenic acid A a
Synon: $:00in-source
DB#: MetaboBASE0198
InChIKey: HFGSQOYIOKBQOW-RFMFWNHYSA-N
Instrument_type: LC-ESI-TOF
Instrument: impact HD
Ion_mode: N
Formula: C30H48O4
MW: 472
ExactMass: 472.355260016
Comments: "cas number=52213-27-1" "SMILES=C[C@H]1[C@@H]([C@@H]2[C@@](CC[C@@]3(C2=CC[C@H]4[C@]3(CC[C@@H]5[C@@]4(C[C@H]([C@H]([C@]5(C)C)O)O)C)C)C)(CC1)C(=O)O)C" "InChI=InChI=1S/C30H48O4/c1-17-10-13-30(25(33)34)15-14-28(6)19(23(30)18(17)2)8-9-22-27(5)16-20(31)24(32)26(3,4)21(27)11-12-29(22,28)7/h8,17-18,20-24,31-32H,9-16H2,1-7H3,(H,33,34)/t17-,18+,20-,21+,22-,23+,24-,27+,28-,29-,30+/m1/s1" "computed SMILES=O=C(O)C12CCC(C)C(C)C2C3=CCC4C5(C)CC(O)C(O)C(C)(C)C5CCC4(C)C3(C)CC1" "license=License CC-BY-NC-SA 4.0 International" "author=Plant Biology, The Noble Foundation, Ardmore, OK, US/Dennis Fine, Daniel Wherritt, and Lloyd Sumner" "ionization=ESI" "collision gas=Nitrogen" "peak width=0.022" "date=2013-09-05 10:54:44+02:00" "column=Waters Acquity BEH C18 1.7um x 2.1 x 150 mm" "retention time=1371" "raw data file=D:\Data\Confirmed Standards\Reinjection 2 uL\Pygenic acid A (vial 61).d" "SPLASH=splash10-00di-0110933000-cfc4fbb81be13a6a2395" "submitter=Aiko Barsch (Bruker)" "MoNA Rating=3.888888888888889"
Num Peaks: 48
112.9826 5.105105
129.9731 1.201201
130.9657 1.701702
136.9846 1.201201
146.9702 1.501502
151.9951 2.002002
157.0096 2.802803
161.0187 1.501502
164.9281 1.601602
224.9394 2.202202
242.9409 1.601602
242.9872 1.301301
248.9748 3.603604
254.9818 2.002002
269.2158 1.601602
271.2278 2.502503
295.2239 1.501502
297.1523 1.201201
330.9228 1.901902
342.9817 2.002002
346.8827 1.501502
352.9122 1.701702
354.9838 1.501502
384.9358 1.601602
388.8915 1.301301
428.9750 1.701702
454.9407 1.401401
468.9778 1.701702
471.3485 100.000000
472.3504 31.931932
473.3532 5.605606
529.3065 1.701702
539.3362 37.837838
540.3398 11.511512
541.3427 2.502503
567.3353 2.302302
601.3098 3.503504
607.3216 17.517518
608.3284 4.904905
611.2723 2.202202
669.2977 3.603604
675.3093 12.812813
676.3182 5.005005
737.2764 2.702703
743.2977 7.507508
744.3011 2.702703
805.2633 3.203203
811.2883 4.304304


Name: Pygenic acid A a
Synon: $:00in-source
DB#: MetaboBASE0199
InChIKey: HFGSQOYIOKBQOW-RFMFWNHYSA-N
Precursor_type: [M-H]-
Spectrum_type: MS2
PrecursorMZ: 471.3476
Instrument_type: LC-ESI-TOF
Instrument: impact HD
Ion_mode: N
Collision_energy: 10
Formula: C30H48O4
MW: 472
ExactMass: 472.355260016
Comments: "cas number=52213-27-1" "SMILES=C[C@H]1[C@@H]([C@@H]2[C@@](CC[C@@]3(C2=CC[C@H]4[C@]3(CC[C@@H]5[C@@]4(C[C@H]([C@H]([C@]5(C)C)O)O)C)C)C)(CC1)C(=O)O)C" "InChI=InChI=1S/C30H48O4/c1-17-10-13-30(25(33)34)15-14-28(6)19(23(30)18(17)2)8-9-22-27(5)16-20(31)24(32)26(3,4)21(27)11-12-29(22,28)7/h8,17-18,20-24,31-32H,9-16H2,1-7H3,(H,33,34)/t17-,18+,20-,21+,22-,23+,24-,27+,28-,29-,30+/m1/s1" "computed SMILES=O=C(O)C12CCC(C)C(C)C2C3=CCC4C5(C)CC(O)C(O)C(C)(C)C5CCC4(C)C3(C)CC1" "license=License CC-BY-NC-SA 4.0 International" "author=Plant Biology, The Noble Foundation, Ardmore, OK, US/Dennis Fine, Daniel Wherritt, and Lloyd Sumner" "ionization=ESI" "isolation width=5" "collision gas=Nitrogen" "peak width=0.015" "date=2014-07-26 05:57:36+02:00" "column=Waters Acquity BEH C18 1.7um x 2.1 x 150 mm" "retention time=1371" "raw data file=C:\Data\Confirmed standards 24_July_2014\MSMS\Pygenic Acid A vial 61_1-B,2_01_491.d" "computed mass accuracy=0.8147193281522068" "computed mass error=-3.8401599999815517E-4" "SPLASH=splash10-00di-0000900000-9df2621d910ab252c46e" "submitter=Aiko Barsch (Bruker)" "MoNA Rating=4.615384615384616"
Num Peaks: 6
469.3292 1.801802
470.3340 0.800801
471.3476 100.000000
472.3504 27.127127
473.3523 2.302302
474.3604 0.200200


Name: Pygenic acid A a
Synon: $:00in-source
DB#: MetaboBASE0200
InChIKey: HFGSQOYIOKBQOW-RFMFWNHYSA-N
Precursor_type: [M-H]-
Spectrum_type: MS2
PrecursorMZ: 471.3475
Instrument_type: LC-ESI-TOF
Instrument: impact HD
Ion_mode: N
Collision_energy: 20
Formula: C30H48O4
MW: 472
ExactMass: 472.355260016
Comments: "cas number=52213-27-1" "SMILES=C[C@H]1[C@@H]([C@@H]2[C@@](CC[C@@]3(C2=CC[C@H]4[C@]3(CC[C@@H]5[C@@]4(C[C@H]([C@H]([C@]5(C)C)O)O)C)C)C)(CC1)C(=O)O)C" "InChI=InChI=1S/C30H48O4/c1-17-10-13-30(25(33)34)15-14-28(6)19(23(30)18(17)2)8-9-22-27(5)16-20(31)24(32)26(3,4)21(27)11-12-29(22,28)7/h8,17-18,20-24,31-32H,9-16H2,1-7H3,(H,33,34)/t17-,18+,20-,21+,22-,23+,24-,27+,28-,29-,30+/m1/s1" "computed SMILES=O=C(O)C12CCC(C)C(C)C2C3=CCC4C5(C)CC(O)C(O)C(C)(C)C5CCC4(C)C3(C)CC1" "license=License CC-BY-NC-SA 4.0 International" "author=Plant Biology, The Noble Foundation, Ardmore, OK, US/Dennis Fine, Daniel Wherritt, and Lloyd Sumner" "ionization=ESI" "isolation width=5" "collision gas=Nitrogen" "peak width=0.015" "date=2014-07-26 05:57:36+02:00" "column=Waters Acquity BEH C18 1.7um x 2.1 x 150 mm" "retention time=1371" "raw data file=C:\Data\Confirmed standards 24_July_2014\MSMS\Pygenic Acid A vial 61_1-B,2_01_491.d" "computed mass accuracy=1.0268771977639704" "computed mass error=-4.840159999730531E-4" "SPLASH=splash10-00di-0000900000-875404fb9398f815c587" "submitter=Aiko Barsch (Bruker)" "MoNA Rating=4.583333333333334"
Num Peaks: 9
469.3323 2.002002
470.3354 0.700701
471.3475 100.000000
471.4540 0.200200
472.3504 26.726727
473.3531 2.002002
474.3508 0.200200
1468.6365 0.200200
1482.0559 0.200200


Name: Pygenic acid A a
Synon: $:00in-source
DB#: MetaboBASE0201
InChIKey: HFGSQOYIOKBQOW-RFMFWNHYSA-N
Precursor_type: [M-H]-
Spectrum_type: MS2
PrecursorMZ: 471.3476
Instrument_type: LC-ESI-TOF
Instrument: impact HD
Ion_mode: N
Collision_energy: 50
Formula: C30H48O4
MW: 472
ExactMass: 472.355260016
Comments: "cas number=52213-27-1" "SMILES=C[C@H]1[C@@H]([C@@H]2[C@@](CC[C@@]3(C2=CC[C@H]4[C@]3(CC[C@@H]5[C@@]4(C[C@H]([C@H]([C@]5(C)C)O)O)C)C)C)(CC1)C(=O)O)C" "InChI=InChI=1S/C30H48O4/c1-17-10-13-30(25(33)34)15-14-28(6)19(23(30)18(17)2)8-9-22-27(5)16-20(31)24(32)26(3,4)21(27)11-12-29(22,28)7/h8,17-18,20-24,31-32H,9-16H2,1-7H3,(H,33,34)/t17-,18+,20-,21+,22-,23+,24-,27+,28-,29-,30+/m1/s1" "computed SMILES=O=C(O)C12CCC(C)C(C)C2C3=CCC4C5(C)CC(O)C(O)C(C)(C)C5CCC4(C)C3(C)CC1" "license=License CC-BY-NC-SA 4.0 International" "author=Plant Biology, The Noble Foundation, Ardmore, OK, US/Dennis Fine, Daniel Wherritt, and Lloyd Sumner" "ionization=ESI" "isolation width=5" "collision gas=Nitrogen" "peak width=0.018" "date=2014-07-26 05:57:36+02:00" "column=Waters Acquity BEH C18 1.7um x 2.1 x 150 mm" "retention time=1371" "raw data file=C:\Data\Confirmed standards 24_July_2014\MSMS\Pygenic Acid A vial 61_1-B,2_01_491.d" "computed mass accuracy=0.8147193281522068" "computed mass error=-3.8401599999815517E-4" "SPLASH=splash10-00di-0000900000-1f1004ed71bebed72259" "submitter=Aiko Barsch (Bruker)" "MoNA Rating=4.615384615384616"
Num Peaks: 7
407.3303 1.601602
423.3259 3.603604
424.3311 1.701702
425.3364 0.900901
471.3476 100.000000
472.3504 29.129129
473.3523 2.202202


Name: Pygenic acid A a
Synon: $:00in-source
DB#: MetaboBASE0202
InChIKey: HFGSQOYIOKBQOW-RFMFWNHYSA-N
Precursor_type: [M-H]-
Spectrum_type: MS2
PrecursorMZ: 471.3479
Instrument_type: LC-ESI-TOF
Instrument: impact HD
Ion_mode: N
Collision_energy: 30
Formula: C30H48O4
MW: 472
ExactMass: 472.355260016
Comments: "cas number=52213-27-1" "SMILES=C[C@H]1[C@@H]([C@@H]2[C@@](CC[C@@]3(C2=CC[C@H]4[C@]3(CC[C@@H]5[C@@]4(C[C@H]([C@H]([C@]5(C)C)O)O)C)C)C)(CC1)C(=O)O)C" "InChI=InChI=1S/C30H48O4/c1-17-10-13-30(25(33)34)15-14-28(6)19(23(30)18(17)2)8-9-22-27(5)16-20(31)24(32)26(3,4)21(27)11-12-29(22,28)7/h8,17-18,20-24,31-32H,9-16H2,1-7H3,(H,33,34)/t17-,18+,20-,21+,22-,23+,24-,27+,28-,29-,30+/m1/s1" "computed SMILES=O=C(O)C12CCC(C)C(C)C2C3=CCC4C5(C)CC(O)C(O)C(C)(C)C5CCC4(C)C3(C)CC1" "license=License CC-BY-NC-SA 4.0 International" "author=Plant Biology, The Noble Foundation, Ardmore, OK, US/Dennis Fine, Daniel Wherritt, and Lloyd Sumner" "ionization=ESI" "isolation width=5" "collision gas=Nitrogen" "peak width=0.015" "date=2014-07-26 05:57:36+02:00" "column=Waters Acquity BEH C18 1.7um x 2.1 x 150 mm" "retention time=1371" "raw data file=C:\Data\Confirmed standards 24_July_2014\MSMS\Pygenic Acid A vial 61_1-B,2_01_491.d" "computed mass accuracy=0.1782462593269598" "computed mass error=-8.401600001661791E-5" "SPLASH=splash10-00di-0000900000-7328ad9e168c65de50ad" "submitter=Aiko Barsch (Bruker)" "MoNA Rating=4.615384615384616"
Num Peaks: 9
423.3301 0.400400
469.3301 1.601602
470.3362 0.700701
471.2705 0.200200
471.3479 100.000000
472.3503 27.427427
473.3523 2.102102
474.3568 0.200200
1410.6206 0.200200


Name: Pygenic acid A a
Synon: $:00in-source
DB#: MetaboBASE0203
InChIKey: HFGSQOYIOKBQOW-RFMFWNHYSA-N
Precursor_type: [M-H]-
Spectrum_type: MS2
PrecursorMZ: 471.3478
Instrument_type: LC-ESI-TOF
Instrument: impact HD
Ion_mode: N
Collision_energy: 40
Formula: C30H48O4
MW: 472
ExactMass: 472.355260016
Comments: "cas number=52213-27-1" "SMILES=C[C@H]1[C@@H]([C@@H]2[C@@](CC[C@@]3(C2=CC[C@H]4[C@]3(CC[C@@H]5[C@@]4(C[C@H]([C@H]([C@]5(C)C)O)O)C)C)C)(CC1)C(=O)O)C" "InChI=InChI=1S/C30H48O4/c1-17-10-13-30(25(33)34)15-14-28(6)19(23(30)18(17)2)8-9-22-27(5)16-20(31)24(32)26(3,4)21(27)11-12-29(22,28)7/h8,17-18,20-24,31-32H,9-16H2,1-7H3,(H,33,34)/t17-,18+,20-,21+,22-,23+,24-,27+,28-,29-,30+/m1/s1" "computed SMILES=O=C(O)C12CCC(C)C(C)C2C3=CCC4C5(C)CC(O)C(O)C(C)(C)C5CCC4(C)C3(C)CC1" "license=License CC-BY-NC-SA 4.0 International" "author=Plant Biology, The Noble Foundation, Ardmore, OK, US/Dennis Fine, Daniel Wherritt, and Lloyd Sumner" "ionization=ESI" "isolation width=5" "collision gas=Nitrogen" "peak width=0.016" "date=2014-07-26 05:57:36+02:00" "column=Waters Acquity BEH C18 1.7um x 2.1 x 150 mm" "retention time=1371" "raw data file=C:\Data\Confirmed standards 24_July_2014\MSMS\Pygenic Acid A vial 61_1-B,2_01_491.d" "computed mass accuracy=0.39040385887346" "computed mass error=-1.8401599999151586E-4" "SPLASH=splash10-00di-0000900000-07f271e4647b6e9ccdc0" "submitter=Aiko Barsch (Bruker)" "MoNA Rating=4.615384615384616"
Num Peaks: 10
407.3320 0.400400
423.3263 1.501502
424.3283 0.400400
425.3409 0.300300
469.3342 0.700701
470.3307 0.400400
471.3478 100.000000
472.3501 28.428428
473.3537 1.801802
1503.2032 0.200200


Name: Quercitrin
Synon: $:00in-source
DB#: MetaboBASE0204
InChIKey: OXGUCUVFOIWWQJ-HQBVPOQASA-N
Spectrum_type: MS2
PrecursorMZ: 445.0826
Instrument_type: LC-ESI-TOF
Instrument: impact HD
Ion_mode: N
Collision_energy: 20
Formula: C21H20O11
MW: 448
ExactMass: 448.10056146
Comments: "cas number=522-12-3" "SMILES=C[C@H]1[C@@H]([C@H]([C@H]([C@@H](O1)Oc2c(=O)c3c(cc(cc3oc2c4ccc(c(c4)O)O)O)O)O)O)O" "InChI=InChI=1S/C21H20O11/c1-7-15(26)17(28)18(29)21(30-7)32-20-16(27)14-12(25)5-9(22)6-13(14)31-19(20)8-2-3-10(23)11(24)4-8/h2-7,15,17-18,21-26,28-29H,1H3/t7-,15-,17+,18+,21-/m0/s1" "computed SMILES=O=C1C(OC2OC(C)C(O)C(O)C2O)=C(OC=3C=C(O)C=C(O)C13)C=4C=CC(O)=C(O)C4" "computed InChI=InChI=1S/C21H20O11/c1-7-15(26)17(28)18(29)21(30-7)32-20-16(27)14-12(25)5-9(22)6-13(14)31-19(20)8-2-3-10(23)11(24)4-8/h2-7,15,17-18,21-26,28-29H,1H3" "license=License CC-BY-NC-SA 4.0 International" "author=Plant Biology, The Noble Foundation, Ardmore, OK, US/Dennis Fine, Daniel Wherritt, and Lloyd Sumner" "ionization=ESI" "isolation width=5" "collision gas=Nitrogen" "peak width=0.013" "date=2013-11-16 03:50:06+01:00" "column=Waters Acquity BEH C18 1.7um x 2.1 x 150 mm" "retention time=366.6" "raw data file=C:\Data\Confirmed Standards\Confirmed stds MSMS 14Nov13\Quercitrin MSMS (vial 53).d" "SPLASH=splash10-0002-0024900000-74f4c7623d724538edfb" "submitter=Aiko Barsch (Bruker)" "MoNA Rating=3.125"
Num Peaks: 11
270.0196 3.803804
271.0268 2.602603
298.0149 16.516517
299.0227 28.428428
300.0303 46.846847
301.0384 49.449449
302.0411 2.402402
445.0826 63.363363
446.0856 8.608609
447.0980 100.000000
448.1011 9.809810


Name: Quercitrin
Synon: $:00in-source
DB#: MetaboBASE0205
InChIKey: OXGUCUVFOIWWQJ-HQBVPOQASA-N
Instrument_type: LC-ESI-TOF
Instrument: impact HD
Ion_mode: N
Collision_energy: 10
Formula: C21H20O11
MW: 448
ExactMass: 448.10056146
Comments: "cas number=522-12-3" "SMILES=C[C@H]1[C@@H]([C@H]([C@H]([C@@H](O1)Oc2c(=O)c3c(cc(cc3oc2c4ccc(c(c4)O)O)O)O)O)O)O" "InChI=InChI=1S/C21H20O11/c1-7-15(26)17(28)18(29)21(30-7)32-20-16(27)14-12(25)5-9(22)6-13(14)31-19(20)8-2-3-10(23)11(24)4-8/h2-7,15,17-18,21-26,28-29H,1H3/t7-,15-,17+,18+,21-/m0/s1" "computed SMILES=O=C1C(OC2OC(C)C(O)C(O)C2O)=C(OC=3C=C(O)C=C(O)C13)C=4C=CC(O)=C(O)C4" "computed InChI=InChI=1S/C21H20O11/c1-7-15(26)17(28)18(29)21(30-7)32-20-16(27)14-12(25)5-9(22)6-13(14)31-19(20)8-2-3-10(23)11(24)4-8/h2-7,15,17-18,21-26,28-29H,1H3" "license=License CC-BY-NC-SA 4.0 International" "author=Plant Biology, The Noble Foundation, Ardmore, OK, US/Dennis Fine, Daniel Wherritt, and Lloyd Sumner" "ionization=ESI" "collision gas=Nitrogen" "peak width=0.026" "date=2013-09-05 05:28:37+02:00" "column=Waters Acquity BEH C18 1.7um x 2.1 x 150 mm" "retention time=366.6" "raw data file=C:\Data\Confirmed Standards\Reinjection 2 uL\Quercitrin (vial 53).d" "SPLASH=splash10-0002-0000900010-b2ace14e72798df2daf5" "submitter=Aiko Barsch (Bruker)" "MoNA Rating=4.444444444444445"
Num Peaks: 18
299.019 1.801802
300.026 1.201201
301.034 1.201201
445.077 100.000000
446.081 20.220220
447.093 88.788789
448.096 15.115115
449.098 2.502503
463.088 7.807808
464.091 1.501502
891.162 2.702703
892.164 1.201201
893.177 16.516517
894.181 7.007007
895.192 11.511512
896.195 4.104104
897.198 1.201201
1341.275 1.001001


Name: Quercitrin
Synon: $:00in-source
DB#: MetaboBASE0206
InChIKey: OXGUCUVFOIWWQJ-HQBVPOQASA-N
Spectrum_type: MS2
PrecursorMZ: 445.1
Instrument_type: LC-ESI-TOF
Instrument: impact HD
Ion_mode: N
Collision_energy: 40
Formula: C21H20O11
MW: 448
ExactMass: 448.10056146
Comments: "cas number=522-12-3" "SMILES=C[C@H]1[C@@H]([C@H]([C@H]([C@@H](O1)Oc2c(=O)c3c(cc(cc3oc2c4ccc(c(c4)O)O)O)O)O)O)O" "InChI=InChI=1S/C21H20O11/c1-7-15(26)17(28)18(29)21(30-7)32-20-16(27)14-12(25)5-9(22)6-13(14)31-19(20)8-2-3-10(23)11(24)4-8/h2-7,15,17-18,21-26,28-29H,1H3/t7-,15-,17+,18+,21-/m0/s1" "computed SMILES=O=C1C(OC2OC(C)C(O)C(O)C2O)=C(OC=3C=C(O)C=C(O)C13)C=4C=CC(O)=C(O)C4" "computed InChI=InChI=1S/C21H20O11/c1-7-15(26)17(28)18(29)21(30-7)32-20-16(27)14-12(25)5-9(22)6-13(14)31-19(20)8-2-3-10(23)11(24)4-8/h2-7,15,17-18,21-26,28-29H,1H3" "license=License CC-BY-NC-SA 4.0 International" "author=Plant Biology, The Noble Foundation, Ardmore, OK, US/Dennis Fine, Daniel Wherritt, and Lloyd Sumner" "ionization=ESI" "isolation width=5" "collision gas=Nitrogen" "peak width=0.015" "date=2013-11-16 03:50:06+01:00" "column=Waters Acquity BEH C18 1.7um x 2.1 x 150 mm" "retention time=366.6" "raw data file=C:\Data\Confirmed Standards\Confirmed stds MSMS 14Nov13\Quercitrin MSMS (vial 53).d" "SPLASH=splash10-0uk9-0095000000-fb1f4c76b153f376d777" "submitter=Aiko Barsch (Bruker)" "MoNA Rating=3.125"
Num Peaks: 18
151.0054 4.404404
179.0013 2.002002
227.0380 2.102102
241.0170 11.811812
242.0241 15.915916
243.0317 8.508509
245.0157 15.015015
255.0320 19.019019
270.0198 39.339339
271.0273 74.374374
272.0315 7.607608
273.0335 2.902903
283.0276 3.403403
298.0155 4.604605
299.0226 10.210210
300.0307 100.000000
301.0379 35.035035
302.0403 2.102102


Name: Quercitrin
Synon: $:00in-source
DB#: MetaboBASE0207
InChIKey: OXGUCUVFOIWWQJ-HQBVPOQASA-N
Spectrum_type: MS2
PrecursorMZ: 445.1
Instrument_type: LC-ESI-TOF
Instrument: impact HD
Ion_mode: N
Collision_energy: 50
Formula: C21H20O11
MW: 448
ExactMass: 448.10056146
Comments: "cas number=522-12-3" "SMILES=C[C@H]1[C@@H]([C@H]([C@H]([C@@H](O1)Oc2c(=O)c3c(cc(cc3oc2c4ccc(c(c4)O)O)O)O)O)O)O" "InChI=InChI=1S/C21H20O11/c1-7-15(26)17(28)18(29)21(30-7)32-20-16(27)14-12(25)5-9(22)6-13(14)31-19(20)8-2-3-10(23)11(24)4-8/h2-7,15,17-18,21-26,28-29H,1H3/t7-,15-,17+,18+,21-/m0/s1" "computed SMILES=O=C1C(OC2OC(C)C(O)C(O)C2O)=C(OC=3C=C(O)C=C(O)C13)C=4C=CC(O)=C(O)C4" "computed InChI=InChI=1S/C21H20O11/c1-7-15(26)17(28)18(29)21(30-7)32-20-16(27)14-12(25)5-9(22)6-13(14)31-19(20)8-2-3-10(23)11(24)4-8/h2-7,15,17-18,21-26,28-29H,1H3" "license=License CC-BY-NC-SA 4.0 International" "author=Plant Biology, The Noble Foundation, Ardmore, OK, US/Dennis Fine, Daniel Wherritt, and Lloyd Sumner" "ionization=ESI" "isolation width=5" "collision gas=Nitrogen" "peak width=0.016" "date=2013-11-16 03:50:06+01:00" "column=Waters Acquity BEH C18 1.7um x 2.1 x 150 mm" "retention time=366.6" "raw data file=C:\Data\Confirmed Standards\Confirmed stds MSMS 14Nov13\Quercitrin MSMS (vial 53).d" "SPLASH=splash10-00dl-0090000000-2e3d10965c5254c3204a" "submitter=Aiko Barsch (Bruker)" "MoNA Rating=3.125"
Num Peaks: 17
151.0050 5.405405
214.0297 3.503504
227.0379 6.106106
241.0168 43.243243
242.0234 19.619620
243.0318 21.421421
244.0371 3.103103
245.0192 13.813814
254.0248 2.202202
255.0323 32.732733
256.0359 2.402402
270.0198 9.409409
271.0276 100.000000
272.0320 7.907908
299.0236 3.503504
300.0308 22.822823
301.0381 5.705706


Name: Quercitrin
Synon: $:00in-source
DB#: MetaboBASE0208
InChIKey: OXGUCUVFOIWWQJ-HQBVPOQASA-N
Spectrum_type: MS2
PrecursorMZ: 445.1
Instrument_type: LC-ESI-TOF
Instrument: impact HD
Ion_mode: N
Collision_energy: 60
Formula: C21H20O11
MW: 448
ExactMass: 448.10056146
Comments: "cas number=522-12-3" "SMILES=C[C@H]1[C@@H]([C@H]([C@H]([C@@H](O1)Oc2c(=O)c3c(cc(cc3oc2c4ccc(c(c4)O)O)O)O)O)O)O" "InChI=InChI=1S/C21H20O11/c1-7-15(26)17(28)18(29)21(30-7)32-20-16(27)14-12(25)5-9(22)6-13(14)31-19(20)8-2-3-10(23)11(24)4-8/h2-7,15,17-18,21-26,28-29H,1H3/t7-,15-,17+,18+,21-/m0/s1" "computed SMILES=O=C1C(OC2OC(C)C(O)C(O)C2O)=C(OC=3C=C(O)C=C(O)C13)C=4C=CC(O)=C(O)C4" "computed InChI=InChI=1S/C21H20O11/c1-7-15(26)17(28)18(29)21(30-7)32-20-16(27)14-12(25)5-9(22)6-13(14)31-19(20)8-2-3-10(23)11(24)4-8/h2-7,15,17-18,21-26,28-29H,1H3" "license=License CC-BY-NC-SA 4.0 International" "author=Plant Biology, The Noble Foundation, Ardmore, OK, US/Dennis Fine, Daniel Wherritt, and Lloyd Sumner" "ionization=ESI" "isolation width=5" "collision gas=Nitrogen" "peak width=0.017" "date=2013-11-16 03:50:06+01:00" "column=Waters Acquity BEH C18 1.7um x 2.1 x 150 mm" "retention time=366.6" "raw data file=C:\Data\Confirmed Standards\Confirmed stds MSMS 14Nov13\Quercitrin MSMS (vial 53).d" "SPLASH=splash10-006x-0090000000-b62d4ed30c4c4ccf8467" "submitter=Aiko Barsch (Bruker)" "MoNA Rating=3.125"
Num Peaks: 21
109.0309 3.503504
121.0313 2.902903
148.0182 2.302302
151.0054 3.703704
186.0353 2.402402
199.0411 2.102102
214.0274 2.402402
215.0373 3.103103
226.0295 4.104104
227.0365 11.611612
241.0166 83.783784
242.0223 17.017017
243.0321 36.736737
244.0353 2.802803
245.0251 6.106106
255.0322 35.135135
256.0370 2.002002
271.0276 100.000000
272.0320 6.906907
299.0233 2.802803
300.0306 4.304304


Name: Isohumulone
Synon: $:00in-source
DB#: MetaboBASE0209
InChIKey: QARXXMMQVDCYGZ-UHFFFAOYSA-N
Instrument_type: LC-ESI-TOF
Instrument: impact HD
Ion_mode: N
Collision_energy: 10
Formula: C21H30O5
MW: 362
ExactMass: 362.20932406
Comments: "cas number=25522-96-7" "SMILES=CC(C)CC(=O)C1=C(C(C(C1=O)CC=C(C)C)(C(=O)CC=C(C)C)O)O" "InChI=InChI=1S/C21H30O5/c1-12(2)7-9-15-19(24)18(16(22)11-14(5)6)20(25)21(15,26)17(23)10-8-13(3)4/h7-8,14-15,25-26H,9-11H2,1-6H3" "computed SMILES=O=C(C=1C(=O)C(CC=C(C)C)C(O)(C(=O)CC=C(C)C)C1O)CC(C)C" "license=License CC-BY-NC-SA 4.0 International" "author=Plant Biology, The Noble Foundation, Ardmore, OK, US/Dennis Fine, Daniel Wherritt, and Lloyd Sumner" "ionization=ESI" "collision gas=Nitrogen" "peak width=0.025" "date=2013-09-05 00:43:18+02:00" "column=Waters Acquity BEH C18 1.7um x 2.1 x 150 mm" "retention time=398.4" "raw data file=C:\Data\Confirmed Standards\Reinjection 2 uL\Isohumulone  (vial 46).d" "SPLASH=splash10-03di-0029000000-822a5c98f0e459a8a3dd" "submitter=Aiko Barsch (Bruker)" "MoNA Rating=4.444444444444445"
Num Peaks: 28
146.961 1.201201
181.897 1.101101
183.913 1.001001
190.928 1.601602
239.903 2.202202
242.943 12.412412
243.881 1.101101
248.967 17.617618
283.841 0.900901
297.900 1.501502
312.841 1.501502
316.948 1.901902
341.867 2.402402
342.869 1.001001
347.882 1.801802
352.852 11.111111
361.165 100.000000
362.169 26.526527
378.918 2.102102
420.849 1.501502
429.152 8.108108
482.815 0.900901
557.003 1.801802
722.726 0.900901
734.718 0.900901
818.632 1.201201
900.653 1.001001
1114.574 0.900901


Name: Isoxanthohumol
Synon: $:00in-source
DB#: MetaboBASE0210
InChIKey: YKGCBLWILMDSAV-UHFFFAOYSA-N
Precursor_type: [M-H]-
Spectrum_type: MS2
PrecursorMZ: 353.1438
Instrument_type: LC-ESI-TOF
Instrument: impact HD
Ion_mode: N
Collision_energy: 10
Formula: C21H22O5
MW: 354
ExactMass: 354.146723804
Comments: "cas number=521-48-2" "SMILES=CC(=CCc1c(cc(c2c1OC(CC2=O)c3ccc(cc3)O)OC)O)C" "InChI=InChI=1S/C21H22O5/c1-12(2)4-9-15-16(23)10-19(25-3)20-17(24)11-18(26-21(15)20)13-5-7-14(22)8-6-13/h4-8,10,18,22-23H,9,11H2,1-3H3" "computed SMILES=O=C1C=2C(OC)=CC(O)=C(C2OC(C3=CC=C(O)C=C3)C1)CC=C(C)C" "license=License CC-BY-NC-SA 4.0 International" "author=Plant Biology, The Noble Foundation, Ardmore, OK, US/Dennis Fine, Daniel Wherritt, and Lloyd Sumner" "ionization=ESI" "isolation width=5" "collision gas=Nitrogen" "peak width=0.011" "date=2013-11-16 03:09:12+01:00" "column=Waters Acquity BEH C18 1.7um x 2.1 x 150 mm" "retention time=823.8" "raw data file=C:\Data\Confirmed Standards\Confirmed stds MSMS 14Nov13\Isoxanthohumol MSMS v51.d" "computed mass accuracy=12.324146707413423" "computed mass error=0.004352196000013464" "SPLASH=splash10-0udi-0009000000-a1136c004783e9a0c59e" "submitter=Aiko Barsch (Bruker)" "MoNA Rating=4.545454545454546"
Num Peaks: 3
233.0848 6.406406
353.1438 100.000000
354.1467 11.611612


Name: Isoxanthohumol
Synon: $:00in-source
DB#: MetaboBASE0211
InChIKey: YKGCBLWILMDSAV-UHFFFAOYSA-N
Instrument_type: LC-ESI-TOF
Instrument: impact HD
Ion_mode: N
Collision_energy: 10
Formula: C21H22O5
MW: 354
ExactMass: 354.146723804
Comments: "cas number=521-48-2" "SMILES=CC(=CCc1c(cc(c2c1OC(CC2=O)c3ccc(cc3)O)OC)O)C" "InChI=InChI=1S/C21H22O5/c1-12(2)4-9-15-16(23)10-19(25-3)20-17(24)11-18(26-21(15)20)13-5-7-14(22)8-6-13/h4-8,10,18,22-23H,9,11H2,1-3H3" "computed SMILES=O=C1C=2C(OC)=CC(O)=C(C2OC(C3=CC=C(O)C=C3)C1)CC=C(C)C" "license=License CC-BY-NC-SA 4.0 International" "author=Plant Biology, The Noble Foundation, Ardmore, OK, US/Dennis Fine, Daniel Wherritt, and Lloyd Sumner" "ionization=ESI" "collision gas=Nitrogen" "peak width=0.025" "date=2013-09-05 04:07:06+02:00" "column=Waters Acquity BEH C18 1.7um x 2.1 x 150 mm" "retention time=823.8" "raw data file=C:\Data\Confirmed Standards\Reinjection 2 uL\Isoxanthohumol (vial 51).d" "SPLASH=splash10-0udi-0009000000-013f7e3252ca095b2f72" "submitter=Aiko Barsch (Bruker)" "MoNA Rating=4.444444444444445"
Num Peaks: 7
223.029 3.503504
233.082 7.007007
234.085 1.001001
353.139 100.000000
354.143 18.818819
355.145 2.402402
421.125 1.201201


Name: Isoxanthohumol
Synon: $:00in-source
DB#: MetaboBASE0212
InChIKey: YKGCBLWILMDSAV-UHFFFAOYSA-N
Precursor_type: [M-H]-
Spectrum_type: MS2
PrecursorMZ: 353.1
Instrument_type: LC-ESI-TOF
Instrument: impact HD
Ion_mode: N
Collision_energy: 30
Formula: C21H22O5
MW: 354
ExactMass: 354.146723804
Comments: "cas number=521-48-2" "SMILES=CC(=CCc1c(cc(c2c1OC(CC2=O)c3ccc(cc3)O)OC)O)C" "InChI=InChI=1S/C21H22O5/c1-12(2)4-9-15-16(23)10-19(25-3)20-17(24)11-18(26-21(15)20)13-5-7-14(22)8-6-13/h4-8,10,18,22-23H,9,11H2,1-3H3" "computed SMILES=O=C1C=2C(OC)=CC(O)=C(C2OC(C3=CC=C(O)C=C3)C1)CC=C(C)C" "license=License CC-BY-NC-SA 4.0 International" "author=Plant Biology, The Noble Foundation, Ardmore, OK, US/Dennis Fine, Daniel Wherritt, and Lloyd Sumner" "ionization=ESI" "isolation width=5" "collision gas=Nitrogen" "peak width=0.016" "date=2013-11-16 03:09:12+01:00" "column=Waters Acquity BEH C18 1.7um x 2.1 x 150 mm" "retention time=823.8" "raw data file=C:\Data\Confirmed Standards\Confirmed stds MSMS 14Nov13\Isoxanthohumol MSMS v51.d" "computed mass accuracy=111.71850467279131" "computed mass error=-0.039447803999962616" "SPLASH=splash10-014i-0910000000-174cfdea3730598890e0" "submitter=Aiko Barsch (Bruker)" "MoNA Rating=4.545454545454546"
Num Peaks: 10
119.0517 100.000000
120.0544 10.710711
133.0684 2.902903
163.0057 2.802803
165.0927 6.006006
175.0092 2.702703
189.0916 3.503504
218.0603 5.005005
233.0846 18.618619
234.0880 2.402402


Name: Isoxanthohumol
Synon: $:00in-source
DB#: MetaboBASE0213
InChIKey: YKGCBLWILMDSAV-UHFFFAOYSA-N
Precursor_type: [M-H]-
Spectrum_type: MS2
PrecursorMZ: 353.1435
Instrument_type: LC-ESI-TOF
Instrument: impact HD
Ion_mode: N
Collision_energy: 20
Formula: C21H22O5
MW: 354
ExactMass: 354.146723804
Comments: "cas number=521-48-2" "SMILES=CC(=CCc1c(cc(c2c1OC(CC2=O)c3ccc(cc3)O)OC)O)C" "InChI=InChI=1S/C21H22O5/c1-12(2)4-9-15-16(23)10-19(25-3)20-17(24)11-18(26-21(15)20)13-5-7-14(22)8-6-13/h4-8,10,18,22-23H,9,11H2,1-3H3" "computed SMILES=O=C1C=2C(OC)=CC(O)=C(C2OC(C3=CC=C(O)C=C3)C1)CC=C(C)C" "license=License CC-BY-NC-SA 4.0 International" "author=Plant Biology, The Noble Foundation, Ardmore, OK, US/Dennis Fine, Daniel Wherritt, and Lloyd Sumner" "ionization=ESI" "isolation width=5" "collision gas=Nitrogen" "peak width=0.016" "date=2013-11-16 03:09:12+01:00" "column=Waters Acquity BEH C18 1.7um x 2.1 x 150 mm" "retention time=823.8" "raw data file=C:\Data\Confirmed Standards\Confirmed stds MSMS 14Nov13\Isoxanthohumol MSMS v51.d" "computed mass accuracy=11.474644160325552" "computed mass error=0.004052196000031927" "SPLASH=splash10-001i-0392000000-6f77bde5094fc814ffc5" "submitter=Aiko Barsch (Bruker)" "MoNA Rating=4.545454545454546"
Num Peaks: 7
119.0514 36.636637
120.0543 3.003003
233.0844 100.000000
234.0878 7.107107
251.0965 3.303303
353.1435 31.031031
354.1468 5.705706


Name: 6-Geranylnaringenin
Synon: $:00in-source
DB#: MetaboBASE0214
InChIKey: YKGCBLWILMDSAV-UHFFFAOYSA-N
Precursor_type: [M-H]-
Spectrum_type: MS2
PrecursorMZ: 407.1882
Instrument_type: LC-ESI-TOF
Instrument: impact HD
Ion_mode: N
Collision_energy: 10
Formula: C25H28O5
MW: 408
ExactMass: 408.193673996
Comments: "cas number=521-48-2" "SMILES=CC(=CCc1c(cc(c2c1OC(CC2=O)c3ccc(cc3)O)OC)O)C" "InChI=InChI=1S/C21H22O5/c1-12(2)4-9-15-16(23)10-19(25-3)20-17(24)11-18(26-21(15)20)13-5-7-14(22)8-6-13/h4-8,10,18,22-23H,9,11H2,1-3H3" "computed SMILES=O=C1C2=C(O)C(=C(O)C=C2OC(C3=CC=C(O)C=C3)C1)CC=C(C)CCC=C(C)C" "computed InChI=InChI=1S/C25H28O5/c1-15(2)5-4-6-16(3)7-12-19-20(27)13-23-24(25(19)29)21(28)14-22(30-23)17-8-10-18(26)11-9-17/h5,7-11,13,22,26-27,29H,4,6,12,14H2,1-3H3/b16-7+" "license=License CC-BY-NC-SA 4.0 International" "author=Plant Biology, The Noble Foundation, Ardmore, OK, US/Dennis Fine, Daniel Wherritt, and Lloyd Sumner" "ionization=ESI" "isolation width=5" "collision gas=Nitrogen" "peak width=0.01" "date=2013-11-16 02:28:18+01:00" "column=Waters Acquity BEH C18 1.7um x 2.1 x 150 mm" "retention time=1495.2" "raw data file=C:\Data\Confirmed Standards\Confirmed stds MSMS 14Nov13\6-Geranylnaringenin MSMS .d" "computed mass accuracy=4.425481877943424" "computed mass error=0.0018020040000124027" "SPLASH=splash10-0a4i-0000900000-05176f8611780234a3c8" "submitter=Aiko Barsch (Bruker)" "MoNA Rating=4.230769230769231"
Num Peaks: 3
407.1882 100.000000
408.1917 18.218218
409.1937 2.402402


Name: 6-Geranylnaringenin
Synon: $:00in-source
DB#: MetaboBASE0215
InChIKey: YKGCBLWILMDSAV-UHFFFAOYSA-N
Instrument_type: LC-ESI-TOF
Instrument: impact HD
Ion_mode: N
Collision_energy: 10
Formula: C25H28O5
MW: 408
ExactMass: 408.193673996
Comments: "cas number=521-48-2" "SMILES=CC(=CCc1c(cc(c2c1OC(CC2=O)c3ccc(cc3)O)OC)O)C" "InChI=InChI=1S/C21H22O5/c1-12(2)4-9-15-16(23)10-19(25-3)20-17(24)11-18(26-21(15)20)13-5-7-14(22)8-6-13/h4-8,10,18,22-23H,9,11H2,1-3H3" "computed SMILES=O=C1C2=C(O)C(=C(O)C=C2OC(C3=CC=C(O)C=C3)C1)CC=C(C)CCC=C(C)C" "computed InChI=InChI=1S/C25H28O5/c1-15(2)5-4-6-16(3)7-12-19-20(27)13-23-24(25(19)29)21(28)14-22(30-23)17-8-10-18(26)11-9-17/h5,7-11,13,22,26-27,29H,4,6,12,14H2,1-3H3/b16-7+" "license=License CC-BY-NC-SA 4.0 International" "author=Plant Biology, The Noble Foundation, Ardmore, OK, US/Dennis Fine, Daniel Wherritt, and Lloyd Sumner" "ionization=ESI" "collision gas=Nitrogen" "peak width=0.025" "date=2013-09-05 03:26:21+02:00" "column=Waters Acquity BEH C18 1.7um x 2.1 x 150 mm" "retention time=1495.2" "raw data file=C:\Data\Confirmed Standards\Reinjection 2 uL\6-Geranylnaringenin (vial 50).d" "SPLASH=splash10-0a4i-0000900000-1ee7c4358367fc905ce1" "submitter=Aiko Barsch (Bruker)" "MoNA Rating=4.0"
Num Peaks: 3
407.188 100.000000
408.191 21.821822
409.194 3.003003


Name: 6-Geranylnaringenin
Synon: $:00in-source
DB#: MetaboBASE0216
InChIKey: YKGCBLWILMDSAV-UHFFFAOYSA-N
Precursor_type: [M-H]-
Spectrum_type: MS2
PrecursorMZ: 407.1882
Instrument_type: LC-ESI-TOF
Instrument: impact HD
Ion_mode: N
Collision_energy: 20
Formula: C25H28O5
MW: 408
ExactMass: 408.19367399600003
Comments: "cas number=521-48-2" "SMILES=CC(=CCc1c(cc(c2c1OC(CC2=O)c3ccc(cc3)O)OC)O)C" "InChI=InChI=1S/C21H22O5/c1-12(2)4-9-15-16(23)10-19(25-3)20-17(24)11-18(26-21(15)20)13-5-7-14(22)8-6-13/h4-8,10,18,22-23H,9,11H2,1-3H3" "computed SMILES=O=C1C2=C(O)C(=C(O)C=C2OC(C3=CC=C(O)C=C3)C1)CC=C(C)CCC=C(C)C" "computed InChI=InChI=1S/C25H28O5/c1-15(2)5-4-6-16(3)7-12-19-20(27)13-23-24(25(19)29)21(28)14-22(30-23)17-8-10-18(26)11-9-17/h5,7-11,13,22,26-27,29H,4,6,12,14H2,1-3H3/b16-7+" "license=License CC-BY-NC-SA 4.0 International" "author=Plant Biology, The Noble Foundation, Ardmore, OK, US/Dennis Fine, Daniel Wherritt, and Lloyd Sumner" "ionization=ESI" "isolation width=5" "collision gas=Nitrogen" "peak width=0.011" "date=2013-11-16 02:28:18+01:00" "column=Waters Acquity BEH C18 1.7um x 2.1 x 150 mm" "retention time=1495.2" "raw data file=C:\Data\Confirmed Standards\Confirmed stds MSMS 14Nov13\6-Geranylnaringenin MSMS .d" "computed mass accuracy=4.425481877803825" "computed mass error=0.0018020039999555593" "SPLASH=splash10-0a4i-0000900000-e3db5d38ef786822b663" "submitter=Aiko Barsch (Bruker)" "MoNA Rating=4.230769230769231"
Num Peaks: 4
287.1314 10.410410
407.1882 100.000000
408.1917 18.718719
409.1945 2.502503


Name: 6-Geranylnaringenin
Synon: $:00in-source
DB#: MetaboBASE0217
InChIKey: YKGCBLWILMDSAV-UHFFFAOYSA-N
Precursor_type: [M-H]-
Spectrum_type: MS2
PrecursorMZ: 407.1882
Instrument_type: LC-ESI-TOF
Instrument: impact HD
Ion_mode: N
Collision_energy: 30
Formula: C25H28O5
MW: 408
ExactMass: 408.193673996
Comments: "cas number=521-48-2" "SMILES=CC(=CCc1c(cc(c2c1OC(CC2=O)c3ccc(cc3)O)OC)O)C" "InChI=InChI=1S/C21H22O5/c1-12(2)4-9-15-16(23)10-19(25-3)20-17(24)11-18(26-21(15)20)13-5-7-14(22)8-6-13/h4-8,10,18,22-23H,9,11H2,1-3H3" "computed SMILES=O=C1C2=C(O)C(=C(O)C=C2OC(C3=CC=C(O)C=C3)C1)CC=C(C)CCC=C(C)C" "computed InChI=InChI=1S/C25H28O5/c1-15(2)5-4-6-16(3)7-12-19-20(27)13-23-24(25(19)29)21(28)14-22(30-23)17-8-10-18(26)11-9-17/h5,7-11,13,22,26-27,29H,4,6,12,14H2,1-3H3/b16-7+" "license=License CC-BY-NC-SA 4.0 International" "author=Plant Biology, The Noble Foundation, Ardmore, OK, US/Dennis Fine, Daniel Wherritt, and Lloyd Sumner" "ionization=ESI" "isolation width=5" "collision gas=Nitrogen" "peak width=0.014" "date=2013-11-16 02:28:18+01:00" "column=Waters Acquity BEH C18 1.7um x 2.1 x 150 mm" "retention time=1495.2" "raw data file=C:\Data\Confirmed Standards\Confirmed stds MSMS 14Nov13\6-Geranylnaringenin MSMS .d" "computed mass accuracy=4.425481877943424" "computed mass error=0.0018020040000124027" "SPLASH=splash10-000i-0190300000-c8b52269c348affd5c4d" "submitter=Aiko Barsch (Bruker)" "MoNA Rating=4.230769230769231"
Num Peaks: 15
119.0542 19.119119
201.1313 2.202202
219.1427 2.802803
243.1405 8.108108
244.1440 2.102102
259.1372 3.103103
261.1515 2.202202
283.0645 4.804805
287.1319 100.000000
288.1351 14.014014
289.1384 2.502503
301.1461 4.004004
313.1468 4.504505
407.1882 41.141141
408.1913 9.409409


Name: 6-Geranylnaringenin
Synon: $:00in-source
DB#: MetaboBASE0218
InChIKey: YKGCBLWILMDSAV-UHFFFAOYSA-N
Precursor_type: [M-H]-
Spectrum_type: MS2
PrecursorMZ: 407.1939
Instrument_type: LC-ESI-TOF
Instrument: impact HD
Ion_mode: N
Collision_energy: 40
Formula: C25H28O5
MW: 408
ExactMass: 408.193673996
Comments: "cas number=521-48-2" "SMILES=CC(=CCc1c(cc(c2c1OC(CC2=O)c3ccc(cc3)O)OC)O)C" "InChI=InChI=1S/C21H22O5/c1-12(2)4-9-15-16(23)10-19(25-3)20-17(24)11-18(26-21(15)20)13-5-7-14(22)8-6-13/h4-8,10,18,22-23H,9,11H2,1-3H3" "computed SMILES=O=C1C2=C(O)C(=C(O)C=C2OC(C3=CC=C(O)C=C3)C1)CC=C(C)CCC=C(C)C" "computed InChI=InChI=1S/C25H28O5/c1-15(2)5-4-6-16(3)7-12-19-20(27)13-23-24(25(19)29)21(28)14-22(30-23)17-8-10-18(26)11-9-17/h5,7-11,13,22,26-27,29H,4,6,12,14H2,1-3H3/b16-7+" "license=License CC-BY-NC-SA 4.0 International" "author=Plant Biology, The Noble Foundation, Ardmore, OK, US/Dennis Fine, Daniel Wherritt, and Lloyd Sumner" "ionization=ESI" "isolation width=5" "collision gas=Nitrogen" "peak width=0.018" "date=2013-11-16 02:28:18+01:00" "column=Waters Acquity BEH C18 1.7um x 2.1 x 150 mm" "retention time=1495.2" "raw data file=C:\Data\Confirmed Standards\Confirmed stds MSMS 14Nov13\6-Geranylnaringenin MSMS .d" "computed mass accuracy=18.423664991058736" "computed mass error=0.007502004000002671" "SPLASH=splash10-014i-0940000000-563e589b151a0bfb9b74" "submitter=Aiko Barsch (Bruker)" "MoNA Rating=4.166666666666666"
Num Peaks: 16
119.0542 100.000000
120.0578 11.111111
137.0323 4.304304
163.0089 8.008008
176.0155 11.211211
177.0211 3.903904
177.1306 4.404404
201.1304 7.907908
202.1363 4.204204
219.1410 7.907908
243.1409 10.510511
283.0635 7.207207
287.1328 32.932933
288.1344 6.106106
301.1478 5.005005
407.1939 3.903904


Name: Kaempferide
Synon: $:00in-source
DB#: MetaboBASE0219
InChIKey: SQFSKOYWJBQGKQ-UHFFFAOYSA-N
Precursor_type: [M-H]-
Spectrum_type: MS2
PrecursorMZ: 299.0585
Instrument_type: LC-ESI-TOF
Instrument: impact HD
Ion_mode: N
Collision_energy: 20
Formula: C16H12O6
MW: 300
ExactMass: 300.06338810399996
Comments: "cas number=491-54-3" "SMILES=COc1ccc(cc1)c2c(c(=O)c3c(cc(cc3o2)O)O)O" "InChI=InChI=1S/C16H12O6/c1-21-10-4-2-8(3-5-10)16-15(20)14(19)13-11(18)6-9(17)7-12(13)22-16/h2-7,17-18,20H,1H3" "computed SMILES=O=C1C(O)=C(OC=2C=C(O)C=C(O)C12)C=3C=CC(OC)=CC3" "license=License CC-BY-NC-SA 4.0 International" "author=Plant Biology, The Noble Foundation, Ardmore, OK, US/Dennis Fine, Daniel Wherritt, and Lloyd Sumner" "ionization=ESI" "isolation width=5" "collision gas=Nitrogen" "peak width=0.014" "date=2013-11-16 05:11:56+01:00" "column=Waters Acquity BEH C18 1.7um x 2.1 x 150 mm" "retention time=882.6" "raw data file=C:\Data\Confirmed Standards\Confirmed stds MSMS 14Nov13\Kaempferide MSMS (vial 55).d" "computed mass accuracy=7.9847120212804485" "computed mass error=0.0023878960000160987" "SPLASH=splash10-001j-0090000000-847e2fc8fc2afde2e8a4" "submitter=Aiko Barsch (Bruker)" "MoNA Rating=4.545454545454546"
Num Peaks: 5
284.0351 100.000000
285.0385 18.618619
299.0585 94.394394
300.0614 13.313313
301.0623 2.302302


Name: Kaempferide
Synon: $:00in-source
DB#: MetaboBASE0220
InChIKey: SQFSKOYWJBQGKQ-UHFFFAOYSA-N
Precursor_type: [M-H]-
Spectrum_type: MS2
PrecursorMZ: 299.1
Instrument_type: LC-ESI-TOF
Instrument: impact HD
Ion_mode: N
Collision_energy: 40
Formula: C16H12O6
MW: 300
ExactMass: 300.06338810399996
Comments: "cas number=491-54-3" "SMILES=COc1ccc(cc1)c2c(c(=O)c3c(cc(cc3o2)O)O)O" "InChI=InChI=1S/C16H12O6/c1-21-10-4-2-8(3-5-10)16-15(20)14(19)13-11(18)6-9(17)7-12(13)22-16/h2-7,17-18,20H,1H3" "computed SMILES=O=C1C(O)=C(OC=2C=C(O)C=C(O)C12)C=3C=CC(OC)=CC3" "license=License CC-BY-NC-SA 4.0 International" "author=Plant Biology, The Noble Foundation, Ardmore, OK, US/Dennis Fine, Daniel Wherritt, and Lloyd Sumner" "ionization=ESI" "isolation width=5" "collision gas=Nitrogen" "peak width=0.017" "date=2013-11-16 05:11:56+01:00" "column=Waters Acquity BEH C18 1.7um x 2.1 x 150 mm" "retention time=882.6" "raw data file=C:\Data\Confirmed Standards\Confirmed stds MSMS 14Nov13\Kaempferide MSMS (vial 55).d" "computed mass accuracy=146.7331862255364" "computed mass error=0.043887896000057935" "SPLASH=splash10-0lz9-0960000000-0dce6ae0f50391aaacb9" "submitter=Aiko Barsch (Bruker)" "MoNA Rating=4.545454545454546"
Num Peaks: 10
107.0147 27.827828
108.0230 26.626627
132.0172 31.831832
150.9958 100.000000
162.9949 35.635636
164.0051 54.054054
227.0351 51.151151
255.0314 38.438438
284.0347 86.486486
285.0353 31.331331


Name: Kaempferide
Synon: $:00in-source
DB#: MetaboBASE0221
InChIKey: SQFSKOYWJBQGKQ-UHFFFAOYSA-N
Precursor_type: [M-H]-
Spectrum_type: MS2
PrecursorMZ: 299.0594
Instrument_type: LC-ESI-TOF
Instrument: impact HD
Ion_mode: N
Collision_energy: 30
Formula: C16H12O6
MW: 300
ExactMass: 300.06338810399996
Comments: "cas number=491-54-3" "SMILES=COc1ccc(cc1)c2c(c(=O)c3c(cc(cc3o2)O)O)O" "InChI=InChI=1S/C16H12O6/c1-21-10-4-2-8(3-5-10)16-15(20)14(19)13-11(18)6-9(17)7-12(13)22-16/h2-7,17-18,20H,1H3" "computed SMILES=O=C1C(O)=C(OC=2C=C(O)C=C(O)C12)C=3C=CC(OC)=CC3" "license=License CC-BY-NC-SA 4.0 International" "author=Plant Biology, The Noble Foundation, Ardmore, OK, US/Dennis Fine, Daniel Wherritt, and Lloyd Sumner" "ionization=ESI" "isolation width=5" "collision gas=Nitrogen" "peak width=0.015" "date=2013-11-16 05:11:56+01:00" "column=Waters Acquity BEH C18 1.7um x 2.1 x 150 mm" "retention time=882.6" "raw data file=C:\Data\Confirmed Standards\Confirmed stds MSMS 14Nov13\Kaempferide MSMS (vial 55).d" "computed mass accuracy=10.994123575508926" "computed mass error=0.003287896000017554" "SPLASH=splash10-001i-0190000000-172ba30afca1dd6391fe" "submitter=Aiko Barsch (Bruker)" "MoNA Rating=4.545454545454546"
Num Peaks: 13
107.0144 2.202202
132.0166 2.502503
150.9964 14.114114
164.0040 3.303303
227.0338 4.504505
228.0415 4.604605
240.0450 2.602603
255.0304 3.403403
283.0268 2.402402
284.0349 100.000000
285.0384 11.611612
286.0402 2.402402
299.0594 5.605606


Name: Kaempferide
Synon: $:00in-source
DB#: MetaboBASE0222
InChIKey: SQFSKOYWJBQGKQ-UHFFFAOYSA-N
Precursor_type: [M-H]-
Spectrum_type: MS2
PrecursorMZ: 299.0585
Instrument_type: LC-ESI-TOF
Instrument: impact HD
Ion_mode: N
Collision_energy: 10
Formula: C16H12O6
MW: 300
ExactMass: 300.06338810399996
Comments: "cas number=491-54-3" "SMILES=COc1ccc(cc1)c2c(c(=O)c3c(cc(cc3o2)O)O)O" "InChI=InChI=1S/C16H12O6/c1-21-10-4-2-8(3-5-10)16-15(20)14(19)13-11(18)6-9(17)7-12(13)22-16/h2-7,17-18,20H,1H3" "computed SMILES=O=C1C(O)=C(OC=2C=C(O)C=C(O)C12)C=3C=CC(OC)=CC3" "license=License CC-BY-NC-SA 4.0 International" "author=Plant Biology, The Noble Foundation, Ardmore, OK, US/Dennis Fine, Daniel Wherritt, and Lloyd Sumner" "ionization=ESI" "isolation width=5" "collision gas=Nitrogen" "peak width=0.012" "date=2013-11-16 05:11:56+01:00" "column=Waters Acquity BEH C18 1.7um x 2.1 x 150 mm" "retention time=882.6" "raw data file=C:\Data\Confirmed Standards\Confirmed stds MSMS 14Nov13\Kaempferide MSMS (vial 55).d" "computed mass accuracy=7.9847120212804485" "computed mass error=0.0023878960000160987" "SPLASH=splash10-0002-0091000000-57350f569441ea5d880f" "submitter=Aiko Barsch (Bruker)" "MoNA Rating=4.545454545454546"
Num Peaks: 3
284.0351 2.102102
299.0585 100.000000
300.0624 12.212212


Name: Kaempferide
Synon: $:00in-source
DB#: MetaboBASE0223
InChIKey: SQFSKOYWJBQGKQ-UHFFFAOYSA-N
Precursor_type: [M-H]-
Spectrum_type: MS2
PrecursorMZ: 299.1
Instrument_type: LC-ESI-TOF
Instrument: impact HD
Ion_mode: N
Collision_energy: 50
Formula: C16H12O6
MW: 300
ExactMass: 300.06338810399996
Comments: "cas number=491-54-3" "SMILES=COc1ccc(cc1)c2c(c(=O)c3c(cc(cc3o2)O)O)O" "InChI=InChI=1S/C16H12O6/c1-21-10-4-2-8(3-5-10)16-15(20)14(19)13-11(18)6-9(17)7-12(13)22-16/h2-7,17-18,20H,1H3" "computed SMILES=O=C1C(O)=C(OC=2C=C(O)C=C(O)C12)C=3C=CC(OC)=CC3" "license=License CC-BY-NC-SA 4.0 International" "author=Plant Biology, The Noble Foundation, Ardmore, OK, US/Dennis Fine, Daniel Wherritt, and Lloyd Sumner" "ionization=ESI" "isolation width=5" "collision gas=Nitrogen" "peak width=0.012" "date=2013-11-16 05:11:56+01:00" "column=Waters Acquity BEH C18 1.7um x 2.1 x 150 mm" "retention time=882.6" "raw data file=C:\Data\Confirmed Standards\Confirmed stds MSMS 14Nov13\Kaempferide MSMS (vial 55).d" "computed mass accuracy=146.7331862255364" "computed mass error=0.043887896000057935" "SPLASH=splash10-03fr-0960000000-979796d59b40dcf37939" "submitter=Aiko Barsch (Bruker)" "MoNA Rating=4.545454545454546"
Num Peaks: 5
132.0155 57.957958
162.9981 100.000000
164.0016 65.065065
227.0343 86.086086
255.0293 77.877878


Name: Kaempferide
Synon: $:00in-source
DB#: MetaboBASE0224
InChIKey: SQFSKOYWJBQGKQ-UHFFFAOYSA-N
Instrument_type: LC-ESI-TOF
Instrument: impact HD
Ion_mode: N
Collision_energy: 10
Formula: C16H12O6
MW: 300
ExactMass: 300.06338810399996
Comments: "cas number=491-54-3" "SMILES=COc1ccc(cc1)c2c(c(=O)c3c(cc(cc3o2)O)O)O" "InChI=InChI=1S/C16H12O6/c1-21-10-4-2-8(3-5-10)16-15(20)14(19)13-11(18)6-9(17)7-12(13)22-16/h2-7,17-18,20H,1H3" "computed SMILES=O=C1C(O)=C(OC=2C=C(O)C=C(O)C12)C=3C=CC(OC)=CC3" "license=License CC-BY-NC-SA 4.0 International" "author=Plant Biology, The Noble Foundation, Ardmore, OK, US/Dennis Fine, Daniel Wherritt, and Lloyd Sumner" "ionization=ESI" "collision gas=Nitrogen" "peak width=0.028" "date=2013-09-05 06:50:11+02:00" "column=Waters Acquity BEH C18 1.7um x 2.1 x 150 mm" "retention time=882.6" "raw data file=C:\Data\Confirmed Standards\Reinjection 2 uL\Kaempferide (vial 55).d" "SPLASH=splash10-0002-0092000000-04e7a3c959e15791ba36" "submitter=Aiko Barsch (Bruker)" "MoNA Rating=4.444444444444445"
Num Peaks: 5
284.034 6.306306
299.057 100.000000
300.061 16.116116
301.062 1.901902
315.052 6.606607


Name: Isorhoifolin
Synon: $:00in-source
DB#: MetaboBASE0225
InChIKey: FKIYLTVJPDLUDL-SLNHTJRHSA-N
Precursor_type: [M-H]-
Spectrum_type: MS2
PrecursorMZ: 577.1602
Instrument_type: LC-ESI-TOF
Instrument: impact HD
Ion_mode: N
Collision_energy: 20
Formula: C27H30O14
MW: 578
ExactMass: 578.1635556399999
Comments: "cas number=552-57-8" "SMILES=C[C@H]1[C@@H]([C@H]([C@H]([C@@H](O1)OC[C@@H]2[C@H]([C@@H]([C@H]([C@@H](O2)OC3=CC(=C4C(=C3)OC(=CC4=O)C5=CC=C(C=C5)O)O)O)O)O)O)O)O" "InChI=InChI=1S/C27H30O14/c1-10-20(31)22(33)24(35)26(38-10)37-9-18-21(32)23(34)25(36)27(41-18)39-13-6-14(29)19-15(30)8-16(40-17(19)7-13)11-2-4-12(28)5-3-11/h2-8,10,18,20-29,31-36H,9H2,1H3/t10-,18+,20-,21+,22+,23-,24+,25+,26+,27+/m0/s1" "computed SMILES=O=C1C=C(OC2=CC(OC3OC(COC4OC(C)C(O)C(O)C4O)C(O)C(O)C3O)=CC(O)=C12)C=5C=CC(O)=CC5" "computed InChI=InChI=1S/C27H30O14/c1-10-20(31)22(33)24(35)26(38-10)37-9-18-21(32)23(34)25(36)27(41-18)39-13-6-14(29)19-15(30)8-16(40-17(19)7-13)11-2-4-12(28)5-3-11/h2-8,10,18,20-29,31-36H,9H2,1H3" "license=License CC-BY-NC-SA 4.0 International" "author=Plant Biology, The Noble Foundation, Ardmore, OK, US/Dennis Fine, Daniel Wherritt, and Lloyd Sumner" "ionization=ESI" "isolation width=5" "collision gas=Nitrogen" "peak width=0.013" "date=2013-11-16 05:52:49+01:00" "column=Waters Acquity BEH C18 1.7um x 2.1 x 150 mm" "retention time=384.6" "raw data file=C:\Data\Confirmed Standards\Confirmed stds MSMS 14Nov13\Isorhoifolin MSMS (vial 56).d" "computed mass accuracy=6.792498859355862" "computed mass error=0.003920360000165601" "SPLASH=splash10-014i-0090040000-98b6a76703dc72bb1de5" "submitter=Aiko Barsch (Bruker)" "MoNA Rating=4.545454545454546"
Num Peaks: 5
269.0475 100.000000
270.0497 14.014014
577.1602 46.646647
578.1673 8.008008
579.1716 4.404404


Name: Isorhoifolin
Synon: $:00in-source
DB#: MetaboBASE0226
InChIKey: FKIYLTVJPDLUDL-SLNHTJRHSA-N
Precursor_type: [M-H]-
Spectrum_type: MS2
PrecursorMZ: 577.21
Instrument_type: LC-ESI-TOF
Instrument: impact HD
Ion_mode: N
Collision_energy: 70
Formula: C27H30O14
MW: 578
ExactMass: 578.1635556399999
Comments: "cas number=552-57-8" "SMILES=C[C@H]1[C@@H]([C@H]([C@H]([C@@H](O1)OC[C@@H]2[C@H]([C@@H]([C@H]([C@@H](O2)OC3=CC(=C4C(=C3)OC(=CC4=O)C5=CC=C(C=C5)O)O)O)O)O)O)O)O" "InChI=InChI=1S/C27H30O14/c1-10-20(31)22(33)24(35)26(38-10)37-9-18-21(32)23(34)25(36)27(41-18)39-13-6-14(29)19-15(30)8-16(40-17(19)7-13)11-2-4-12(28)5-3-11/h2-8,10,18,20-29,31-36H,9H2,1H3/t10-,18+,20-,21+,22+,23-,24+,25+,26+,27+/m0/s1" "computed SMILES=O=C1C=C(OC2=CC(OC3OC(COC4OC(C)C(O)C(O)C4O)C(O)C(O)C3O)=CC(O)=C12)C=5C=CC(O)=CC5" "computed InChI=InChI=1S/C27H30O14/c1-10-20(31)22(33)24(35)26(38-10)37-9-18-21(32)23(34)25(36)27(41-18)39-13-6-14(29)19-15(30)8-16(40-17(19)7-13)11-2-4-12(28)5-3-11/h2-8,10,18,20-29,31-36H,9H2,1H3" "license=License CC-BY-NC-SA 4.0 International" "author=Plant Biology, The Noble Foundation, Ardmore, OK, US/Dennis Fine, Daniel Wherritt, and Lloyd Sumner" "ionization=ESI" "isolation width=5" "collision gas=Nitrogen" "peak width=0.017" "date=2013-11-16 05:52:49+01:00" "column=Waters Acquity BEH C18 1.7um x 2.1 x 150 mm" "retention time=384.6" "raw data file=C:\Data\Confirmed Standards\Confirmed stds MSMS 14Nov13\Isorhoifolin MSMS (vial 56).d" "computed mass accuracy=93.0690043487991" "computed mass error=0.05372036000017033" "SPLASH=splash10-014i-0090000000-36a2014246a42fb91bf1" "submitter=Aiko Barsch (Bruker)" "MoNA Rating=4.545454545454546"
Num Peaks: 4
117.0371 7.707708
268.0398 21.321321
269.0475 100.000000
270.0497 12.212212


Name: Isorhoifolin
Synon: $:00in-source
DB#: MetaboBASE0227
InChIKey: FKIYLTVJPDLUDL-SLNHTJRHSA-N
Precursor_type: [M-H]-
Spectrum_type: MS2
PrecursorMZ: 577.2
Instrument_type: LC-ESI-TOF
Instrument: impact HD
Ion_mode: N
Collision_energy: 40
Formula: C27H30O14
MW: 578
ExactMass: 578.1635556399999
Comments: "cas number=552-57-8" "SMILES=C[C@H]1[C@@H]([C@H]([C@H]([C@@H](O1)OC[C@@H]2[C@H]([C@@H]([C@H]([C@@H](O2)OC3=CC(=C4C(=C3)OC(=CC4=O)C5=CC=C(C=C5)O)O)O)O)O)O)O)O" "InChI=InChI=1S/C27H30O14/c1-10-20(31)22(33)24(35)26(38-10)37-9-18-21(32)23(34)25(36)27(41-18)39-13-6-14(29)19-15(30)8-16(40-17(19)7-13)11-2-4-12(28)5-3-11/h2-8,10,18,20-29,31-36H,9H2,1H3/t10-,18+,20-,21+,22+,23-,24+,25+,26+,27+/m0/s1" "computed SMILES=O=C1C=C(OC2=CC(OC3OC(COC4OC(C)C(O)C(O)C4O)C(O)C(O)C3O)=CC(O)=C12)C=5C=CC(O)=CC5" "computed InChI=InChI=1S/C27H30O14/c1-10-20(31)22(33)24(35)26(38-10)37-9-18-21(32)23(34)25(36)27(41-18)39-13-6-14(29)19-15(30)8-16(40-17(19)7-13)11-2-4-12(28)5-3-11/h2-8,10,18,20-29,31-36H,9H2,1H3" "license=License CC-BY-NC-SA 4.0 International" "author=Plant Biology, The Noble Foundation, Ardmore, OK, US/Dennis Fine, Daniel Wherritt, and Lloyd Sumner" "ionization=ESI" "isolation width=5" "collision gas=Nitrogen" "peak width=0.017" "date=2013-11-16 05:52:49+01:00" "column=Waters Acquity BEH C18 1.7um x 2.1 x 150 mm" "retention time=384.6" "raw data file=C:\Data\Confirmed Standards\Confirmed stds MSMS 14Nov13\Isorhoifolin MSMS (vial 56).d" "computed mass accuracy=75.7455994459103" "computed mass error=0.043720360000179426" "SPLASH=splash10-014i-0090000000-4fa2544a4ecf6257b846" "submitter=Aiko Barsch (Bruker)" "MoNA Rating=4.545454545454546"
Num Peaks: 3
269.0477 100.000000
270.0515 15.115115
271.0529 2.802803


Name: Isorhoifolin
Synon: $:00in-source
DB#: MetaboBASE0228
InChIKey: FKIYLTVJPDLUDL-SLNHTJRHSA-N
Instrument_type: LC-ESI-TOF
Instrument: impact HD
Ion_mode: N
Collision_energy: 10
Formula: C27H30O14
MW: 578
ExactMass: 578.1635556399999
Comments: "cas number=552-57-8" "SMILES=C[C@H]1[C@@H]([C@H]([C@H]([C@@H](O1)OC[C@@H]2[C@H]([C@@H]([C@H]([C@@H](O2)OC3=CC(=C4C(=C3)OC(=CC4=O)C5=CC=C(C=C5)O)O)O)O)O)O)O)O" "InChI=InChI=1S/C27H30O14/c1-10-20(31)22(33)24(35)26(38-10)37-9-18-21(32)23(34)25(36)27(41-18)39-13-6-14(29)19-15(30)8-16(40-17(19)7-13)11-2-4-12(28)5-3-11/h2-8,10,18,20-29,31-36H,9H2,1H3/t10-,18+,20-,21+,22+,23-,24+,25+,26+,27+/m0/s1" "computed SMILES=O=C1C=C(OC2=CC(OC3OC(COC4OC(C)C(O)C(O)C4O)C(O)C(O)C3O)=CC(O)=C12)C=5C=CC(O)=CC5" "computed InChI=InChI=1S/C27H30O14/c1-10-20(31)22(33)24(35)26(38-10)37-9-18-21(32)23(34)25(36)27(41-18)39-13-6-14(29)19-15(30)8-16(40-17(19)7-13)11-2-4-12(28)5-3-11/h2-8,10,18,20-29,31-36H,9H2,1H3" "license=License CC-BY-NC-SA 4.0 International" "author=Plant Biology, The Noble Foundation, Ardmore, OK, US/Dennis Fine, Daniel Wherritt, and Lloyd Sumner" "ionization=ESI" "collision gas=Nitrogen" "peak width=0.026" "date=2013-09-05 07:30:57+02:00" "column=Waters Acquity BEH C18 1.7um x 2.1 x 150 mm" "retention time=384.6" "raw data file=C:\Data\Confirmed Standards\Reinjection 2 uL\Isorhoifolin (vial 56).d" "SPLASH=splash10-004i-0000090000-c4777c3f691ad06be46e" "submitter=Aiko Barsch (Bruker)" "MoNA Rating=4.444444444444445"
Num Peaks: 10
269.047 1.301301
577.159 100.000000
578.162 25.525526
579.165 5.205205
645.146 3.503504
1155.323 7.507508
1156.326 4.604605
1157.330 1.501502
1444.909 1.201201
1445.411 1.001001


Name: Isorhoifolin
Synon: $:00in-source
DB#: MetaboBASE0229
InChIKey: FKIYLTVJPDLUDL-SLNHTJRHSA-N
Precursor_type: [M-H]-
Spectrum_type: MS2
PrecursorMZ: 577.2
Instrument_type: LC-ESI-TOF
Instrument: impact HD
Ion_mode: N
Collision_energy: 50
Formula: C27H30O14
MW: 578
ExactMass: 578.16355564
Comments: "cas number=552-57-8" "SMILES=C[C@H]1[C@@H]([C@H]([C@H]([C@@H](O1)OC[C@@H]2[C@H]([C@@H]([C@H]([C@@H](O2)OC3=CC(=C4C(=C3)OC(=CC4=O)C5=CC=C(C=C5)O)O)O)O)O)O)O)O" "InChI=InChI=1S/C27H30O14/c1-10-20(31)22(33)24(35)26(38-10)37-9-18-21(32)23(34)25(36)27(41-18)39-13-6-14(29)19-15(30)8-16(40-17(19)7-13)11-2-4-12(28)5-3-11/h2-8,10,18,20-29,31-36H,9H2,1H3/t10-,18+,20-,21+,22+,23-,24+,25+,26+,27+/m0/s1" "computed SMILES=O=C1C=C(OC2=CC(OC3OC(COC4OC(C)C(O)C(O)C4O)C(O)C(O)C3O)=CC(O)=C12)C=5C=CC(O)=CC5" "computed InChI=InChI=1S/C27H30O14/c1-10-20(31)22(33)24(35)26(38-10)37-9-18-21(32)23(34)25(36)27(41-18)39-13-6-14(29)19-15(30)8-16(40-17(19)7-13)11-2-4-12(28)5-3-11/h2-8,10,18,20-29,31-36H,9H2,1H3" "license=License CC-BY-NC-SA 4.0 International" "author=Plant Biology, The Noble Foundation, Ardmore, OK, US/Dennis Fine, Daniel Wherritt, and Lloyd Sumner" "ionization=ESI" "isolation width=5" "collision gas=Nitrogen" "peak width=0.018" "date=2013-11-16 05:52:49+01:00" "column=Waters Acquity BEH C18 1.7um x 2.1 x 150 mm" "retention time=384.6" "raw data file=C:\Data\Confirmed Standards\Confirmed stds MSMS 14Nov13\Isorhoifolin MSMS (vial 56).d" "computed mass accuracy=75.74559944571334" "computed mass error=0.04372036000006574" "SPLASH=splash10-014i-0090000000-9b3a96dd95e5ea53a50e" "submitter=Aiko Barsch (Bruker)" "MoNA Rating=4.545454545454546"
Num Peaks: 3
268.0412 5.905906
269.0474 100.000000
270.0505 16.016016


Name: Isorhoifolin
Synon: $:00in-source
DB#: MetaboBASE0230
InChIKey: FKIYLTVJPDLUDL-SLNHTJRHSA-N
Precursor_type: [M-H]-
Spectrum_type: MS2
PrecursorMZ: 577.2
Instrument_type: LC-ESI-TOF
Instrument: impact HD
Ion_mode: N
Collision_energy: 60
Formula: C27H30O14
MW: 578
ExactMass: 578.1635556399999
Comments: "cas number=552-57-8" "SMILES=C[C@H]1[C@@H]([C@H]([C@H]([C@@H](O1)OC[C@@H]2[C@H]([C@@H]([C@H]([C@@H](O2)OC3=CC(=C4C(=C3)OC(=CC4=O)C5=CC=C(C=C5)O)O)O)O)O)O)O)O" "InChI=InChI=1S/C27H30O14/c1-10-20(31)22(33)24(35)26(38-10)37-9-18-21(32)23(34)25(36)27(41-18)39-13-6-14(29)19-15(30)8-16(40-17(19)7-13)11-2-4-12(28)5-3-11/h2-8,10,18,20-29,31-36H,9H2,1H3/t10-,18+,20-,21+,22+,23-,24+,25+,26+,27+/m0/s1" "computed SMILES=O=C1C=C(OC2=CC(OC3OC(COC4OC(C)C(O)C(O)C4O)C(O)C(O)C3O)=CC(O)=C12)C=5C=CC(O)=CC5" "computed InChI=InChI=1S/C27H30O14/c1-10-20(31)22(33)24(35)26(38-10)37-9-18-21(32)23(34)25(36)27(41-18)39-13-6-14(29)19-15(30)8-16(40-17(19)7-13)11-2-4-12(28)5-3-11/h2-8,10,18,20-29,31-36H,9H2,1H3" "license=License CC-BY-NC-SA 4.0 International" "author=Plant Biology, The Noble Foundation, Ardmore, OK, US/Dennis Fine, Daniel Wherritt, and Lloyd Sumner" "ionization=ESI" "isolation width=5" "collision gas=Nitrogen" "peak width=0.02" "date=2013-11-16 05:52:49+01:00" "column=Waters Acquity BEH C18 1.7um x 2.1 x 150 mm" "retention time=384.6" "raw data file=C:\Data\Confirmed Standards\Confirmed stds MSMS 14Nov13\Isorhoifolin MSMS (vial 56).d" "computed mass accuracy=75.7455994459103" "computed mass error=0.043720360000179426" "SPLASH=splash10-014i-0090000000-a0659bb16f6a1d30cf8b" "submitter=Aiko Barsch (Bruker)" "MoNA Rating=4.545454545454546"
Num Peaks: 3
268.0396 11.411411
269.0474 100.000000
270.0509 15.815816


Name: Tiliroside
Synon: $:00in-source
DB#: MetaboBASE0231
InChIKey: DVGGLGXQSFURLP-VWMSDXGPSA-N
Instrument_type: LC-ESI-TOF
Instrument: impact HD
Ion_mode: N
Collision_energy: 10
Formula: C30H26O13
MW: 594
ExactMass: 594.137340892
Comments: "cas number=22153-44-2" "SMILES=c1cc(ccc1/C=C/C(=O)OC[C@@H]2[C@H]([C@@H]([C@H]([C@@H](O2)Oc3c(=O)c4c(cc(cc4oc3c5ccc(cc5)O)O)O)O)O)O)O" "InChI=InChI=1S/C30H26O13/c31-16-6-1-14(2-7-16)3-10-22(35)40-13-21-24(36)26(38)27(39)30(42-21)43-29-25(37)23-19(34)11-18(33)12-20(23)41-28(29)15-4-8-17(32)9-5-15/h1-12,21,24,26-27,30-34,36,38-39H,13H2/b10-3+/t21-,24-,26+,27-,30+/m1/s1" "computed SMILES=O=C(OCC1OC(OC=2C(=O)C=3C(O)=CC(O)=CC3OC2C=4C=CC(O)=CC4)C(O)C(O)C1O)C=CC5=CC=C(O)C=C5" "license=License CC-BY-NC-SA 4.0 International" "author=Plant Biology, The Noble Foundation, Ardmore, OK, US/Dennis Fine, Daniel Wherritt, and Lloyd Sumner" "ionization=ESI" "collision gas=Nitrogen" "peak width=0.024" "date=2013-09-05 06:09:25+02:00" "column=Waters Acquity BEH C18 1.7um x 2.1 x 150 mm" "retention time=546" "raw data file=C:\Data\Confirmed Standards\Reinjection 2 uL\Tiliroside (vial 54).d" "SPLASH=splash10-0006-0100090000-8f100012440b79b347ba" "submitter=Aiko Barsch (Bruker)" "MoNA Rating=4.444444444444445"
Num Peaks: 8
593.128 100.000000
594.132 28.428428
595.134 6.006006
615.110 5.505506
616.113 1.601602
1187.263 9.809810
1188.266 6.906907
1189.270 2.402402


Name: Tiliroside
Synon: $:00in-source
DB#: MetaboBASE0232
InChIKey: DVGGLGXQSFURLP-VWMSDXGPSA-N
Precursor_type: [M-H]-
Spectrum_type: MS2
PrecursorMZ: 593.1353
Instrument_type: LC-ESI-TOF
Instrument: impact HD
Ion_mode: N
Collision_energy: 20
Formula: C30H26O13
MW: 594
ExactMass: 594.137340892
Comments: "cas number=22153-44-2" "SMILES=c1cc(ccc1/C=C/C(=O)OC[C@@H]2[C@H]([C@@H]([C@H]([C@@H](O2)Oc3c(=O)c4c(cc(cc4oc3c5ccc(cc5)O)O)O)O)O)O)O" "InChI=InChI=1S/C30H26O13/c31-16-6-1-14(2-7-16)3-10-22(35)40-13-21-24(36)26(38)27(39)30(42-21)43-29-25(37)23-19(34)11-18(33)12-20(23)41-28(29)15-4-8-17(32)9-5-15/h1-12,21,24,26-27,30-34,36,38-39H,13H2/b10-3+/t21-,24-,26+,27-,30+/m1/s1" "computed SMILES=O=C(OCC1OC(OC=2C(=O)C=3C(O)=CC(O)=CC3OC2C=4C=CC(O)=CC4)C(O)C(O)C1O)C=CC5=CC=C(O)C=C5" "license=License CC-BY-NC-SA 4.0 International" "author=Plant Biology, The Noble Foundation, Ardmore, OK, US/Dennis Fine, Daniel Wherritt, and Lloyd Sumner" "ionization=ESI" "isolation width=5" "collision gas=Nitrogen" "peak width=0.0082" "date=2013-11-16 04:31:01+01:00" "column=Waters Acquity BEH C18 1.7um x 2.1 x 150 mm" "retention time=546" "raw data file=G:\Sumner Lab Data Management Workspace Jun2013\Instrumentation\Bruker maXis QToF MS\Data\Z Lei Confirmed Standards\Confirmed stds MSMS 14Nov13\Tiliroside MSMS (vial 54).d" "computed mass accuracy=8.826161585862417" "computed mass error=0.005235108000078981" "SPLASH=splash10-0006-0000090000-fc5ec4643f94e40a40c3" "submitter=Aiko Barsch (Bruker)" "MoNA Rating=4.545454545454546"
Num Peaks: 4
285.0425 3.103103
593.1353 100.000000
594.1390 23.823824
595.1412 4.304304


Name: Tiliroside
Synon: $:00in-source
DB#: MetaboBASE0233
InChIKey: DVGGLGXQSFURLP-VWMSDXGPSA-N
Precursor_type: [M-H]-
Spectrum_type: MS2
PrecursorMZ: 593.1
Instrument_type: LC-ESI-TOF
Instrument: impact HD
Ion_mode: N
Collision_energy: 50
Formula: C30H26O13
MW: 594
ExactMass: 594.137340892
Comments: "cas number=22153-44-2" "SMILES=c1cc(ccc1/C=C/C(=O)OC[C@@H]2[C@H]([C@@H]([C@H]([C@@H](O2)Oc3c(=O)c4c(cc(cc4oc3c5ccc(cc5)O)O)O)O)O)O)O" "InChI=InChI=1S/C30H26O13/c31-16-6-1-14(2-7-16)3-10-22(35)40-13-21-24(36)26(38)27(39)30(42-21)43-29-25(37)23-19(34)11-18(33)12-20(23)41-28(29)15-4-8-17(32)9-5-15/h1-12,21,24,26-27,30-34,36,38-39H,13H2/b10-3+/t21-,24-,26+,27-,30+/m1/s1" "computed SMILES=O=C(OCC1OC(OC=2C(=O)C=3C(O)=CC(O)=CC3OC2C=4C=CC(O)=CC4)C(O)C(O)C1O)C=CC5=CC=C(O)C=C5" "license=License CC-BY-NC-SA 4.0 International" "author=Plant Biology, The Noble Foundation, Ardmore, OK, US/Dennis Fine, Daniel Wherritt, and Lloyd Sumner" "ionization=ESI" "isolation width=5" "collision gas=Nitrogen" "peak width=0.013" "date=2013-11-16 04:31:01+01:00" "column=Waters Acquity BEH C18 1.7um x 2.1 x 150 mm" "retention time=546" "raw data file=G:\Sumner Lab Data Management Workspace Jun2013\Instrumentation\Bruker maXis QToF MS\Data\Z Lei Confirmed Standards\Confirmed stds MSMS 14Nov13\Tiliroside MSMS (vial 54).d" "computed mass accuracy=50.6911009946511" "computed mass error=-0.030064891999927568" "SPLASH=splash10-001r-0090000000-cfec131bf92efe65af7d" "submitter=Aiko Barsch (Bruker)" "MoNA Rating=4.545454545454546"
Num Peaks: 9
145.0306 3.303303
227.0366 12.312312
229.0515 4.104104
255.0317 30.330330
256.0382 10.210210
257.0455 6.306306
284.0351 100.000000
285.0418 60.260260
286.0453 6.706707


Name: Tiliroside
Synon: $:00in-source
DB#: MetaboBASE0234
InChIKey: DVGGLGXQSFURLP-VWMSDXGPSA-N
Precursor_type: [M-H]-
Spectrum_type: MS2
PrecursorMZ: 593.1351
Instrument_type: LC-ESI-TOF
Instrument: impact HD
Ion_mode: N
Collision_energy: 40
Formula: C30H26O13
MW: 594
ExactMass: 594.137340892
Comments: "cas number=22153-44-2" "SMILES=c1cc(ccc1/C=C/C(=O)OC[C@@H]2[C@H]([C@@H]([C@H]([C@@H](O2)Oc3c(=O)c4c(cc(cc4oc3c5ccc(cc5)O)O)O)O)O)O)O" "InChI=InChI=1S/C30H26O13/c31-16-6-1-14(2-7-16)3-10-22(35)40-13-21-24(36)26(38)27(39)30(42-21)43-29-25(37)23-19(34)11-18(33)12-20(23)41-28(29)15-4-8-17(32)9-5-15/h1-12,21,24,26-27,30-34,36,38-39H,13H2/b10-3+/t21-,24-,26+,27-,30+/m1/s1" "computed SMILES=O=C(OCC1OC(OC=2C(=O)C=3C(O)=CC(O)=CC3OC2C=4C=CC(O)=CC4)C(O)C(O)C1O)C=CC5=CC=C(O)C=C5" "license=License CC-BY-NC-SA 4.0 International" "author=Plant Biology, The Noble Foundation, Ardmore, OK, US/Dennis Fine, Daniel Wherritt, and Lloyd Sumner" "ionization=ESI" "isolation width=5" "collision gas=Nitrogen" "peak width=0.016" "date=2013-11-16 04:31:01+01:00" "column=Waters Acquity BEH C18 1.7um x 2.1 x 150 mm" "retention time=546" "raw data file=G:\Sumner Lab Data Management Workspace Jun2013\Instrumentation\Bruker maXis QToF MS\Data\Z Lei Confirmed Standards\Confirmed stds MSMS 14Nov13\Tiliroside MSMS (vial 54).d" "computed mass accuracy=8.4889732541802" "computed mass error=0.005035108000015498" "SPLASH=splash10-0019-0090000000-ad81e03cb2a2ff5bdcdf" "submitter=Aiko Barsch (Bruker)" "MoNA Rating=4.545454545454546"
Num Peaks: 10
145.0303 2.202202
227.0366 2.302302
255.0323 5.705706
256.0384 2.702703
284.0350 100.000000
285.0424 92.592593
286.0453 10.410410
307.0839 2.302302
447.0981 2.402402
593.1351 5.505506


Name: Luteolin-7,3'-di-O-glucoside
Synon: $:00in-source
DB#: MetaboBASE0235
InChIKey: BISZYPSIZGKOFA-ODYYMYHNSA-N
Precursor_type: [M-H]-
Spectrum_type: MS2
PrecursorMZ: 609.1514
Instrument_type: LC-ESI-TOF
Instrument: impact HD
Ion_mode: N
Collision_energy: 20
Formula: C27H30O16
MW: 610
ExactMass: 610.15338488
Comments: "cas number=52187-80-1" "SMILES=C1=CC(=C(C=C1C2=CC(=O)C3=C(C=C(C=C3O2)OC4C(C(C(C(O4)CO)O)O)O)O)OC5C(C(C(C(O5)CO)O)O)O)O" "InChI=InChI=1S/C27H30O16/c28-7-17-20(33)22(35)24(37)26(42-17)39-10-4-12(31)19-13(32)6-14(40-16(19)5-10)9-1-2-11(30)15(3-9)41-27-25(38)23(36)21(34)18(8-29)43-27/h1-6,17-18,20-31,33-38H,7-8H2/t17?,18?,20-,21-,22-,23-,24?,25?,26-,27-/m1/s1" "computed SMILES=O=C1C=C(OC2=CC(OC3OC(CO)C(O)C(O)C3O)=CC(O)=C12)C=4C=CC(O)=C(OC5OC(CO)C(O)C(O)C5O)C4" "computed InChI=InChI=1S/C27H30O16/c28-7-17-20(33)22(35)24(37)26(42-17)39-10-4-12(31)19-13(32)6-14(40-16(19)5-10)9-1-2-11(30)15(3-9)41-27-25(38)23(36)21(34)18(8-29)43-27/h1-6,17-18,20-31,33-38H,7-8H2" "license=License CC-BY-NC-SA 4.0 International" "author=Plant Biology, The Noble Foundation, Ardmore, OK, US/Dennis Fine, Daniel Wherritt, and Lloyd Sumner" "ionization=ESI" "isolation width=5" "collision gas=Nitrogen" "peak width=0.015" "date=2013-11-16 06:33:44+01:00" "column=Waters Acquity BEH C18 1.7um x 2.1 x 150 mm" "retention time=288" "raw data file=C:\Data\Confirmed Standards\Confirmed stds MSMS 14Nov13\Luetolin 7,3'Diglucoside MSMS .d" "computed mass accuracy=8.686050791376434" "computed mass error=0.005291120000038063" "SPLASH=splash10-0a4j-0000509000-c51b82803d40131f6b51" "submitter=Aiko Barsch (Bruker)" "MoNA Rating=4.545454545454546"
Num Peaks: 7
285.0424 5.105105
447.0971 69.569570
448.1015 13.613614
449.1031 4.604605
609.1514 100.000000
610.1549 27.827828
611.1592 4.004004


Name: Luteolin-7,3'-di-O-glucoside
Synon: $:00in-source
DB#: MetaboBASE0236
InChIKey: BISZYPSIZGKOFA-ODYYMYHNSA-N
Precursor_type: [M-H]-
Spectrum_type: MS2
PrecursorMZ: 609.14
Instrument_type: LC-ESI-TOF
Instrument: impact HD
Ion_mode: N
Collision_energy: 40
Formula: C27H30O16
MW: 610
ExactMass: 610.1533848800001
Comments: "cas number=52187-80-1" "SMILES=C1=CC(=C(C=C1C2=CC(=O)C3=C(C=C(C=C3O2)OC4C(C(C(C(O4)CO)O)O)O)O)OC5C(C(C(C(O5)CO)O)O)O)O" "InChI=InChI=1S/C27H30O16/c28-7-17-20(33)22(35)24(37)26(42-17)39-10-4-12(31)19-13(32)6-14(40-16(19)5-10)9-1-2-11(30)15(3-9)41-27-25(38)23(36)21(34)18(8-29)43-27/h1-6,17-18,20-31,33-38H,7-8H2/t17?,18?,20-,21-,22-,23-,24?,25?,26-,27-/m1/s1" "computed SMILES=O=C1C=C(OC2=CC(OC3OC(CO)C(O)C(O)C3O)=CC(O)=C12)C=4C=CC(O)=C(OC5OC(CO)C(O)C(O)C5O)C4" "computed InChI=InChI=1S/C27H30O16/c28-7-17-20(33)22(35)24(37)26(42-17)39-10-4-12(31)19-13(32)6-14(40-16(19)5-10)9-1-2-11(30)15(3-9)41-27-25(38)23(36)21(34)18(8-29)43-27/h1-6,17-18,20-31,33-38H,7-8H2" "license=License CC-BY-NC-SA 4.0 International" "author=Plant Biology, The Noble Foundation, Ardmore, OK, US/Dennis Fine, Daniel Wherritt, and Lloyd Sumner" "ionization=ESI" "isolation width=5" "collision gas=Nitrogen" "peak width=0.015" "date=2013-11-16 06:33:44+01:00" "column=Waters Acquity BEH C18 1.7um x 2.1 x 150 mm" "retention time=288" "raw data file=C:\Data\Confirmed Standards\Confirmed stds MSMS 14Nov13\Luetolin 7,3'Diglucoside MSMS .d" "computed mass accuracy=10.028696194727255" "computed mass error=-0.0061088800000561605" "SPLASH=splash10-000b-0080900000-62762ff55c1a89b4147c" "submitter=Aiko Barsch (Bruker)" "MoNA Rating=4.545454545454546"
Num Peaks: 7
284.0344 5.705706
285.0429 98.898899
286.0463 12.312312
287.0484 2.102102
447.0971 100.000000
448.1004 16.116116
449.1025 3.303303


Name: Luteolin-7,3'-di-O-glucoside
Synon: $:00in-source
DB#: MetaboBASE0237
InChIKey: BISZYPSIZGKOFA-ODYYMYHNSA-N
Precursor_type: [M-H]-
Spectrum_type: MS2
PrecursorMZ: 609.14
Instrument_type: LC-ESI-TOF
Instrument: impact HD
Ion_mode: N
Collision_energy: 60
Formula: C27H30O16
MW: 610
ExactMass: 610.15338488
Comments: "cas number=52187-80-1" "SMILES=C1=CC(=C(C=C1C2=CC(=O)C3=C(C=C(C=C3O2)OC4C(C(C(C(O4)CO)O)O)O)O)OC5C(C(C(C(O5)CO)O)O)O)O" "InChI=InChI=1S/C27H30O16/c28-7-17-20(33)22(35)24(37)26(42-17)39-10-4-12(31)19-13(32)6-14(40-16(19)5-10)9-1-2-11(30)15(3-9)41-27-25(38)23(36)21(34)18(8-29)43-27/h1-6,17-18,20-31,33-38H,7-8H2/t17?,18?,20-,21-,22-,23-,24?,25?,26-,27-/m1/s1" "computed SMILES=O=C1C=C(OC2=CC(OC3OC(CO)C(O)C(O)C3O)=CC(O)=C12)C=4C=CC(O)=C(OC5OC(CO)C(O)C(O)C5O)C4" "computed InChI=InChI=1S/C27H30O16/c28-7-17-20(33)22(35)24(37)26(42-17)39-10-4-12(31)19-13(32)6-14(40-16(19)5-10)9-1-2-11(30)15(3-9)41-27-25(38)23(36)21(34)18(8-29)43-27/h1-6,17-18,20-31,33-38H,7-8H2" "license=License CC-BY-NC-SA 4.0 International" "author=Plant Biology, The Noble Foundation, Ardmore, OK, US/Dennis Fine, Daniel Wherritt, and Lloyd Sumner" "ionization=ESI" "isolation width=5" "collision gas=Nitrogen" "peak width=0.015" "date=2013-11-16 06:33:44+01:00" "column=Waters Acquity BEH C18 1.7um x 2.1 x 150 mm" "retention time=288" "raw data file=C:\Data\Confirmed Standards\Confirmed stds MSMS 14Nov13\Luetolin 7,3'Diglucoside MSMS .d" "computed mass accuracy=10.02869619454062" "computed mass error=-0.006108879999942474" "SPLASH=splash10-000i-0090000000-cd8749434b2c329cbc5f" "submitter=Aiko Barsch (Bruker)" "MoNA Rating=4.545454545454546"
Num Peaks: 8
255.0318 4.404404
283.0280 8.208208
284.0351 39.039039
285.0431 100.000000
286.0465 15.815816
287.0474 2.702703
447.0956 6.806807
448.1028 2.002002


Name: Luteolin-7,3'-di-O-glucoside
Synon: $:00in-source
DB#: MetaboBASE0238
InChIKey: BISZYPSIZGKOFA-ODYYMYHNSA-N
Instrument_type: LC-ESI-TOF
Instrument: impact HD
Ion_mode: N
Collision_energy: 10
Formula: C27H30O16
MW: 610
ExactMass: 610.15338488
Comments: "cas number=52187-80-1" "SMILES=C1=CC(=C(C=C1C2=CC(=O)C3=C(C=C(C=C3O2)OC4C(C(C(C(O4)CO)O)O)O)O)OC5C(C(C(C(O5)CO)O)O)O)O" "InChI=InChI=1S/C27H30O16/c28-7-17-20(33)22(35)24(37)26(42-17)39-10-4-12(31)19-13(32)6-14(40-16(19)5-10)9-1-2-11(30)15(3-9)41-27-25(38)23(36)21(34)18(8-29)43-27/h1-6,17-18,20-31,33-38H,7-8H2/t17?,18?,20-,21-,22-,23-,24?,25?,26-,27-/m1/s1" "computed SMILES=O=C1C=C(OC2=CC(OC3OC(CO)C(O)C(O)C3O)=CC(O)=C12)C=4C=CC(O)=C(OC5OC(CO)C(O)C(O)C5O)C4" "computed InChI=InChI=1S/C27H30O16/c28-7-17-20(33)22(35)24(37)26(42-17)39-10-4-12(31)19-13(32)6-14(40-16(19)5-10)9-1-2-11(30)15(3-9)41-27-25(38)23(36)21(34)18(8-29)43-27/h1-6,17-18,20-31,33-38H,7-8H2" "license=License CC-BY-NC-SA 4.0 International" "author=Plant Biology, The Noble Foundation, Ardmore, OK, US/Dennis Fine, Daniel Wherritt, and Lloyd Sumner" "ionization=ESI" "collision gas=Nitrogen" "peak width=0.025" "date=2013-09-05 08:11:42+02:00" "column=Waters Acquity BEH C18 1.7um x 2.1 x 150 mm" "retention time=288" "raw data file=C:\Data\Confirmed Standards\Reinjection 2 uL\Luteolin-7,3'-di-O-glucoside.d" "SPLASH=splash10-0a4i-0000009000-1752cfe2ee4661423e3f" "submitter=Aiko Barsch (Bruker)" "MoNA Rating=4.444444444444445"
Num Peaks: 8
447.089 1.901902
609.141 100.000000
610.145 25.225225
611.147 5.205205
677.128 3.303303
1219.292 8.208208
1220.296 4.504505
1221.297 1.501502


Name: Luteolin-7,3'-di-O-glucoside
Synon: $:00in-source
DB#: MetaboBASE0239
InChIKey: BISZYPSIZGKOFA-ODYYMYHNSA-N
Precursor_type: [M-H]-
Spectrum_type: MS2
PrecursorMZ: 609.14
Instrument_type: LC-ESI-TOF
Instrument: impact HD
Ion_mode: N
Collision_energy: 50
Formula: C27H30O16
MW: 610
ExactMass: 610.1533848800001
Comments: "cas number=52187-80-1" "SMILES=C1=CC(=C(C=C1C2=CC(=O)C3=C(C=C(C=C3O2)OC4C(C(C(C(O4)CO)O)O)O)O)OC5C(C(C(C(O5)CO)O)O)O)O" "InChI=InChI=1S/C27H30O16/c28-7-17-20(33)22(35)24(37)26(42-17)39-10-4-12(31)19-13(32)6-14(40-16(19)5-10)9-1-2-11(30)15(3-9)41-27-25(38)23(36)21(34)18(8-29)43-27/h1-6,17-18,20-31,33-38H,7-8H2/t17?,18?,20-,21-,22-,23-,24?,25?,26-,27-/m1/s1" "computed SMILES=O=C1C=C(OC2=CC(OC3OC(CO)C(O)C(O)C3O)=CC(O)=C12)C=4C=CC(O)=C(OC5OC(CO)C(O)C(O)C5O)C4" "computed InChI=InChI=1S/C27H30O16/c28-7-17-20(33)22(35)24(37)26(42-17)39-10-4-12(31)19-13(32)6-14(40-16(19)5-10)9-1-2-11(30)15(3-9)41-27-25(38)23(36)21(34)18(8-29)43-27/h1-6,17-18,20-31,33-38H,7-8H2" "license=License CC-BY-NC-SA 4.0 International" "author=Plant Biology, The Noble Foundation, Ardmore, OK, US/Dennis Fine, Daniel Wherritt, and Lloyd Sumner" "ionization=ESI" "isolation width=5" "collision gas=Nitrogen" "peak width=0.015" "date=2013-11-16 06:33:44+01:00" "column=Waters Acquity BEH C18 1.7um x 2.1 x 150 mm" "retention time=288" "raw data file=C:\Data\Confirmed Standards\Confirmed stds MSMS 14Nov13\Luetolin 7,3'Diglucoside MSMS .d" "computed mass accuracy=10.028696194727255" "computed mass error=-0.0061088800000561605" "SPLASH=splash10-000i-0090200000-dcdf020c00a7b363c4c4" "submitter=Aiko Barsch (Bruker)" "MoNA Rating=4.545454545454546"
Num Peaks: 6
283.0287 2.102102
284.0350 13.613614
285.0433 100.000000
286.0460 11.011011
447.0975 26.426426
448.1016 4.704705


Name: Hederagenin
Synon: $:00in-source
DB#: MetaboBASE0240
InChIKey: PGOYMURMZNDHNS-MYPRUECHSA-N
Precursor_type: [M-H]-
Spectrum_type: MS2
PrecursorMZ: 471.3573
Instrument_type: LC-ESI-TOF
Instrument: impact HD
Ion_mode: N
Collision_energy: 40
Formula: C30H48O4
MW: 472
ExactMass: 472.355260016
Comments: "cas number=465-99-6" "SMILES=C[C@]12CC[C@@H]([C@@]([C@@H]1CC[C@@]3([C@@H]2CC=C4[C@]3(CC[C@@]5([C@H]4CC(CC5)(C)C)C(=O)O)C)C)(C)CO)O" "InChI=InChI=1S/C30H48O4/c1-25(2)13-15-30(24(33)34)16-14-28(5)19(20(30)17-25)7-8-22-26(3)11-10-23(32)27(4,18-31)21(26)9-12-29(22,28)6/h7,20-23,31-32H,8-18H2,1-6H3,(H,33,34)/t20-,21+,22+,23-,26-,27-,28+,29+,30-/m0/s1" "computed SMILES=O=C(O)C12CCC(C)(C)CC2C3=CCC4C5(C)CCC(O)C(C)(CO)C5CCC4(C)C3(C)CC1" "license=License CC-BY-NC-SA 4.0 International" "author=Plant Biology, The Noble Foundation, Ardmore, OK, US/Dennis Fine, Daniel Wherritt, and Lloyd Sumner" "ionization=ESI" "isolation width=5" "collision gas=Nitrogen" "peak width=0.015" "date=2013-11-18 20:49:58+01:00" "column=Waters Acquity BEH C18 1.7um x 2.1 x 150 mm" "retention time=1343.4" "raw data file=C:\Data\Confirmed Standards\Confirmed stds MSMS 14Nov13\Hederagenin MSMS (vial 70).d" "computed mass accuracy=19.76416616441755" "computed mass error=0.009315984000011213" "SPLASH=splash10-00di-0000900000-7c3f336e3c13e550dc6c" "submitter=Aiko Barsch (Bruker)" "MoNA Rating=4.545454545454546"
Num Peaks: 4
407.3367 15.215215
471.3573 100.000000
472.3577 33.833834
473.3643 8.108108


Name: Hederagenin
Synon: $:00in-source
DB#: MetaboBASE0241
InChIKey: PGOYMURMZNDHNS-MYPRUECHSA-N
Instrument_type: LC-ESI-TOF
Instrument: impact HD
Ion_mode: N
Collision_energy: 10
Formula: C30H48O4
MW: 472
ExactMass: 472.355260016
Comments: "cas number=465-99-6" "SMILES=C[C@]12CC[C@@H]([C@@]([C@@H]1CC[C@@]3([C@@H]2CC=C4[C@]3(CC[C@@]5([C@H]4CC(CC5)(C)C)C(=O)O)C)C)(C)CO)O" "InChI=InChI=1S/C30H48O4/c1-25(2)13-15-30(24(33)34)16-14-28(5)19(20(30)17-25)7-8-22-26(3)11-10-23(32)27(4,18-31)21(26)9-12-29(22,28)6/h7,20-23,31-32H,8-18H2,1-6H3,(H,33,34)/t20-,21+,22+,23-,26-,27-,28+,29+,30-/m0/s1" "computed SMILES=O=C(O)C12CCC(C)(C)CC2C3=CCC4C5(C)CCC(O)C(C)(CO)C5CCC4(C)C3(C)CC1" "license=License CC-BY-NC-SA 4.0 International" "author=Plant Biology, The Noble Foundation, Ardmore, OK, US/Dennis Fine, Daniel Wherritt, and Lloyd Sumner" "ionization=ESI" "collision gas=Nitrogen" "peak width=0.02" "date=2013-11-07 03:23:24+01:00" "column=Waters Acquity BEH C18 1.7um x 2.1 x 150 mm" "retention time=1343.4" "raw data file=C:\Data\Confirmed Standards\Confirmed Stds 6Nov13\Hederagenin (vial 70).d" "SPLASH=splash10-00di-0000900002-91cef3331c8f57f19bb1" "submitter=Aiko Barsch (Bruker)" "MoNA Rating=4.444444444444445"
Num Peaks: 13
471.3485 100.000000
472.3519 27.127127
473.3545 4.104104
539.3355 7.307307
540.3392 2.202202
607.3224 1.801802
943.7027 15.515516
944.7061 9.209209
945.7084 2.702703
965.6838 2.102102
966.6891 1.201201
1416.0594 1.301301
1417.0618 1.301301


Name: 7-Hydroxy-4'-methoxyflavone
Synon: $:00in-source
DB#: MetaboBASE0242
InChIKey: SQVXWIUVAILQRH-UHFFFAOYSA-N
Instrument_type: LC-ESI-TOF
Instrument: impact HD
Ion_mode: N
Collision_energy: 10
Formula: C16H12O4
MW: 268
ExactMass: 268.073558864
Comments: "cas number=487-17-2" "SMILES=COc1ccc(cc1)c2cc(=O)c3ccc(cc3o2)O" "InChI=InChI=1S/C16H12O4/c1-19-12-5-2-10(3-6-12)15-9-14(18)13-7-4-11(17)8-16(13)20-15/h2-9,17H,1H3" "computed SMILES=O=C1C=C(OC2=CC(O)=CC=C12)C=3C=CC(OC)=CC3" "license=License CC-BY-NC-SA 4.0 International" "author=Plant Biology, The Noble Foundation, Ardmore, OK, US/Dennis Fine, Daniel Wherritt, and Lloyd Sumner" "ionization=ESI" "collision gas=Nitrogen" "peak width=0.017" "date=2013-11-07 06:06:28+01:00" "column=Waters Acquity BEH C18 1.7um x 2.1 x 150 mm" "retention time=694.2" "raw data file=C:\Data\Confirmed Standards\Confirmed Stds 6Nov13\7-Hydroxy4-methoxyflavone.d" "SPLASH=splash10-014i-0090000000-df405c084cc24c2fbd6c" "submitter=Aiko Barsch (Bruker)" "MoNA Rating=4.444444444444445"
Num Peaks: 5
252.0420 12.212212
253.0453 1.701702
267.0654 100.000000
268.0687 15.415415
269.0710 1.801802


Name: 7-Hydroxy-4'-methoxyflavone
Synon: $:00in-source
DB#: MetaboBASE0243
InChIKey: SQVXWIUVAILQRH-UHFFFAOYSA-N
Instrument_type: LC-ESI-TOF
Instrument: impact HD
Ion_mode: N
Formula: C16H12O4
MW: 268
ExactMass: 268.073558864
Comments: "cas number=487-17-2" "SMILES=COc1ccc(cc1)c2cc(=O)c3ccc(cc3o2)O" "InChI=InChI=1S/C16H12O4/c1-19-12-5-2-10(3-6-12)15-9-14(18)13-7-4-11(17)8-16(13)20-15/h2-9,17H,1H3" "computed SMILES=O=C1C=C(OC2=CC(O)=CC=C12)C=3C=CC(OC)=CC3" "license=License CC-BY-NC-SA 4.0 International" "author=Plant Biology, The Noble Foundation, Ardmore, OK, US/Dennis Fine, Daniel Wherritt, and Lloyd Sumner" "ionization=ESI" "collision gas=Nitrogen" "peak width=0.014" "date=2013-11-23 00:43:36+01:00" "column=Waters Acquity BEH C18 1.7um x 2.1 x 150 mm" "retention time=694.2" "raw data file=C:\Data\Confirmed Standards\Confirmed stds MSMS 22Nov13\7Methoxy4'hydroxyflavone MSMS.d" "SPLASH=splash10-014i-0290000000-a39443fcb4f9eb572a40" "submitter=Aiko Barsch (Bruker)" "MoNA Rating=3.888888888888889"
Num Peaks: 20
117.0351 29.129129
118.0384 2.002002
132.0217 0.500501
135.0089 1.701702
167.0502 0.600601
195.0453 1.601602
223.0401 2.402402
224.0462 0.700701
252.0432 42.942943
253.0461 5.205205
254.0481 0.600601
267.0668 100.000000
268.0702 11.811812
269.0721 1.301301
535.1419 1.801802
536.1461 0.600601
557.1232 1.501502
857.1396 1.001001
1124.2123 1.701702
1125.2119 1.101101


Name: 7-Hydroxy-4'-methoxyflavone
Synon: $:00in-source
DB#: MetaboBASE0244
InChIKey: SQVXWIUVAILQRH-UHFFFAOYSA-N
Precursor_type: [M-H]-
Spectrum_type: MS2
PrecursorMZ: 267.0661
Instrument_type: LC-ESI-TOF
Instrument: impact HD
Ion_mode: N
Collision_energy: 30
Formula: C16H12O4
MW: 268
ExactMass: 268.073558864
Comments: "cas number=487-17-2" "SMILES=COc1ccc(cc1)c2cc(=O)c3ccc(cc3o2)O" "InChI=InChI=1S/C16H12O4/c1-19-12-5-2-10(3-6-12)15-9-14(18)13-7-4-11(17)8-16(13)20-15/h2-9,17H,1H3" "computed SMILES=O=C1C=C(OC2=CC(O)=CC=C12)C=3C=CC(OC)=CC3" "license=License CC-BY-NC-SA 4.0 International" "author=Plant Biology, The Noble Foundation, Ardmore, OK, US/Dennis Fine, Daniel Wherritt, and Lloyd Sumner" "ionization=ESI" "isolation width=5" "collision gas=Nitrogen" "peak width=0.015" "date=2013-11-23 00:43:36+01:00" "column=Waters Acquity BEH C18 1.7um x 2.1 x 150 mm" "retention time=694.2" "raw data file=C:\Data\Confirmed Standards\Confirmed stds MSMS 22Nov13\7Methoxy4'hydroxyflavone MSMS.d" "computed mass accuracy=0.6847143834799166" "computed mass error=-1.8286400000988579E-4" "SPLASH=splash10-0uxr-0690000000-ba76b6bae77ed32a12e6" "submitter=Aiko Barsch (Bruker)" "MoNA Rating=4.615384615384616"
Num Peaks: 23
108.0220 1.401401
116.0273 0.500501
117.0351 76.676677
118.0386 5.305305
119.0421 0.400400
132.0222 1.401401
135.0094 6.506507
136.0126 0.400400
147.0452 1.401401
148.0492 0.400400
153.0195 0.900901
195.0467 1.001001
196.0538 1.501502
198.0317 0.400400
223.0394 13.113113
224.0472 7.707708
225.0512 1.101101
251.0348 2.702703
252.0430 100.000000
253.0464 11.111111
254.0489 0.800801
267.0661 3.903904
268.0696 0.400400


Name: 7-Hydroxy-4'-methoxyflavone
Synon: $:00in-source
DB#: MetaboBASE0245
InChIKey: SQVXWIUVAILQRH-UHFFFAOYSA-N
Precursor_type: [M-H]-
Spectrum_type: MS2
PrecursorMZ: 267.1
Instrument_type: LC-ESI-TOF
Instrument: impact HD
Ion_mode: N
Collision_energy: 50
Formula: C16H12O4
MW: 268
ExactMass: 268.073558864
Comments: "cas number=487-17-2" "SMILES=COc1ccc(cc1)c2cc(=O)c3ccc(cc3o2)O" "InChI=InChI=1S/C16H12O4/c1-19-12-5-2-10(3-6-12)15-9-14(18)13-7-4-11(17)8-16(13)20-15/h2-9,17H,1H3" "computed SMILES=O=C1C=C(OC2=CC(O)=CC=C12)C=3C=CC(OC)=CC3" "license=License CC-BY-NC-SA 4.0 International" "author=Plant Biology, The Noble Foundation, Ardmore, OK, US/Dennis Fine, Daniel Wherritt, and Lloyd Sumner" "ionization=ESI" "isolation width=5" "collision gas=Nitrogen" "peak width=0.022" "date=2013-11-08 01:57:00+01:00" "column=Waters Acquity BEH C18 1.7um x 2.1 x 150 mm" "retention time=694.2" "raw data file=C:\Data\Confirmed Standards\Confirmed Stds 7Nov13\7-Hydroxy4-methoxyflavone MSMS.d" "computed mass accuracy=126.23412953952464" "computed mass error=0.03371713600000703" "SPLASH=splash10-00y1-0940000000-2fb5fc70cf784783b96e" "submitter=Aiko Barsch (Bruker)" "MoNA Rating=4.545454545454546"
Num Peaks: 17
107.0133 2.702703
116.0272 27.727728
117.0347 41.141141
118.0386 2.402402
132.0224 3.403403
135.0086 92.392392
136.0117 6.206206
153.0195 7.907908
167.0502 19.119119
168.0574 4.304304
195.0450 68.668669
196.0490 11.111111
223.0401 100.000000
224.0445 17.717718
225.0497 2.702703
251.0351 2.602603
252.0423 5.805806


Name: 7-Hydroxy-4'-methoxyflavone
Synon: $:00in-source
DB#: MetaboBASE0246
InChIKey: SQVXWIUVAILQRH-UHFFFAOYSA-N
Precursor_type: [M-H]-
Spectrum_type: MS2
PrecursorMZ: 267.07
Instrument_type: LC-ESI-TOF
Instrument: impact HD
Ion_mode: N
Collision_energy: 40
Formula: C16H12O4
MW: 268
ExactMass: 268.073558864
Comments: "cas number=487-17-2" "SMILES=COc1ccc(cc1)c2cc(=O)c3ccc(cc3o2)O" "InChI=InChI=1S/C16H12O4/c1-19-12-5-2-10(3-6-12)15-9-14(18)13-7-4-11(17)8-16(13)20-15/h2-9,17H,1H3" "computed SMILES=O=C1C=C(OC2=CC(O)=CC=C12)C=3C=CC(OC)=CC3" "license=License CC-BY-NC-SA 4.0 International" "author=Plant Biology, The Noble Foundation, Ardmore, OK, US/Dennis Fine, Daniel Wherritt, and Lloyd Sumner" "ionization=ESI" "isolation width=5" "collision gas=Nitrogen" "peak width=0.015" "date=2013-11-23 00:43:36+01:00" "column=Waters Acquity BEH C18 1.7um x 2.1 x 150 mm" "retention time=694.2" "raw data file=C:\Data\Confirmed Standards\Confirmed stds MSMS 22Nov13\7Methoxy4'hydroxyflavone MSMS.d" "computed mass accuracy=13.91820870924279" "computed mass error=0.0037171359999774722" "SPLASH=splash10-014i-0910000000-ba0b920841f6cba746b6" "submitter=Aiko Barsch (Bruker)" "MoNA Rating=4.545454545454546"
Num Peaks: 18
108.0225 2.202202
116.0282 1.001001
117.0350 100.000000
118.0384 5.405405
119.0417 0.700701
132.0221 2.302302
135.0094 11.911912
136.0124 0.800801
153.0214 0.500501
167.0505 0.800801
182.0390 0.500501
195.0450 3.903904
196.0515 1.901902
223.0395 14.114114
224.0466 4.104104
251.0367 1.101101
252.0430 7.107107
253.0495 1.501502


Name: 7-Hydroxy-4'-methoxyflavone
Synon: $:00in-source
DB#: MetaboBASE0247
InChIKey: SQVXWIUVAILQRH-UHFFFAOYSA-N
Precursor_type: [M-H]-
Spectrum_type: MS2
PrecursorMZ: 267.0669
Instrument_type: LC-ESI-TOF
Instrument: impact HD
Ion_mode: N
Collision_energy: 20
Formula: C16H12O4
MW: 268
ExactMass: 268.073558864
Comments: "cas number=487-17-2" "SMILES=COc1ccc(cc1)c2cc(=O)c3ccc(cc3o2)O" "InChI=InChI=1S/C16H12O4/c1-19-12-5-2-10(3-6-12)15-9-14(18)13-7-4-11(17)8-16(13)20-15/h2-9,17H,1H3" "computed SMILES=O=C1C=C(OC2=CC(O)=CC=C12)C=3C=CC(OC)=CC3" "license=License CC-BY-NC-SA 4.0 International" "author=Plant Biology, The Noble Foundation, Ardmore, OK, US/Dennis Fine, Daniel Wherritt, and Lloyd Sumner" "ionization=ESI" "isolation width=5" "collision gas=Nitrogen" "peak width=0.013" "date=2013-11-23 00:43:36+01:00" "column=Waters Acquity BEH C18 1.7um x 2.1 x 150 mm" "retention time=694.2" "raw data file=C:\Data\Confirmed Standards\Confirmed stds MSMS 22Nov13\7Methoxy4'hydroxyflavone MSMS.d" "computed mass accuracy=2.3107917902212067" "computed mass error=6.17135999959828E-4" "SPLASH=splash10-0uxr-0090000000-9e13887d013082b69068" "submitter=Aiko Barsch (Bruker)" "MoNA Rating=4.583333333333334"
Num Peaks: 14
117.0350 13.113113
118.0383 0.800801
135.0089 0.500501
147.0447 0.400400
223.0399 1.101101
224.0473 1.001001
225.0513 0.200200
251.0338 0.300300
252.0432 100.000000
253.0463 9.509510
254.0483 1.001001
267.0669 70.770771
268.0699 8.308308
269.0728 0.900901


Name: Baicalein
Synon: $:00in-source
DB#: MetaboBASE0248
InChIKey: FXNFHKRTJBSTCS-UHFFFAOYSA-N
Precursor_type: [M-H]-
Spectrum_type: MS2
PrecursorMZ: 269.0452
Instrument_type: LC-ESI-TOF
Instrument: impact HD
Ion_mode: N
Collision_energy: 40
Formula: C15H10O5
MW: 270
ExactMass: 270.05282342
Comments: "cas number=27462-75-5" "SMILES=c1ccc(cc1)c2cc(=O)c3c(o2)cc(c(c3O)O)O" "InChI=InChI=1S/C15H10O5/c16-9-6-11(8-4-2-1-3-5-8)20-12-7-10(17)14(18)15(19)13(9)12/h1-7,17-19H" "computed SMILES=O=C1C=C(OC2=CC(O)=C(O)C(O)=C12)C=3C=CC=CC3" "license=License CC-BY-NC-SA 4.0 International" "author=Plant Biology, The Noble Foundation, Ardmore, OK, US/Dennis Fine, Daniel Wherritt, and Lloyd Sumner" "ionization=ESI" "isolation width=5" "collision gas=Nitrogen" "peak width=0.014" "date=2013-11-18 22:11:44+01:00" "column=Waters Acquity BEH C18 1.7um x 2.1 x 150 mm" "retention time=685.8" "raw data file=C:\Data\Confirmed Standards\Confirmed stds MSMS 14Nov13\Baicalein MSMS (vial 76).d" "computed mass accuracy=1.291307185441996" "computed mass error=-3.474199999686789E-4" "SPLASH=splash10-000i-0910000000-4cc66ae52ae7f30ab947" "submitter=Aiko Barsch (Bruker)" "MoNA Rating=4.583333333333334"
Num Peaks: 18
111.0094 23.723724
115.0584 11.711712
123.0197 17.717718
127.0691 9.809810
137.0073 100.000000
138.0134 12.712713
139.0234 36.536537
139.0764 16.216216
141.0882 13.513514
143.0716 16.616617
167.0730 20.720721
169.0840 11.111111
171.0668 22.522523
195.0627 19.319319
223.0479 22.522523
224.0560 9.709710
239.0396 17.917918
269.0452 10.210210


Name: Baicalein
Synon: $:00in-source
DB#: MetaboBASE0249
InChIKey: FXNFHKRTJBSTCS-UHFFFAOYSA-N
Instrument_type: LC-ESI-TOF
Instrument: impact HD
Ion_mode: N
Collision_energy: 10
Formula: C15H10O5
MW: 270
ExactMass: 270.05282342
Comments: "cas number=27462-75-5" "SMILES=c1ccc(cc1)c2cc(=O)c3c(o2)cc(c(c3O)O)O" "InChI=InChI=1S/C15H10O5/c16-9-6-11(8-4-2-1-3-5-8)20-12-7-10(17)14(18)15(19)13(9)12/h1-7,17-19H" "computed SMILES=O=C1C=C(OC2=CC(O)=C(O)C(O)=C12)C=3C=CC=CC3" "license=License CC-BY-NC-SA 4.0 International" "author=Plant Biology, The Noble Foundation, Ardmore, OK, US/Dennis Fine, Daniel Wherritt, and Lloyd Sumner" "ionization=ESI" "collision gas=Nitrogen" "peak width=0.022" "date=2013-11-07 06:47:15+01:00" "column=Waters Acquity BEH C18 1.7um x 2.1 x 150 mm" "retention time=685.8" "raw data file=C:\Data\Confirmed Standards\Confirmed Stds 6Nov13\Baicalein (vial 76).d" "SPLASH=splash10-014i-0090000000-2b0a90a93bbc833a5622" "submitter=Aiko Barsch (Bruker)" "MoNA Rating=4.444444444444445"
Num Peaks: 10
239.0351 12.612613
240.0383 1.901902
241.0501 2.902903
255.0298 5.205205
267.0305 100.000000
268.0334 12.212212
269.0459 86.086086
270.0491 10.910911
271.0515 1.301301
285.0410 2.202202


Name: Baicalein
Synon: $:00in-source
DB#: MetaboBASE0250
InChIKey: FXNFHKRTJBSTCS-UHFFFAOYSA-N
Instrument_type: LC-ESI-TOF
Instrument: impact HD
Ion_mode: N
Collision_energy: 10
Formula: C15H10O5
MW: 270
ExactMass: 270.05282342
Comments: "cas number=27462-75-5" "SMILES=c1ccc(cc1)c2cc(=O)c3c(o2)cc(c(c3O)O)O" "InChI=InChI=1S/C15H10O5/c16-9-6-11(8-4-2-1-3-5-8)20-12-7-10(17)14(18)15(19)13(9)12/h1-7,17-19H" "computed SMILES=O=C1C=C(OC2=CC(O)=C(O)C(O)=C12)C=3C=CC=CC3" "license=License CC-BY-NC-SA 4.0 International" "author=Plant Biology, The Noble Foundation, Ardmore, OK, US/Dennis Fine, Daniel Wherritt, and Lloyd Sumner" "ionization=ESI" "collision gas=Nitrogen" "peak width=0.021" "date=2013-11-07 06:47:15+01:00" "column=Waters Acquity BEH C18 1.7um x 2.1 x 150 mm" "retention time=685.8" "raw data file=C:\Data\Confirmed Standards\Confirmed Stds 6Nov13\Baicalein (vial 76).d" "SPLASH=splash10-014i-0090000000-3b007f8a59433c8c8102" "submitter=Aiko Barsch (Bruker)" "MoNA Rating=4.444444444444445"
Num Peaks: 11
239.0349 10.110110
240.0386 1.401401
241.0491 1.801802
255.0293 7.407407
256.0334 1.301301
267.0298 63.663664
268.0330 8.908909
269.0456 100.000000
270.0486 13.613614
271.0509 1.801802
285.0391 1.501502


Name: Baicalein
Synon: $:00in-source
DB#: MetaboBASE0251
InChIKey: FXNFHKRTJBSTCS-UHFFFAOYSA-N
Precursor_type: [M-H]-
Spectrum_type: MS2
PrecursorMZ: 269.0462
Instrument_type: LC-ESI-TOF
Instrument: impact HD
Ion_mode: N
Collision_energy: 20
Formula: C15H10O5
MW: 270
ExactMass: 270.05282342
Comments: "cas number=27462-75-5" "SMILES=c1ccc(cc1)c2cc(=O)c3c(o2)cc(c(c3O)O)O" "InChI=InChI=1S/C15H10O5/c16-9-6-11(8-4-2-1-3-5-8)20-12-7-10(17)14(18)15(19)13(9)12/h1-7,17-19H" "computed SMILES=O=C1C=C(OC2=CC(O)=C(O)C(O)=C12)C=3C=CC=CC3" "license=License CC-BY-NC-SA 4.0 International" "author=Plant Biology, The Noble Foundation, Ardmore, OK, US/Dennis Fine, Daniel Wherritt, and Lloyd Sumner" "ionization=ESI" "isolation width=5" "collision gas=Nitrogen" "peak width=0.013" "date=2013-11-18 22:11:44+01:00" "column=Waters Acquity BEH C18 1.7um x 2.1 x 150 mm" "retention time=685.8" "raw data file=C:\Data\Confirmed Standards\Confirmed stds MSMS 14Nov13\Baicalein MSMS (vial 76).d" "computed mass accuracy=2.4255313771674687" "computed mass error=6.525800000076742E-4" "SPLASH=splash10-014i-0090000000-5c474d2508a10bd7c6e7" "submitter=Aiko Barsch (Bruker)" "MoNA Rating=4.583333333333334"
Num Peaks: 9
137.0074 3.103103
239.0398 54.254254
240.0431 7.107107
241.0518 2.602603
251.0372 2.202202
267.0307 27.827828
268.0336 4.204204
269.0462 100.000000
270.0488 9.409409


Name: Coumestrol
Synon: $:00in-source
DB#: MetaboBASE0252
InChIKey: ZZIALNLLNHEQPJ-UHFFFAOYSA-N
Precursor_type: [M-H]-
Spectrum_type: MS2
PrecursorMZ: 267.0457
Instrument_type: LC-ESI-TOF
Instrument: impact HD
Ion_mode: N
Collision_energy: 20
Formula: C15H8O5
MW: 268
ExactMass: 268.037173356
Comments: "cas number=479-13-0" "SMILES=c1cc2c(cc1O)oc3c2c(=O)oc4c3ccc(c4)O" "InChI=InChI=1S/C15H8O5/c16-7-1-3-9-11(5-7)19-14-10-4-2-8(17)6-12(10)20-15(18)13(9)14/h1-6,16-17H" "computed SMILES=O=C1OC=2C=C(O)C=CC2C=3OC4=CC(O)=CC=C4C13" "license=License CC-BY-NC-SA 4.0 International" "author=Plant Biology, The Noble Foundation, Ardmore, OK, US/Dennis Fine, Daniel Wherritt, and Lloyd Sumner" "ionization=ESI" "isolation width=5" "collision gas=Nitrogen" "peak width=0.017" "date=2014-08-05 21:09:28+02:00" "column=Waters Acquity BEH C18 1.7um x 2.1 x 150 mm" "retention time=580.2" "raw data file=C:\Data\Confirmed standards 24_July_2014\MSMS\Coumestrol vial 81 dil 1 to 10_1-F,5_01_539.d" "computed mass accuracy=59.17580399167078" "computed mass error=0.015802644000018518" "SPLASH=splash10-014i-0090000000-2a1a393fb92c1f28256e" "submitter=Aiko Barsch (Bruker)" "MoNA Rating=4.545454545454546"
Num Peaks: 6
223.0523 1.001001
239.0491 3.003003
266.0368 11.011011
267.0457 100.000000
268.0482 13.613614
269.0479 1.201201


Name: Coumestrol
Synon: $:00in-source
DB#: MetaboBASE0253
InChIKey: ZZIALNLLNHEQPJ-UHFFFAOYSA-N
Precursor_type: [M-H]-
Spectrum_type: MS2
PrecursorMZ: 267.0456
Instrument_type: LC-ESI-TOF
Instrument: impact HD
Ion_mode: N
Collision_energy: 10
Formula: C15H8O5
MW: 268
ExactMass: 268.037173356
Comments: "cas number=479-13-0" "SMILES=c1cc2c(cc1O)oc3c2c(=O)oc4c3ccc(c4)O" "InChI=InChI=1S/C15H8O5/c16-7-1-3-9-11(5-7)19-14-10-4-2-8(17)6-12(10)20-15(18)13(9)14/h1-6,16-17H" "computed SMILES=O=C1OC=2C=C(O)C=CC2C=3OC4=CC(O)=CC=C4C13" "license=License CC-BY-NC-SA 4.0 International" "author=Plant Biology, The Noble Foundation, Ardmore, OK, US/Dennis Fine, Daniel Wherritt, and Lloyd Sumner" "ionization=ESI" "isolation width=5" "collision gas=Nitrogen" "peak width=0.017" "date=2014-08-05 21:09:28+02:00" "column=Waters Acquity BEH C18 1.7um x 2.1 x 150 mm" "retention time=580.2" "raw data file=C:\Data\Confirmed standards 24_July_2014\MSMS\Coumestrol vial 81 dil 1 to 10_1-F,5_01_539.d" "computed mass accuracy=58.801358269848954" "computed mass error=0.015702643999986776" "SPLASH=splash10-014i-0090000000-606e78910a0367fb9798" "submitter=Aiko Barsch (Bruker)" "MoNA Rating=4.545454545454546"
Num Peaks: 6
239.0507 0.800801
266.0365 3.603604
267.0456 100.000000
268.0493 13.213213
269.0545 0.700701
1132.7605 0.800801


Name: Coumestrol
Synon: $:00in-source
DB#: MetaboBASE0254
InChIKey: ZZIALNLLNHEQPJ-UHFFFAOYSA-N
Precursor_type: [M-H]-
Spectrum_type: MS2
PrecursorMZ: 267.045
Instrument_type: LC-ESI-TOF
Instrument: impact HD
Ion_mode: N
Collision_energy: 30
Formula: C15H8O5
MW: 268
ExactMass: 268.037173356
Comments: "cas number=479-13-0" "SMILES=c1cc2c(cc1O)oc3c2c(=O)oc4c3ccc(c4)O" "InChI=InChI=1S/C15H8O5/c16-7-1-3-9-11(5-7)19-14-10-4-2-8(17)6-12(10)20-15(18)13(9)14/h1-6,16-17H" "computed SMILES=O=C1OC=2C=C(O)C=CC2C=3OC4=CC(O)=CC=C4C13" "license=License CC-BY-NC-SA 4.0 International" "author=Plant Biology, The Noble Foundation, Ardmore, OK, US/Dennis Fine, Daniel Wherritt, and Lloyd Sumner" "ionization=ESI" "isolation width=5" "collision gas=Nitrogen" "peak width=0.018" "date=2014-08-05 21:09:28+02:00" "column=Waters Acquity BEH C18 1.7um x 2.1 x 150 mm" "retention time=580.2" "raw data file=C:\Data\Confirmed standards 24_July_2014\MSMS\Coumestrol vial 81 dil 1 to 10_1-F,5_01_539.d" "computed mass accuracy=56.554678050604586" "computed mass error=0.015102644000023702" "SPLASH=splash10-014i-0090000000-5a91822fb14572c010a0" "submitter=Aiko Barsch (Bruker)" "MoNA Rating=4.545454545454546"
Num Peaks: 12
135.0163 3.103103
182.0490 2.902903
183.0576 2.302302
195.0573 2.402402
211.0540 7.807808
222.0459 2.802803
223.0522 4.304304
238.0412 2.502503
239.0486 21.621622
266.0372 62.962963
267.0450 100.000000
268.0493 13.513514


Name: Coumestrol
Synon: $:00in-source
DB#: MetaboBASE0255
InChIKey: ZZIALNLLNHEQPJ-UHFFFAOYSA-N
Spectrum_type: MS2
PrecursorMZ: 266.0373
Instrument_type: LC-ESI-TOF
Instrument: impact HD
Ion_mode: N
Collision_energy: 40
Formula: C15H8O5
MW: 268
ExactMass: 268.037173356
Comments: "cas number=479-13-0" "SMILES=c1cc2c(cc1O)oc3c2c(=O)oc4c3ccc(c4)O" "InChI=InChI=1S/C15H8O5/c16-7-1-3-9-11(5-7)19-14-10-4-2-8(17)6-12(10)20-15(18)13(9)14/h1-6,16-17H" "computed SMILES=O=C1OC=2C=C(O)C=CC2C=3OC4=CC(O)=CC=C4C13" "license=License CC-BY-NC-SA 4.0 International" "author=Plant Biology, The Noble Foundation, Ardmore, OK, US/Dennis Fine, Daniel Wherritt, and Lloyd Sumner" "ionization=ESI" "isolation width=5" "collision gas=Nitrogen" "peak width=0.017" "date=2014-08-05 21:09:28+02:00" "column=Waters Acquity BEH C18 1.7um x 2.1 x 150 mm" "retention time=580.2" "raw data file=C:\Data\Confirmed standards 24_July_2014\MSMS\Coumestrol vial 81 dil 1 to 10_1-F,5_01_539.d" "SPLASH=splash10-014i-0290000000-75cc1c58769101835d99" "submitter=Aiko Barsch (Bruker)" "MoNA Rating=3.125"
Num Peaks: 18
135.0175 7.707708
141.0424 6.206206
166.0519 4.504505
167.0614 11.811812
182.0478 10.910911
183.0532 4.104104
195.0569 5.005005
210.0450 6.006006
211.0542 16.016016
222.0441 13.713714
223.0522 13.213213
237.0331 5.505506
238.0397 4.104104
239.0487 11.311311
265.0277 4.904905
266.0373 100.000000
267.0414 32.432432
268.0480 4.504505


Name: Coumestrol
Synon: $:00in-source
DB#: MetaboBASE0256
InChIKey: ZZIALNLLNHEQPJ-UHFFFAOYSA-N
Instrument_type: LC-ESI-TOF
Instrument: impact HD
Ion_mode: N
Collision_energy: 10
Formula: C15H8O5
MW: 268
ExactMass: 268.037173356
Comments: "cas number=479-13-0" "SMILES=c1cc2c(cc1O)oc3c2c(=O)oc4c3ccc(c4)O" "InChI=InChI=1S/C15H8O5/c16-7-1-3-9-11(5-7)19-14-10-4-2-8(17)6-12(10)20-15(18)13(9)14/h1-6,16-17H" "computed SMILES=O=C1OC=2C=C(O)C=CC2C=3OC4=CC(O)=CC=C4C13" "license=License CC-BY-NC-SA 4.0 International" "author=Plant Biology, The Noble Foundation, Ardmore, OK, US/Dennis Fine, Daniel Wherritt, and Lloyd Sumner" "ionization=ESI" "collision gas=Nitrogen" "peak width=0.019" "date=2013-11-07 09:30:22+01:00" "column=Waters Acquity BEH C18 1.7um x 2.1 x 150 mm" "retention time=580.2" "raw data file=C:\Data\Confirmed Standards\Confirmed Stds 6Nov13\Coumestrol (vial 81).d" "SPLASH=splash10-014i-0090000000-895c91406544dc79d34d" "submitter=Aiko Barsch (Bruker)" "MoNA Rating=4.444444444444445"
Num Peaks: 6
266.0215 6.706707
267.0299 100.000000
268.0327 16.216216
269.0347 1.601602
281.0083 1.501502
535.0665 1.401401


Name: Coumestrol
Synon: $:00in-source
DB#: MetaboBASE0257
InChIKey: ZZIALNLLNHEQPJ-UHFFFAOYSA-N
Spectrum_type: MS2
PrecursorMZ: 266.0378
Instrument_type: LC-ESI-TOF
Instrument: impact HD
Ion_mode: N
Collision_energy: 50
Formula: C15H8O5
MW: 268
ExactMass: 268.037173356
Comments: "cas number=479-13-0" "SMILES=c1cc2c(cc1O)oc3c2c(=O)oc4c3ccc(c4)O" "InChI=InChI=1S/C15H8O5/c16-7-1-3-9-11(5-7)19-14-10-4-2-8(17)6-12(10)20-15(18)13(9)14/h1-6,16-17H" "computed SMILES=O=C1OC=2C=C(O)C=CC2C=3OC4=CC(O)=CC=C4C13" "license=License CC-BY-NC-SA 4.0 International" "author=Plant Biology, The Noble Foundation, Ardmore, OK, US/Dennis Fine, Daniel Wherritt, and Lloyd Sumner" "ionization=ESI" "isolation width=5" "collision gas=Nitrogen" "peak width=0.0082" "date=2014-08-05 21:09:28+02:00" "column=Waters Acquity BEH C18 1.7um x 2.1 x 150 mm" "retention time=580.2" "raw data file=C:\Data\Confirmed standards 24_July_2014\MSMS\Coumestrol vial 81 dil 1 to 10_1-F,5_01_539.d" "SPLASH=splash10-0159-0960010000-fe04b8935dfef822b8ba" "submitter=Aiko Barsch (Bruker)" "MoNA Rating=3.125"
Num Peaks: 23
127.0249 27.927928
127.0329 16.216216
138.0573 25.725726
139.0628 18.818819
165.0453 19.319319
166.0544 31.931932
167.0694 17.317317
178.0519 20.820821
182.0484 85.385385
183.0499 16.816817
194.0498 24.624625
195.0544 25.025025
211.0562 16.216216
222.0435 37.237237
223.0491 18.818819
237.0302 29.729730
239.0410 20.620621
265.0349 26.426426
266.0378 100.000000
383.1255 18.218218
519.2007 23.523524
532.0093 20.420420
981.6494 33.233233


Name: Diosmin
Synon: $:00in-source
DB#: MetaboBASE0258
InChIKey: GZSOSUNBTXMUFQ-YFAPSIMESA-N
Precursor_type: [M-H]-
Spectrum_type: MS2
PrecursorMZ: 607.1664
Instrument_type: LC-ESI-TOF
Instrument: impact HD
Ion_mode: N
Collision_energy: 20
Formula: C28H32O15
MW: 608
ExactMass: 608.174120324
Comments: "cas number=520-27-4" "SMILES=C[C@H]1[C@@H]([C@H]([C@H]([C@@H](O1)OC[C@@H]2[C@H]([C@@H]([C@H]([C@@H](O2)Oc3cc(c4c(=O)cc(oc4c3)c5ccc(c(c5)O)OC)O)O)O)O)O)O)O" "InChI=InChI=1S/C28H32O15/c1-10-21(32)23(34)25(36)27(40-10)39-9-19-22(33)24(35)26(37)28(43-19)41-12-6-14(30)20-15(31)8-17(42-18(20)7-12)11-3-4-16(38-2)13(29)5-11/h3-8,10,19,21-30,32-37H,9H2,1-2H3/t10-,19+,21-,22+,23+,24-,25+,26+,27+,28+/m0/s1" "computed SMILES=O=C1C=C(OC2=CC(OC3OC(COC4OC(C)C(O)C(O)C4O)C(O)C(O)C3O)=CC(O)=C12)C=5C=CC(OC)=C(O)C5" "computed InChI=InChI=1S/C28H32O15/c1-10-21(32)23(34)25(36)27(40-10)39-9-19-22(33)24(35)26(37)28(43-19)41-12-6-14(30)20-15(31)8-17(42-18(20)7-12)11-3-4-16(38-2)13(29)5-11/h3-8,10,19,21-30,32-37H,9H2,1-2H3/t10-,19-,21-,22-,23+,24+,25+,26-,27+,28-/m1/s1" "license=License CC-BY-NC-SA 4.0 International" "author=Plant Biology, The Noble Foundation, Ardmore, OK, US/Dennis Fine, Daniel Wherritt, and Lloyd Sumner" "ionization=ESI" "isolation width=5" "collision gas=Nitrogen" "peak width=0.019" "date=2013-11-08 00:35:18+01:00" "column=Waters Acquity BEH C18 1.7um x 2.1 x 150 mm" "retention time=427.8" "raw data file=C:\Data\Confirmed Standards\Confirmed Stds 7Nov13\Diosmin (vial 71) MSMS.d" "computed mass accuracy=0.7317993881085176" "computed mass error=-4.4432400000005146E-4" "SPLASH=splash10-052b-0091007000-37f41b107b871f3ae8d4" "submitter=Aiko Barsch (Bruker)" "MoNA Rating=4.615384615384616"
Num Peaks: 6
299.0566 100.000000
300.0601 10.710711
301.0625 3.903904
607.1664 66.166166
608.1717 17.417417
609.1782 4.804805


Name: Diosmin
Synon: $:00in-source
DB#: MetaboBASE0259
InChIKey: GZSOSUNBTXMUFQ-YFAPSIMESA-N
Instrument_type: LC-ESI-TOF
Instrument: impact HD
Ion_mode: N
Collision_energy: 10
Formula: C28H32O15
MW: 608
ExactMass: 608.174120324
Comments: "cas number=520-27-4" "SMILES=C[C@H]1[C@@H]([C@H]([C@H]([C@@H](O1)OC[C@@H]2[C@H]([C@@H]([C@H]([C@@H](O2)Oc3cc(c4c(=O)cc(oc4c3)c5ccc(c(c5)O)OC)O)O)O)O)O)O)O" "InChI=InChI=1S/C28H32O15/c1-10-21(32)23(34)25(36)27(40-10)39-9-19-22(33)24(35)26(37)28(43-19)41-12-6-14(30)20-15(31)8-17(42-18(20)7-12)11-3-4-16(38-2)13(29)5-11/h3-8,10,19,21-30,32-37H,9H2,1-2H3/t10-,19+,21-,22+,23+,24-,25+,26+,27+,28+/m0/s1" "computed SMILES=O=C1C=C(OC2=CC(OC3OC(COC4OC(C)C(O)C(O)C4O)C(O)C(O)C3O)=CC(O)=C12)C=5C=CC(OC)=C(O)C5" "computed InChI=InChI=1S/C28H32O15/c1-10-21(32)23(34)25(36)27(40-10)39-9-19-22(33)24(35)26(37)28(43-19)41-12-6-14(30)20-15(31)8-17(42-18(20)7-12)11-3-4-16(38-2)13(29)5-11/h3-8,10,19,21-30,32-37H,9H2,1-2H3/t10-,19-,21-,22-,23+,24+,25+,26-,27+,28-/m1/s1" "license=License CC-BY-NC-SA 4.0 International" "author=Plant Biology, The Noble Foundation, Ardmore, OK, US/Dennis Fine, Daniel Wherritt, and Lloyd Sumner" "ionization=CI" "collision gas=Nitrogen" "peak width=0.02" "date=2013-11-07 04:04:10+01:00" "column=Waters Acquity BEH C18 1.7um x 2.1 x 150 mm" "retention time=427.8" "raw data file=C:\Data\Confirmed Standards\Confirmed Stds 6Nov13\Diosmin (vial 71).d" "SPLASH=splash10-0a4i-0000009000-afd1640b539ec58a4616" "submitter=Aiko Barsch (Bruker)" "MoNA Rating=4.444444444444445"
Num Peaks: 11
607.1672 100.000000
608.1708 25.425425
609.1722 5.605606
610.1752 1.101101
675.1541 6.306306
676.1565 1.801802
706.0838 1.701702
743.1420 1.001001
1215.3386 4.304304
1216.3450 2.302302
1217.3436 1.001001


Name: Diosmin
Synon: $:00in-source
DB#: MetaboBASE0260
InChIKey: GZSOSUNBTXMUFQ-YFAPSIMESA-N
Precursor_type: [M-H]-
Spectrum_type: MS2
PrecursorMZ: 607.2
Instrument_type: LC-ESI-TOF
Instrument: impact HD
Ion_mode: N
Collision_energy: 40
Formula: C28H32O15
MW: 608
ExactMass: 608.174120324
Comments: "cas number=520-27-4" "SMILES=C[C@H]1[C@@H]([C@H]([C@H]([C@@H](O1)OC[C@@H]2[C@H]([C@@H]([C@H]([C@@H](O2)Oc3cc(c4c(=O)cc(oc4c3)c5ccc(c(c5)O)OC)O)O)O)O)O)O)O" "InChI=InChI=1S/C28H32O15/c1-10-21(32)23(34)25(36)27(40-10)39-9-19-22(33)24(35)26(37)28(43-19)41-12-6-14(30)20-15(31)8-17(42-18(20)7-12)11-3-4-16(38-2)13(29)5-11/h3-8,10,19,21-30,32-37H,9H2,1-2H3/t10-,19+,21-,22+,23+,24-,25+,26+,27+,28+/m0/s1" "computed SMILES=O=C1C=C(OC2=CC(OC3OC(COC4OC(C)C(O)C(O)C4O)C(O)C(O)C3O)=CC(O)=C12)C=5C=CC(OC)=C(O)C5" "computed InChI=InChI=1S/C28H32O15/c1-10-21(32)23(34)25(36)27(40-10)39-9-19-22(33)24(35)26(37)28(43-19)41-12-6-14(30)20-15(31)8-17(42-18(20)7-12)11-3-4-16(38-2)13(29)5-11/h3-8,10,19,21-30,32-37H,9H2,1-2H3/t10-,19-,21-,22-,23+,24+,25+,26-,27+,28-/m1/s1" "license=License CC-BY-NC-SA 4.0 International" "author=Plant Biology, The Noble Foundation, Ardmore, OK, US/Dennis Fine, Daniel Wherritt, and Lloyd Sumner" "ionization=ESI" "isolation width=5" "collision gas=Nitrogen" "peak width=0.019" "date=2013-11-08 00:35:18+01:00" "column=Waters Acquity BEH C18 1.7um x 2.1 x 150 mm" "retention time=427.8" "raw data file=C:\Data\Confirmed Standards\Confirmed Stds 7Nov13\Diosmin (vial 71) MSMS.d" "computed mass accuracy=54.6042094863178" "computed mass error=0.03315567600009217" "SPLASH=splash10-0002-0091000000-a356b08129066c8cc235" "submitter=Aiko Barsch (Bruker)" "MoNA Rating=4.545454545454546"
Num Peaks: 5
284.0336 21.421421
285.0358 4.704705
299.0563 100.000000
300.0601 13.713714
301.0625 3.203203


Name: Isoliquiritigenin
Synon: $:00in-source
DB#: MetaboBASE0261
InChIKey: DXDRHHKMWQZJHT-FPYGCLRLSA-N
Precursor_type: [M-H]-
Spectrum_type: MS2
PrecursorMZ: 255.0668
Instrument_type: LC-ESI-TOF
Instrument: impact HD
Ion_mode: N
Collision_energy: 20
Formula: C15H12O4
MW: 256
ExactMass: 256.073558864
Comments: "cas number=961-29-5" "SMILES=c1cc(ccc1/C=C/C(=O)c2ccc(cc2O)O)O" "InChI=InChI=1S/C15H12O4/c16-11-4-1-10(2-5-11)3-8-14(18)13-7-6-12(17)9-15(13)19/h1-9,16-17,19H/b8-3+" "computed SMILES=O=C(C=CC1=CC=C(O)C=C1)C2=CC=C(O)C=C2O" "license=License CC-BY-NC-SA 4.0 International" "author=Plant Biology, The Noble Foundation, Ardmore, OK, US/Dennis Fine, Daniel Wherritt, and Lloyd Sumner" "ionization=ESI" "isolation width=5" "collision gas=Nitrogen" "peak width=0.016" "date=2013-11-08 03:18:41+01:00" "column=Waters Acquity BEH C18 1.7um x 2.1 x 150 mm" "retention time=670.2" "raw data file=C:\Data\Confirmed Standards\Confirmed Stds 7Nov13\Isoliquiritigenin  MSMS.d" "computed mass accuracy=2.027453200435847" "computed mass error=5.171359999849301E-4" "SPLASH=splash10-014r-0900000000-e7c4095e90f57884e80c" "submitter=Aiko Barsch (Bruker)" "MoNA Rating=4.583333333333334"
Num Peaks: 6
119.0509 100.000000
120.0539 6.106106
135.0088 70.270270
136.0117 3.403403
153.0190 3.703704
255.0668 14.514515


Name: Isoliquiritigenin
Synon: $:00in-source
DB#: MetaboBASE0262
InChIKey: DXDRHHKMWQZJHT-FPYGCLRLSA-N
Instrument_type: LC-ESI-TOF
Instrument: impact HD
Ion_mode: N
Collision_energy: 10
Formula: C15H12O4
MW: 256
ExactMass: 256.073558864
Comments: "cas number=961-29-5" "SMILES=c1cc(ccc1/C=C/C(=O)c2ccc(cc2O)O)O" "InChI=InChI=1S/C15H12O4/c16-11-4-1-10(2-5-11)3-8-14(18)13-7-6-12(17)9-15(13)19/h1-9,16-17,19H/b8-3+" "computed SMILES=O=C(C=CC1=CC=C(O)C=C1)C2=CC=C(O)C=C2O" "license=License CC-BY-NC-SA 4.0 International" "author=Plant Biology, The Noble Foundation, Ardmore, OK, US/Dennis Fine, Daniel Wherritt, and Lloyd Sumner" "ionization=ESI" "collision gas=Nitrogen" "peak width=0.015" "date=2013-11-07 10:11:08+01:00" "column=Waters Acquity BEH C18 1.7um x 2.1 x 150 mm" "retention time=670.2" "raw data file=C:\Data\Confirmed Standards\Confirmed Stds 6Nov13\Isoliquiritigenin (vial 82).d" "SPLASH=splash10-0a4i-0090000000-788e4464b6a542aa7c22" "submitter=Aiko Barsch (Bruker)" "MoNA Rating=4.444444444444445"
Num Peaks: 6
119.0503 1.601602
135.0090 6.306306
255.0670 100.000000
256.0702 15.515516
257.0726 1.601602
511.1399 1.101101


Name: Luteolin-4'-O-glucoside
Synon: $:00in-source
DB#: MetaboBASE0263
InChIKey: UHNXUSWGOJMEFO-QNDFHXLGSA-N
Precursor_type: [M-H]-
Spectrum_type: MS2
PrecursorMZ: 447.0938
Instrument_type: LC-ESI-TOF
Instrument: impact HD
Ion_mode: N
Collision_energy: 20
Formula: C21H20O11
MW: 448
ExactMass: 448.10056146
Comments: "cas number=6920-38-3" "SMILES=c1cc(c(cc1c2cc(=O)c3c(cc(cc3o2)O)O)O)O[C@H]4[C@@H]([C@H]([C@@H]([C@H](O4)CO)O)O)O" "InChI=InChI=1S/C21H20O11/c22-7-16-18(27)19(28)20(29)21(32-16)31-13-2-1-8(3-10(13)24)14-6-12(26)17-11(25)4-9(23)5-15(17)30-14/h1-6,16,18-25,27-29H,7H2/t16-,18-,19+,20-,21-/m1/s1" "computed SMILES=O=C1C=C(OC=2C=C(O)C=C(O)C12)C=3C=CC(OC4OC(CO)C(O)C(O)C4O)=C(O)C3" "license=License CC-BY-NC-SA 4.0 International" "author=Plant Biology, The Noble Foundation, Ardmore, OK, US/Dennis Fine, Daniel Wherritt, and Lloyd Sumner" "ionization=ESI" "isolation width=5" "collision gas=Nitrogen" "peak width=0.013" "date=2013-11-08 01:16:08+01:00" "column=Waters Acquity BEH C18 1.7um x 2.1 x 150 mm" "retention time=375.6" "raw data file=C:\Data\Confirmed Standards\Confirmed Stds 7Nov13\Luteolin-4-O-glucoside  MSMS.d" "computed mass accuracy=1.1508546975674878" "computed mass error=5.145399999832989E-4" "SPLASH=splash10-000i-0090000000-6aa9fc4383e3b4ef3f60" "submitter=Aiko Barsch (Bruker)" "MoNA Rating=4.583333333333334"
Num Peaks: 3
285.0408 100.000000
286.0439 12.012012
447.0938 5.005005


Name: Luteolin-4'-O-glucoside
Synon: $:00in-source
DB#: MetaboBASE0264
InChIKey: UHNXUSWGOJMEFO-QNDFHXLGSA-N
Instrument_type: LC-ESI-TOF
Instrument: impact HD
Ion_mode: N
Collision_energy: 10
Formula: C21H20O11
MW: 448
ExactMass: 448.10056146
Comments: "cas number=6920-38-3" "SMILES=c1cc(c(cc1c2cc(=O)c3c(cc(cc3o2)O)O)O)O[C@H]4[C@@H]([C@H]([C@@H]([C@H](O4)CO)O)O)O" "InChI=InChI=1S/C21H20O11/c22-7-16-18(27)19(28)20(29)21(32-16)31-13-2-1-8(3-10(13)24)14-6-12(26)17-11(25)4-9(23)5-15(17)30-14/h1-6,16,18-25,27-29H,7H2/t16-,18-,19+,20-,21-/m1/s1" "computed SMILES=O=C1C=C(OC=2C=C(O)C=C(O)C12)C=3C=CC(OC4OC(CO)C(O)C(O)C4O)=C(O)C3" "license=License CC-BY-NC-SA 4.0 International" "author=Plant Biology, The Noble Foundation, Ardmore, OK, US/Dennis Fine, Daniel Wherritt, and Lloyd Sumner" "ionization=ESI" "collision gas=Nitrogen" "peak width=0.018" "date=2013-11-07 05:25:43+01:00" "column=Waters Acquity BEH C18 1.7um x 2.1 x 150 mm" "retention time=375.6" "raw data file=C:\Data\Confirmed Standards\Confirmed Stds 6Nov13\Luteolin-4-glucoside (vial 73).d" "SPLASH=splash10-0002-0040900010-522c055741661bbc5ba8" "submitter=Aiko Barsch (Bruker)" "MoNA Rating=4.444444444444445"
Num Peaks: 12
285.0408 53.853854
286.0438 7.407407
287.0458 1.101101
447.0938 100.000000
448.0971 18.718719
449.0992 3.603604
515.0809 2.102102
592.0145 1.301301
895.1983 8.608609
896.2012 4.204204
897.2057 1.301301
917.1790 1.201201


Name: Protocatechuic aldehyde
Synon: $:00in-source
DB#: MetaboBASE0265
InChIKey: IBGBGRVKPALMCQ-UHFFFAOYSA-N
Precursor_type: [M-H]-
Spectrum_type: MS2
PrecursorMZ: 137.0237
Instrument_type: LC-ESI-TOF
Instrument: impact HD
Ion_mode: N
Collision_energy: 10
Formula: C7H6O3
MW: 138
ExactMass: 138.03169405199998
Comments: "cas number=139-85-5" "SMILES=c1cc(c(cc1C=O)O)O" "InChI=InChI=1S/C7H6O3/c8-4-5-1-2-6(9)7(10)3-5/h1-4,9-10H" "computed SMILES=O=CC1=CC=C(O)C(O)=C1" "license=License CC-BY-NC-SA 4.0 International" "author=Plant Biology, The Noble Foundation, Ardmore, OK, US/Dennis Fine, Daniel Wherritt, and Lloyd Sumner" "ionization=ESI" "isolation width=5" "collision gas=Nitrogen" "peak width=0.019" "date=2014-01-10 21:09:55+01:00" "column=Waters Acquity BEH C18 1.7um x 2.1 x 150 mm" "retention time=65.4" "raw data file=C:\Data\Confirmed Standards\14Jan10 Confirmed stds MSMS\Protocatechuic aldehyde.d" "computed mass accuracy=5.2403489323110195" "computed mass error=-7.180519999963053E-4" "SPLASH=splash10-000i-0900000000-aa91c9c469ec39450435" "submitter=Aiko Barsch (Bruker)" "MoNA Rating=4.545454545454546"
Num Peaks: 3
109.0290 7.707708
137.0237 100.000000
138.0268 6.806807


Name: Protocatechuic aldehyde
Synon: $:00in-source
DB#: MetaboBASE0266
InChIKey: IBGBGRVKPALMCQ-UHFFFAOYSA-N
Precursor_type: [M-H]-
Spectrum_type: MS2
PrecursorMZ: 137.0239
Instrument_type: LC-ESI-TOF
Instrument: impact HD
Ion_mode: N
Collision_energy: 20
Formula: C7H6O3
MW: 138
ExactMass: 138.03169405199998
Comments: "cas number=139-85-5" "SMILES=c1cc(c(cc1C=O)O)O" "InChI=InChI=1S/C7H6O3/c8-4-5-1-2-6(9)7(10)3-5/h1-4,9-10H" "computed SMILES=O=CC1=CC=C(O)C(O)=C1" "license=License CC-BY-NC-SA 4.0 International" "author=Plant Biology, The Noble Foundation, Ardmore, OK, US/Dennis Fine, Daniel Wherritt, and Lloyd Sumner" "ionization=ESI" "isolation width=5" "collision gas=Nitrogen" "peak width=0.016" "date=2014-01-10 21:09:55+01:00" "column=Waters Acquity BEH C18 1.7um x 2.1 x 150 mm" "retention time=65.4" "raw data file=C:\Data\Confirmed Standards\14Jan10 Confirmed stds MSMS\Protocatechuic aldehyde.d" "computed mass accuracy=3.7807418996953523" "computed mass error=-5.18051999989666E-4" "SPLASH=splash10-000i-0900000000-25b5b2bc87af9df04e91" "submitter=Aiko Barsch (Bruker)" "MoNA Rating=4.583333333333334"
Num Peaks: 6
108.0205 34.334334
109.0305 21.421421
119.0151 21.721722
136.0166 51.451451
137.0239 100.000000
138.0265 12.712713


Name: Protocatechuic aldehyde
Synon: $:00in-source
DB#: MetaboBASE0267
InChIKey: IBGBGRVKPALMCQ-UHFFFAOYSA-N
Instrument_type: LC-ESI-TOF
Instrument: impact HD
Ion_mode: N
Formula: C7H6O3
MW: 138
ExactMass: 138.03169405199998
Comments: "cas number=139-85-5" "SMILES=c1cc(c(cc1C=O)O)O" "InChI=InChI=1S/C7H6O3/c8-4-5-1-2-6(9)7(10)3-5/h1-4,9-10H" "computed SMILES=O=CC1=CC=C(O)C(O)=C1" "license=License CC-BY-NC-SA 4.0 International" "author=Plant Biology, The Noble Foundation, Ardmore, OK, US/Dennis Fine, Daniel Wherritt, and Lloyd Sumner" "ionization=ESI" "collision gas=Nitrogen" "peak width=0.013" "date=2014-01-10 21:09:55+01:00" "column=Waters Acquity BEH C18 1.7um x 2.1 x 150 mm" "retention time=65.4" "raw data file=C:\Data\Confirmed Standards\14Jan10 Confirmed stds MSMS\Protocatechuic aldehyde.d" "SPLASH=splash10-000i-0900000000-03d9e2dbe57c9bcfb9ab" "submitter=Aiko Barsch (Bruker)" "MoNA Rating=3.888888888888889"
Num Peaks: 6
137.0243 100.000000
138.0278 6.306306
151.0029 2.202202
153.0190 2.402402
327.9662 11.211211
666.0181 3.303303


Name: Protocatechuic aldehyde
Synon: $:00in-source
DB#: MetaboBASE0268
InChIKey: IBGBGRVKPALMCQ-UHFFFAOYSA-N
Instrument_type: LC-ESI-TOF
Instrument: impact HD
Ion_mode: N
Collision_energy: 10
Formula: C7H6O3
MW: 138
ExactMass: 138.03169405199998
Comments: "cas number=139-85-5" "SMILES=c1cc(c(cc1C=O)O)O" "InChI=InChI=1S/C7H6O3/c8-4-5-1-2-6(9)7(10)3-5/h1-4,9-10H" "computed SMILES=O=CC1=CC=C(O)C(O)=C1" "license=License CC-BY-NC-SA 4.0 International" "author=Plant Biology, The Noble Foundation, Ardmore, OK, US/Dennis Fine, Daniel Wherritt, and Lloyd Sumner" "ionization=ESI" "collision gas=Nitrogen" "peak width=0.02" "date=2013-11-07 08:49:36+01:00" "column=Waters Acquity BEH C18 1.7um x 2.1 x 150 mm" "retention time=65.4" "raw data file=C:\Data\Confirmed Standards\Confirmed Stds 6Nov13\Protocatechuic aldehyde.d" "SPLASH=splash10-002r-0905000000-7987816fb8648b0eea18" "submitter=Aiko Barsch (Bruker)" "MoNA Rating=4.444444444444445"
Num Peaks: 14
136.0159 6.906907
137.0239 100.000000
138.0271 7.407407
151.0029 1.701702
192.9591 1.401401
220.9757 2.302302
299.0131 4.804805
325.9717 3.103103
326.9721 2.702703
327.9677 55.755756
328.9702 8.108108
329.9710 1.601602
487.9796 1.101101
509.9639 1.201201


Name: Rhoifolin
Synon: $:00in-source
DB#: MetaboBASE0269
InChIKey: RPMNUQRUHXIGHK-PYXJVEIZSA-N
Precursor_type: [M-H]-
Spectrum_type: MS2
PrecursorMZ: 577.1553
Instrument_type: LC-ESI-TOF
Instrument: impact HD
Ion_mode: N
Collision_energy: 40
Formula: C27H30O14
MW: 578
ExactMass: 578.16355564
Comments: "cas number=17306-46-6" "SMILES=C[C@H]1[C@@H]([C@H]([C@H]([C@@H](O1)O[C@@H]2[C@H]([C@@H]([C@H](O[C@H]2Oc3cc(c4c(=O)cc(oc4c3)c5ccc(cc5)O)O)CO)O)O)O)O)O" "InChI=InChI=1S/C27H30O14/c1-10-20(32)22(34)24(36)26(37-10)41-25-23(35)21(33)18(9-28)40-27(25)38-13-6-14(30)19-15(31)8-16(39-17(19)7-13)11-2-4-12(29)5-3-11/h2-8,10,18,20-30,32-36H,9H2,1H3/t10-,18+,20-,21+,22+,23-,24+,25+,26-,27+/m0/s1" "computed SMILES=O=C1C=C(OC2=CC(OC3OC(CO)C(O)C(O)C3OC4OC(C)C(O)C(O)C4O)=CC(O)=C12)C=5C=CC(O)=CC5" "license=License CC-BY-NC-SA 4.0 International" "author=Plant Biology, The Noble Foundation, Ardmore, OK, US/Dennis Fine, Daniel Wherritt, and Lloyd Sumner" "ionization=ESI" "isolation width=5" "collision gas=Nitrogen" "peak width=0.018" "date=2013-11-07 23:13:37+01:00" "column=Waters Acquity BEH C18 1.7um x 2.1 x 150 mm" "retention time=403.8" "raw data file=C:\Data\Confirmed Standards\Confirmed Stds 7Nov13\Rhoifolin (vial 69) MSMS.d" "computed mass accuracy=1.6973594454883114" "computed mass error=-9.7963999996864E-4" "SPLASH=splash10-014i-0090010000-4a48602e955a44afcfbd" "submitter=Aiko Barsch (Bruker)" "MoNA Rating=4.583333333333334"
Num Peaks: 6
268.0371 6.606607
269.0445 100.000000
270.0470 19.519520
413.0863 2.402402
577.1553 11.611612
578.1591 4.104104


Name: Rhoifolin
Synon: $:00in-source
DB#: MetaboBASE0270
InChIKey: RPMNUQRUHXIGHK-PYXJVEIZSA-N
Instrument_type: LC-ESI-TOF
Instrument: impact HD
Ion_mode: N
Collision_energy: 10
Formula: C27H30O14
MW: 578
ExactMass: 578.1635556399999
Comments: "cas number=17306-46-6" "SMILES=C[C@H]1[C@@H]([C@H]([C@H]([C@@H](O1)O[C@@H]2[C@H]([C@@H]([C@H](O[C@H]2Oc3cc(c4c(=O)cc(oc4c3)c5ccc(cc5)O)O)CO)O)O)O)O)O" "InChI=InChI=1S/C27H30O14/c1-10-20(32)22(34)24(36)26(37-10)41-25-23(35)21(33)18(9-28)40-27(25)38-13-6-14(30)19-15(31)8-16(39-17(19)7-13)11-2-4-12(29)5-3-11/h2-8,10,18,20-30,32-36H,9H2,1H3/t10-,18+,20-,21+,22+,23-,24+,25+,26-,27+/m0/s1" "computed SMILES=O=C1C=C(OC2=CC(OC3OC(CO)C(O)C(O)C3OC4OC(C)C(O)C(O)C4O)=CC(O)=C12)C=5C=CC(O)=CC5" "license=License CC-BY-NC-SA 4.0 International" "author=Plant Biology, The Noble Foundation, Ardmore, OK, US/Dennis Fine, Daniel Wherritt, and Lloyd Sumner" "ionization=ESI" "collision gas=Nitrogen" "peak width=0.015" "date=2013-11-07 02:42:36+01:00" "column=Waters Acquity BEH C18 1.7um x 2.1 x 150 mm" "retention time=403.8" "raw data file=C:\Data\Confirmed Standards\Confirmed Stds 6Nov13\Rhoifolin (vial 69).d" "SPLASH=splash10-004i-0000090000-57758ebdea6e5ef68d54" "submitter=Aiko Barsch (Bruker)" "MoNA Rating=4.444444444444445"
Num Peaks: 8
577.1555 100.000000
578.1591 24.424424
579.1607 4.604605
645.1423 6.006006
646.1445 1.401401
1155.3240 5.505506
1155.8256 1.901902
1156.3286 3.403403


Name: Scopoletin
Synon: $:00in-source
DB#: MetaboBASE0271
InChIKey: RODXRVNMMDRFIK-UHFFFAOYSA-N
Precursor_type: [M-H]-
Spectrum_type: MS2
PrecursorMZ: 191
Instrument_type: LC-ESI-TOF
Instrument: impact HD
Ion_mode: N
Collision_energy: 40
Formula: C10H8O4
MW: 192
ExactMass: 192.042258736
Comments: "cas number=92-61-5" "SMILES=COc1cc2ccc(=O)oc2cc1O" "InChI=InChI=1S/C10H8O4/c1-13-9-4-6-2-3-10(12)14-8(6)5-7(9)11/h2-5,11H,1H3" "computed SMILES=O=C1OC=2C=C(O)C(OC)=CC2C=C1" "license=License CC-BY-NC-SA 4.0 International" "author=Plant Biology, The Noble Foundation, Ardmore, OK, US/Dennis Fine, Daniel Wherritt, and Lloyd Sumner" "ionization=ESI" "isolation width=5" "collision gas=Nitrogen" "peak width=0.015" "date=2014-01-10 14:40:31+01:00" "column=Waters Acquity BEH C18 1.7um x 2.1 x 150 mm" "retention time=263.4" "raw data file=C:\Data\Confirmed Standards\14Jan9 Confirmed stds MSMS\Scopolein (vial 77).d" "computed mass accuracy=183.15568586396682" "computed mass error=-0.03498273600001767" "SPLASH=splash10-0uk9-0900000000-37644bdb4253d408730b" "submitter=Aiko Barsch (Bruker)" "MoNA Rating=4.545454545454546"
Num Peaks: 3
104.0269 100.000000
120.0223 84.084084
148.0136 44.544545


Name: Scopoletin
Synon: $:00in-source
DB#: MetaboBASE0272
InChIKey: RODXRVNMMDRFIK-UHFFFAOYSA-N
Instrument_type: LC-ESI-TOF
Instrument: impact HD
Ion_mode: N
Collision_energy: 10
Formula: C10H8O4
MW: 192
ExactMass: 192.042258736
Comments: "cas number=92-61-5" "SMILES=COc1cc2ccc(=O)oc2cc1O" "InChI=InChI=1S/C10H8O4/c1-13-9-4-6-2-3-10(12)14-8(6)5-7(9)11/h2-5,11H,1H3" "computed SMILES=O=C1OC=2C=C(O)C(OC)=CC2C=C1" "license=License CC-BY-NC-SA 4.0 International" "author=Plant Biology, The Noble Foundation, Ardmore, OK, US/Dennis Fine, Daniel Wherritt, and Lloyd Sumner" "ionization=ESI" "collision gas=Nitrogen" "peak width=0.021" "date=2013-11-07 07:28:02+01:00" "column=Waters Acquity BEH C18 1.7um x 2.1 x 150 mm" "retention time=262.8" "raw data file=C:\Data\Confirmed Standards\Confirmed Stds 6Nov13\Scopolein (vial 77).d" "SPLASH=splash10-004i-0903000010-279e9ecfac68f75b37fd" "submitter=Aiko Barsch (Bruker)" "MoNA Rating=4.444444444444445"
Num Peaks: 24
104.0267 1.101101
120.0212 2.502503
148.0167 25.025025
149.0204 1.801802
176.0118 100.000000
177.0149 7.907908
191.0351 16.016016
192.0380 1.701702
292.9748 1.001001
320.9920 1.201201
381.0614 42.042042
382.0642 7.107107
383.0674 1.101101
389.0842 3.403403
405.0585 10.410410
406.0619 1.901902
467.0281 3.303303
619.0841 1.101101
674.0358 2.302302
724.0186 1.401401
818.0687 1.301301
820.0738 14.714715
821.0764 6.106106
822.0779 1.701702


Name: Scopoletin
Synon: $:00in-source
DB#: MetaboBASE0273
InChIKey: RODXRVNMMDRFIK-UHFFFAOYSA-N
Precursor_type: [M-H]-
Spectrum_type: MS2
PrecursorMZ: 191.0344
Instrument_type: LC-ESI-TOF
Instrument: impact HD
Ion_mode: N
Collision_energy: 10
Formula: C10H8O4
MW: 192
ExactMass: 192.042258736
Comments: "cas number=92-61-5" "SMILES=COc1cc2ccc(=O)oc2cc1O" "InChI=InChI=1S/C10H8O4/c1-13-9-4-6-2-3-10(12)14-8(6)5-7(9)11/h2-5,11H,1H3" "computed SMILES=O=C1OC=2C=C(O)C(OC)=CC2C=C1" "license=License CC-BY-NC-SA 4.0 International" "author=Plant Biology, The Noble Foundation, Ardmore, OK, US/Dennis Fine, Daniel Wherritt, and Lloyd Sumner" "ionization=ESI" "isolation width=5" "collision gas=Nitrogen" "peak width=0.014" "date=2014-01-10 14:40:31+01:00" "column=Waters Acquity BEH C18 1.7um x 2.1 x 150 mm" "retention time=263.4" "raw data file=C:\Data\Confirmed Standards\14Jan9 Confirmed stds MSMS\Scopolein (vial 77).d" "computed mass accuracy=3.0504244262424653" "computed mass error=-5.827360000125736E-4" "SPLASH=splash10-004l-0900000000-0725f844ed58b7b3db24" "submitter=Aiko Barsch (Bruker)" "MoNA Rating=4.583333333333334"
Num Peaks: 8
104.0184 2.002002
104.0215 2.002002
137.0241 2.202202
148.0154 3.303303
176.0116 100.000000
177.0144 11.911912
191.0344 88.188188
192.0385 10.310310


Name: Scopoletin
Synon: $:00in-source
DB#: MetaboBASE0274
InChIKey: RODXRVNMMDRFIK-UHFFFAOYSA-N
Precursor_type: [M-H]-
Spectrum_type: MS2
PrecursorMZ: 191.0384
Instrument_type: LC-ESI-TOF
Instrument: impact HD
Ion_mode: N
Collision_energy: 20
Formula: C10H8O4
MW: 192
ExactMass: 192.042258736
Comments: "cas number=92-61-5" "SMILES=COc1cc2ccc(=O)oc2cc1O" "InChI=InChI=1S/C10H8O4/c1-13-9-4-6-2-3-10(12)14-8(6)5-7(9)11/h2-5,11H,1H3" "computed SMILES=O=C1OC=2C=C(O)C(OC)=CC2C=C1" "license=License CC-BY-NC-SA 4.0 International" "author=Plant Biology, The Noble Foundation, Ardmore, OK, US/Dennis Fine, Daniel Wherritt, and Lloyd Sumner" "ionization=ESI" "isolation width=5" "collision gas=Nitrogen" "peak width=0.015" "date=2014-01-10 14:40:31+01:00" "column=Waters Acquity BEH C18 1.7um x 2.1 x 150 mm" "retention time=263.4" "raw data file=C:\Data\Confirmed Standards\14Jan9 Confirmed stds MSMS\Scopolein (vial 77).d" "computed mass accuracy=17.8878382564872" "computed mass error=0.003417263999978104" "SPLASH=splash10-004i-0900000000-f55cc5686f36a2c31bdf" "submitter=Aiko Barsch (Bruker)" "MoNA Rating=4.545454545454546"
Num Peaks: 8
104.0249 4.004004
120.0209 6.506507
148.0160 40.040040
149.0216 4.304304
176.0116 100.000000
177.0145 12.012012
180.0096 2.602603
191.0384 3.403403


Name: Scopoletin
Synon: $:00in-source
DB#: MetaboBASE0275
InChIKey: RODXRVNMMDRFIK-UHFFFAOYSA-N
Precursor_type: [M-H]-
Spectrum_type: MS2
PrecursorMZ: 191
Instrument_type: LC-ESI-TOF
Instrument: impact HD
Ion_mode: N
Collision_energy: 30
Formula: C10H8O4
MW: 192
ExactMass: 192.042258736
Comments: "cas number=92-61-5" "SMILES=COc1cc2ccc(=O)oc2cc1O" "InChI=InChI=1S/C10H8O4/c1-13-9-4-6-2-3-10(12)14-8(6)5-7(9)11/h2-5,11H,1H3" "computed SMILES=O=C1OC=2C=C(O)C(OC)=CC2C=C1" "license=License CC-BY-NC-SA 4.0 International" "author=Plant Biology, The Noble Foundation, Ardmore, OK, US/Dennis Fine, Daniel Wherritt, and Lloyd Sumner" "ionization=ESI" "isolation width=5" "collision gas=Nitrogen" "peak width=0.015" "date=2014-01-10 14:40:31+01:00" "column=Waters Acquity BEH C18 1.7um x 2.1 x 150 mm" "retention time=263.4" "raw data file=C:\Data\Confirmed Standards\14Jan9 Confirmed stds MSMS\Scopolein (vial 77).d" "computed mass accuracy=183.15568586396682" "computed mass error=-0.03498273600001767" "SPLASH=splash10-0092-0900000000-2371c5d87e204b2f3187" "submitter=Aiko Barsch (Bruker)" "MoNA Rating=4.545454545454546"
Num Peaks: 5
104.0278 40.740741
105.0305 13.113113
120.0220 81.681682
148.0160 100.000000
176.0110 77.877878


Name: Scopoletin
Synon: $:00in-source
DB#: MetaboBASE0276
InChIKey: RODXRVNMMDRFIK-UHFFFAOYSA-N
Instrument_type: LC-ESI-TOF
Instrument: impact HD
Ion_mode: N
Formula: C10H8O4
MW: 192
ExactMass: 192.042258736
Comments: "cas number=92-61-5" "SMILES=COc1cc2ccc(=O)oc2cc1O" "InChI=InChI=1S/C10H8O4/c1-13-9-4-6-2-3-10(12)14-8(6)5-7(9)11/h2-5,11H,1H3" "computed SMILES=O=C1OC=2C=C(O)C(OC)=CC2C=C1" "license=License CC-BY-NC-SA 4.0 International" "author=Plant Biology, The Noble Foundation, Ardmore, OK, US/Dennis Fine, Daniel Wherritt, and Lloyd Sumner" "ionization=ESI" "collision gas=Nitrogen" "peak width=0.013" "date=2014-01-10 14:40:31+01:00" "column=Waters Acquity BEH C18 1.7um x 2.1 x 150 mm" "retention time=263.4" "raw data file=C:\Data\Confirmed Standards\14Jan9 Confirmed stds MSMS\Scopolein (vial 77).d" "SPLASH=splash10-0006-0901000000-f56262960dba956afd50" "submitter=Aiko Barsch (Bruker)" "MoNA Rating=3.888888888888889"
Num Peaks: 10
176.0118 12.612613
191.0352 100.000000
192.0384 8.608609
259.0223 3.603604
320.9912 2.402402
381.0610 6.006006
389.0841 5.505506
405.0588 3.203203
820.0721 5.805806
821.0755 2.702703


Name: Tricetin
Synon: $:00in-source
DB#: MetaboBASE0277
InChIKey: ARSRJFRKVXALTF-UHFFFAOYSA-N
Precursor_type: [M-H]-
Spectrum_type: MS2
PrecursorMZ: 301.0407
Instrument_type: LC-ESI-TOF
Instrument: impact HD
Ion_mode: N
Collision_energy: 20
Formula: C15H10O7
MW: 302
ExactMass: 302.04265266
Comments: "cas number=520-31-0" "SMILES=c1c(cc(c(c1O)O)O)c2cc(=O)c3c(cc(cc3o2)O)O" "InChI=InChI=1S/C15H10O7/c16-7-3-8(17)14-9(18)5-12(22-13(14)4-7)6-1-10(19)15(21)11(20)2-6/h1-5,16-17,19-21H" "computed SMILES=O=C1C=C(OC=2C=C(O)C=C(O)C12)C=3C=C(O)C(O)=C(O)C3" "license=License CC-BY-NC-SA 4.0 International" "author=Plant Biology, The Noble Foundation, Ardmore, OK, US/Dennis Fine, Daniel Wherritt, and Lloyd Sumner" "ionization=ESI" "isolation width=5" "collision gas=Nitrogen" "peak width=0.014" "date=2013-11-18 21:30:50+01:00" "column=Waters Acquity BEH C18 1.7um x 2.1 x 150 mm" "retention time=390" "raw data file=C:\Data\Confirmed Standards\Confirmed stds MSMS 14Nov13\Tricetin MSMS (vial 72).d" "computed mass accuracy=17.683123909883637" "computed mass error=0.005323340000018106" "SPLASH=splash10-0udi-0009000000-3dcc5d7fef903a3c09f5" "submitter=Aiko Barsch (Bruker)" "MoNA Rating=4.545454545454546"
Num Peaks: 3
301.0407 100.000000
302.0430 15.615616
303.0484 2.502503


Name: Tricetin
Synon: $:00in-source
DB#: MetaboBASE0278
InChIKey: ARSRJFRKVXALTF-UHFFFAOYSA-N
Precursor_type: [M-H]-
Spectrum_type: MS2
PrecursorMZ: 301.0396
Instrument_type: LC-ESI-TOF
Instrument: impact HD
Ion_mode: N
Collision_energy: 40
Formula: C15H10O7
MW: 302
ExactMass: 302.04265266
Comments: "cas number=520-31-0" "SMILES=c1c(cc(c(c1O)O)O)c2cc(=O)c3c(cc(cc3o2)O)O" "InChI=InChI=1S/C15H10O7/c16-7-3-8(17)14-9(18)5-12(22-13(14)4-7)6-1-10(19)15(21)11(20)2-6/h1-5,16-17,19-21H" "computed SMILES=O=C1C=C(OC=2C=C(O)C=C(O)C12)C=3C=C(O)C(O)=C(O)C3" "license=License CC-BY-NC-SA 4.0 International" "author=Plant Biology, The Noble Foundation, Ardmore, OK, US/Dennis Fine, Daniel Wherritt, and Lloyd Sumner" "ionization=ESI" "isolation width=5" "collision gas=Nitrogen" "peak width=0.013" "date=2013-11-18 21:30:50+01:00" "column=Waters Acquity BEH C18 1.7um x 2.1 x 150 mm" "retention time=390" "raw data file=C:\Data\Confirmed Standards\Confirmed stds MSMS 14Nov13\Tricetin MSMS (vial 72).d" "computed mass accuracy=14.029184200384307" "computed mass error=0.004223340000010012" "SPLASH=splash10-0002-0901000000-adca52e8c5d4d614e590" "submitter=Aiko Barsch (Bruker)" "MoNA Rating=4.545454545454546"
Num Peaks: 6
149.0275 100.000000
150.0300 15.615616
151.0083 13.813814
191.0382 12.012012
227.0403 10.310310
301.0396 20.120120


Name: Tricetin
Synon: $:00in-source
DB#: MetaboBASE0279
InChIKey: ARSRJFRKVXALTF-UHFFFAOYSA-N
Instrument_type: LC-ESI-TOF
Instrument: impact HD
Ion_mode: N
Collision_energy: 10
Formula: C15H10O7
MW: 302
ExactMass: 302.04265266
Comments: "cas number=520-31-0" "SMILES=c1c(cc(c(c1O)O)O)c2cc(=O)c3c(cc(cc3o2)O)O" "InChI=InChI=1S/C15H10O7/c16-7-3-8(17)14-9(18)5-12(22-13(14)4-7)6-1-10(19)15(21)11(20)2-6/h1-5,16-17,19-21H" "computed SMILES=O=C1C=C(OC=2C=C(O)C=C(O)C12)C=3C=C(O)C(O)=C(O)C3" "license=License CC-BY-NC-SA 4.0 International" "author=Plant Biology, The Noble Foundation, Ardmore, OK, US/Dennis Fine, Daniel Wherritt, and Lloyd Sumner" "ionization=ESI" "collision gas=Nitrogen" "peak width=0.02" "date=2013-11-07 04:44:57+01:00" "column=Waters Acquity BEH C18 1.7um x 2.1 x 150 mm" "retention time=390" "raw data file=C:\Data\Confirmed Standards\Confirmed Stds 6Nov13\Tricetin (vial 72).d" "SPLASH=splash10-0udi-0019021000-2120b36108b3049a3b92" "submitter=Aiko Barsch (Bruker)" "MoNA Rating=4.444444444444445"
Num Peaks: 28
227.0349 1.301301
271.0251 4.804805
272.0296 1.101101
273.0400 4.704705
299.0199 23.123123
300.0236 3.803804
301.0358 100.000000
302.0389 12.812813
303.0409 1.901902
315.0146 2.002002
317.0305 6.506507
318.0333 1.301301
335.0413 31.231231
336.0439 4.304304
569.0371 2.802803
571.0509 1.501502
573.0691 11.611612
574.0720 3.403403
599.0484 32.432432
600.0507 9.109109
601.0566 2.202202
617.0574 4.004004
618.0602 1.201201
621.0288 2.302302
623.0432 1.001001
633.0524 4.104104
634.0568 1.201201
651.0620 1.001001


Name: Kaempferol-3-O-rutinoside
Synon: $:00in-source
DB#: MetaboBASE0280
InChIKey: RTATXGUCZHCSNG-QHWHWDPRSA-N
Precursor_type: [M-H]-
Spectrum_type: MS2
PrecursorMZ: 593.1521
Instrument_type: LC-ESI-TOF
Instrument: impact HD
Ion_mode: N
Collision_energy: 40
Formula: C27H30O15
MW: 594
ExactMass: 594.1584702600001
Comments: "cas number=17650-84-9" "SMILES=C[C@H]1[C@@H]([C@H]([C@H]([C@@H](O1)OC[C@@H]2[C@H]([C@@H]([C@H]([C@@H](O2)Oc3c(=O)c4c(cc(cc4oc3c5ccc(cc5)O)O)O)O)O)O)O)O)O" "InChI=InChI=1S/C27H30O15/c1-9-17(31)20(34)22(36)26(39-9)38-8-15-18(32)21(35)23(37)27(41-15)42-25-19(33)16-13(30)6-12(29)7-14(16)40-24(25)10-2-4-11(28)5-3-10/h2-7,9,15,17-18,20-23,26-32,34-37H,8H2,1H3/t9-,15+,17-,18+,20+,21-,22+,23+,26+,27-/m0/s1" "computed SMILES=O=C1C(OC2OC(COC3OC(C)C(O)C(O)C3O)C(O)C(O)C2O)=C(OC=4C=C(O)C=C(O)C14)C=5C=CC(O)=CC5" "computed InChI=InChI=1S/C27H30O15/c1-9-17(31)20(34)22(36)26(39-9)38-8-15-18(32)21(35)23(37)27(41-15)42-25-19(33)16-13(30)6-12(29)7-14(16)40-24(25)10-2-4-11(28)5-3-10/h2-7,9,15,17-18,20-23,26-32,34-37H,8H2,1H3/t9-,15-,17-,18-,20+,21+,22+,23-,26+,27+/m1/s1" "license=License CC-BY-NC-SA 4.0 International" "author=Plant Biology, The Noble Foundation, Ardmore, OK, US/Dennis Fine, Daniel Wherritt, and Lloyd Sumner" "ionization=ESI" "isolation width=5" "collision gas=Nitrogen" "peak width=0.013" "date=2013-11-09 08:12:37+01:00" "column=Waters Acquity BEH C18 1.7um x 2.1 x 150 mm" "retention time=351.6" "raw data file=C:\Data\Confirmed Standards\Confirmed Stds 7Nov13\Kaempferol rutinoside MSMS.d" "computed mass accuracy=1.5269945095152266" "computed mass error=9.057400000074267E-4" "SPLASH=splash10-0019-0090000000-90ea2ab70dd9efa9cc60" "submitter=Aiko Barsch (Bruker)" "MoNA Rating=4.583333333333334"
Num Peaks: 6
255.0311 2.902903
284.0332 59.259259
285.0406 100.000000
286.0437 9.909910
593.1521 12.812813
594.1550 2.702703


Name: Kaempferol-3-O-rutinoside
Synon: $:00in-source
DB#: MetaboBASE0281
InChIKey: RTATXGUCZHCSNG-QHWHWDPRSA-N
Precursor_type: [M-H]-
Spectrum_type: MS2
PrecursorMZ: 593.2
Instrument_type: LC-ESI-TOF
Instrument: impact HD
Ion_mode: N
Collision_energy: 50
Formula: C27H30O15
MW: 594
ExactMass: 594.1584702600001
Comments: "cas number=17650-84-9" "SMILES=C[C@H]1[C@@H]([C@H]([C@H]([C@@H](O1)OC[C@@H]2[C@H]([C@@H]([C@H]([C@@H](O2)Oc3c(=O)c4c(cc(cc4oc3c5ccc(cc5)O)O)O)O)O)O)O)O)O" "InChI=InChI=1S/C27H30O15/c1-9-17(31)20(34)22(36)26(39-9)38-8-15-18(32)21(35)23(37)27(41-15)42-25-19(33)16-13(30)6-12(29)7-14(16)40-24(25)10-2-4-11(28)5-3-10/h2-7,9,15,17-18,20-23,26-32,34-37H,8H2,1H3/t9-,15+,17-,18+,20+,21-,22+,23+,26+,27-/m0/s1" "computed SMILES=O=C1C(OC2OC(COC3OC(C)C(O)C(O)C3O)C(O)C(O)C2O)=C(OC=4C=C(O)C=C(O)C14)C=5C=CC(O)=CC5" "computed InChI=InChI=1S/C27H30O15/c1-9-17(31)20(34)22(36)26(39-9)38-8-15-18(32)21(35)23(37)27(41-15)42-25-19(33)16-13(30)6-12(29)7-14(16)40-24(25)10-2-4-11(28)5-3-10/h2-7,9,15,17-18,20-23,26-32,34-37H,8H2,1H3/t9-,15-,17-,18-,20+,21+,22+,23-,26+,27+/m1/s1" "license=License CC-BY-NC-SA 4.0 International" "author=Plant Biology, The Noble Foundation, Ardmore, OK, US/Dennis Fine, Daniel Wherritt, and Lloyd Sumner" "ionization=ESI" "isolation width=5" "collision gas=Nitrogen" "peak width=0.013" "date=2013-11-09 08:12:37+01:00" "column=Waters Acquity BEH C18 1.7um x 2.1 x 150 mm" "retention time=351.6" "raw data file=C:\Data\Confirmed Standards\Confirmed Stds 7Nov13\Kaempferol rutinoside MSMS.d" "computed mass accuracy=82.27535401219546" "computed mass error=0.04880574000003435" "SPLASH=splash10-0019-0090000000-5fd813b8e117c904ac64" "submitter=Aiko Barsch (Bruker)" "MoNA Rating=4.545454545454546"
Num Peaks: 8
227.0354 8.008008
229.0510 4.304304
255.0304 19.619620
256.0362 4.604605
257.0451 4.604605
284.0332 99.699700
285.0402 100.000000
286.0432 9.409409


Name: Kaempferol-3-O-rutinoside
Synon: $:00in-source
DB#: MetaboBASE0282
InChIKey: RTATXGUCZHCSNG-QHWHWDPRSA-N
Instrument_type: LC-ESI-TOF
Instrument: impact HD
Ion_mode: N
Collision_energy: 10
Formula: C27H30O15
MW: 594
ExactMass: 594.1584702600001
Comments: "cas number=17650-84-9" "SMILES=C[C@H]1[C@@H]([C@H]([C@H]([C@@H](O1)OC[C@@H]2[C@H]([C@@H]([C@H]([C@@H](O2)Oc3c(=O)c4c(cc(cc4oc3c5ccc(cc5)O)O)O)O)O)O)O)O)O" "InChI=InChI=1S/C27H30O15/c1-9-17(31)20(34)22(36)26(39-9)38-8-15-18(32)21(35)23(37)27(41-15)42-25-19(33)16-13(30)6-12(29)7-14(16)40-24(25)10-2-4-11(28)5-3-10/h2-7,9,15,17-18,20-23,26-32,34-37H,8H2,1H3/t9-,15+,17-,18+,20+,21-,22+,23+,26+,27-/m0/s1" "computed SMILES=O=C1C(OC2OC(COC3OC(C)C(O)C(O)C3O)C(O)C(O)C2O)=C(OC=4C=C(O)C=C(O)C14)C=5C=CC(O)=CC5" "computed InChI=InChI=1S/C27H30O15/c1-9-17(31)20(34)22(36)26(39-9)38-8-15-18(32)21(35)23(37)27(41-15)42-25-19(33)16-13(30)6-12(29)7-14(16)40-24(25)10-2-4-11(28)5-3-10/h2-7,9,15,17-18,20-23,26-32,34-37H,8H2,1H3/t9-,15-,17-,18-,20+,21+,22+,23-,26+,27+/m1/s1" "license=License CC-BY-NC-SA 4.0 International" "author=Plant Biology, The Noble Foundation, Ardmore, OK, US/Dennis Fine, Daniel Wherritt, and Lloyd Sumner" "ionization=ESI" "collision gas=Nitrogen" "peak width=0.016" "date=2013-11-08 08:44:55+01:00" "column=Waters Acquity BEH C18 1.7um x 2.1 x 150 mm" "retention time=351.6" "raw data file=C:\Data\Confirmed Standards\Confirmed Stds 7Nov13\Kaempferol rutinoside (vial 84.d" "annotformula=593.1511;       C27H29O15" "SPLASH=splash10-0006-0000090000-bc4ac00403fd8123d258" "submitter=Aiko Barsch (Bruker)" "MoNA Rating=4.444444444444445"
Num Peaks: 6
593.1511 100.000000
594.1545 25.225225
595.1561 4.604605
661.1374 3.703704
662.1417 1.101101
1187.3099 1.501502


Name: 6,7,4'-Trihydroxyisoflavone
Synon: $:00in-source
DB#: MetaboBASE0283
InChIKey: GYLUFQJZYAJQDI-UHFFFAOYSA-N
Precursor_type: [M-H]-
Spectrum_type: MS2
PrecursorMZ: 269.1
Instrument_type: LC-ESI-TOF
Instrument: impact HD
Ion_mode: N
Collision_energy: 50
Formula: C15H10O5
MW: 270
ExactMass: 270.05282342
Comments: "cas number=17817-31-1" "SMILES=c1cc(ccc1c2coc3cc(c(cc3c2=O)O)O)O" "InChI=InChI=1S/C15H10O5/c16-9-3-1-8(2-4-9)11-7-20-14-6-13(18)12(17)5-10(14)15(11)19/h1-7,16-18H" "computed SMILES=O=C1C(=COC2=CC(O)=C(O)C=C12)C=3C=CC(O)=CC3" "license=License CC-BY-NC-SA 4.0 International" "author=Plant Biology, The Noble Foundation, Ardmore, OK, US/Dennis Fine, Daniel Wherritt, and Lloyd Sumner" "ionization=ESI" "isolation width=5" "collision gas=Nitrogen" "peak width=0.02" "date=2013-11-09 11:36:45+01:00" "column=Waters Acquity BEH C18 1.7um x 2.1 x 150 mm" "retention time=392.4" "raw data file=C:\Data\Confirmed Standards\Confirmed Stds 7Nov13\6,7,4-Trihydroxyisoflavone MSM.d" "computed mass accuracy=202.3507246377982" "computed mass error=0.0544525800000315" "SPLASH=splash10-014i-0950000000-d88b6d0e6c196be0a768" "submitter=Aiko Barsch (Bruker)" "MoNA Rating=4.545454545454546"
Num Peaks: 24
107.0148 14.014014
115.0551 21.421421
116.0257 12.512513
117.0350 100.000000
119.0143 18.318318
132.0225 15.515516
133.0273 19.219219
143.0507 32.832833
156.0565 13.913914
167.0494 21.721722
168.0585 10.410410
171.0467 17.617618
183.0443 12.912913
184.0520 11.111111
195.0454 31.931932
196.0503 13.813814
211.0394 47.847848
212.0474 17.617618
213.0558 10.510511
223.0416 34.434434
224.0480 31.131131
239.0350 56.156156
240.0422 32.432432
267.0309 12.012012


Name: 6,7,4'-Trihydroxyisoflavone
Synon: $:00in-source
DB#: MetaboBASE0284
InChIKey: GYLUFQJZYAJQDI-UHFFFAOYSA-N
Instrument_type: LC-ESI-TOF
Instrument: impact HD
Ion_mode: N
Collision_energy: 10
Formula: C15H10O5
MW: 270
ExactMass: 270.05282342
Comments: "cas number=17817-31-1" "SMILES=c1cc(ccc1c2coc3cc(c(cc3c2=O)O)O)O" "InChI=InChI=1S/C15H10O5/c16-9-3-1-8(2-4-9)11-7-20-14-6-13(18)12(17)5-10(14)15(11)19/h1-7,16-18H" "computed SMILES=O=C1C(=COC2=CC(O)=C(O)C=C12)C=3C=CC(O)=CC3" "license=License CC-BY-NC-SA 4.0 International" "author=Plant Biology, The Noble Foundation, Ardmore, OK, US/Dennis Fine, Daniel Wherritt, and Lloyd Sumner" "ionization=ESI" "collision gas=Nitrogen" "peak width=0.016" "date=2013-11-08 12:49:31+01:00" "column=Waters Acquity BEH C18 1.7um x 2.1 x 150 mm" "retention time=392.4" "raw data file=C:\Data\Confirmed Standards\Confirmed Stds 7Nov13\6,7,4-Trihydroxyisoflavone.d" "SPLASH=splash10-014i-0090000000-9c88a28592263b8079df" "submitter=Aiko Barsch (Bruker)" "MoNA Rating=4.444444444444445"
Num Peaks: 8
269.0455 100.000000
270.0486 12.212212
271.0250 1.401401
271.0504 1.301301
285.0402 5.005005
537.0829 1.101101
551.0629 1.801802
561.0801 1.101101


Name: 6,7,4'-Trihydroxyisoflavone
Synon: $:00in-source
DB#: MetaboBASE0285
InChIKey: GYLUFQJZYAJQDI-UHFFFAOYSA-N
Precursor_type: [M-H]-
Spectrum_type: MS2
PrecursorMZ: 269.1
Instrument_type: LC-ESI-TOF
Instrument: impact HD
Ion_mode: N
Collision_energy: 60
Formula: C15H10O5
MW: 270
ExactMass: 270.05282342
Comments: "cas number=17817-31-1" "SMILES=c1cc(ccc1c2coc3cc(c(cc3c2=O)O)O)O" "InChI=InChI=1S/C15H10O5/c16-9-3-1-8(2-4-9)11-7-20-14-6-13(18)12(17)5-10(14)15(11)19/h1-7,16-18H" "computed SMILES=O=C1C(=COC2=CC(O)=C(O)C=C12)C=3C=CC(O)=CC3" "license=License CC-BY-NC-SA 4.0 International" "author=Plant Biology, The Noble Foundation, Ardmore, OK, US/Dennis Fine, Daniel Wherritt, and Lloyd Sumner" "ionization=ESI" "isolation width=5" "collision gas=Nitrogen" "peak width=0.021" "date=2013-11-09 11:36:45+01:00" "column=Waters Acquity BEH C18 1.7um x 2.1 x 150 mm" "retention time=392.4" "raw data file=C:\Data\Confirmed Standards\Confirmed Stds 7Nov13\6,7,4-Trihydroxyisoflavone MSM.d" "computed mass accuracy=202.3507246377982" "computed mass error=0.0544525800000315" "SPLASH=splash10-014i-0920000000-8fc67ab4e075cb1ef684" "submitter=Aiko Barsch (Bruker)" "MoNA Rating=4.545454545454546"
Num Peaks: 15
107.0136 38.338338
116.0256 65.365365
117.0342 100.000000
119.0133 25.625626
132.0207 41.641642
141.0309 22.922923
143.0494 33.833834
167.0495 43.543544
182.0374 21.621622
183.0446 30.830831
195.0445 53.053053
210.0350 21.921922
211.0392 56.056056
223.0422 34.634635
239.0345 41.441441


Name: 6,7,4'-Trihydroxyisoflavone
Synon: $:00in-source
DB#: MetaboBASE0286
InChIKey: GYLUFQJZYAJQDI-UHFFFAOYSA-N
Precursor_type: [M-H]-
Spectrum_type: MS2
PrecursorMZ: 269.0453
Instrument_type: LC-ESI-TOF
Instrument: impact HD
Ion_mode: N
Collision_energy: 40
Formula: C15H10O5
MW: 270
ExactMass: 270.05282342
Comments: "cas number=17817-31-1" "SMILES=c1cc(ccc1c2coc3cc(c(cc3c2=O)O)O)O" "InChI=InChI=1S/C15H10O5/c16-9-3-1-8(2-4-9)11-7-20-14-6-13(18)12(17)5-10(14)15(11)19/h1-7,16-18H" "computed SMILES=O=C1C(=COC2=CC(O)=C(O)C=C12)C=3C=CC(O)=CC3" "license=License CC-BY-NC-SA 4.0 International" "author=Plant Biology, The Noble Foundation, Ardmore, OK, US/Dennis Fine, Daniel Wherritt, and Lloyd Sumner" "ionization=ESI" "isolation width=5" "collision gas=Nitrogen" "peak width=0.021" "date=2013-11-09 11:36:45+01:00" "column=Waters Acquity BEH C18 1.7um x 2.1 x 150 mm" "retention time=392.4" "raw data file=C:\Data\Confirmed Standards\Confirmed Stds 7Nov13\6,7,4-Trihydroxyisoflavone MSM.d" "computed mass accuracy=0.9196220859230061" "computed mass error=-2.4741999999378095E-4" "SPLASH=splash10-006x-0890000000-e320c8ded6c2cac7e2da" "submitter=Aiko Barsch (Bruker)" "MoNA Rating=4.615384615384616"
Num Peaks: 48
107.0132 4.004004
111.0096 4.704705
115.0555 4.104104
116.0266 4.604605
117.0343 37.137137
119.0135 10.510511
123.0082 6.806807
129.0345 4.404404
129.0373 4.404404
132.0209 7.307307
133.0283 10.510511
143.0500 24.624625
145.0448 7.907908
147.0071 6.506507
148.0168 10.610611
151.0048 4.604605
156.0585 5.005005
157.0645 10.810811
158.0542 4.104104
167.0503 22.822823
168.0555 5.805806
169.0618 17.417417
171.0450 20.220220
172.0484 3.903904
173.0594 5.705706
176.0140 3.803804
180.0582 3.803804
183.0458 5.805806
184.0514 8.108108
185.0607 15.515516
195.0452 32.732733
196.0516 21.721722
197.0581 8.908909
199.0408 8.308308
211.0400 17.017017
212.0486 10.410410
213.0550 16.516517
223.0400 32.032032
224.0482 62.462462
225.0538 23.623624
226.0482 4.104104
239.0354 49.149149
240.0424 100.000000
241.0482 26.426426
267.0295 10.210210
268.0370 7.407407
269.0453 31.031031
270.0491 4.204204


Name: 6,8-Dimethyl-4-hydroxycoumarin
Synon: $:00in-source
DB#: MetaboBASE0287
InChIKey: HVHIQQVTLCUBKA-UHFFFAOYSA-N
Precursor_type: [M-H]-
Spectrum_type: MS2
PrecursorMZ: 189
Instrument_type: LC-ESI-TOF
Instrument: impact HD
Ion_mode: N
Collision_energy: 30
Formula: C11H10O3
MW: 190
ExactMass: 190.06299417999998
Comments: "cas number=55004-76-7" "SMILES=Cc1cc(c2c(c1)c(cc(=O)o2)O)C" "InChI=InChI=1S/C11H10O3/c1-6-3-7(2)11-8(4-6)9(12)5-10(13)14-11/h3-5,12H,1-2H3" "computed SMILES=O=C1OC2=C(C=C(C=C2C)C)C(O)=C1" "license=License CC-BY-NC-SA 4.0 International" "author=Plant Biology, The Noble Foundation, Ardmore, OK, US/Dennis Fine, Daniel Wherritt, and Lloyd Sumner" "ionization=ESI" "isolation width=5" "collision gas=Nitrogen" "peak width=0.014" "date=2014-01-10 23:12:15+01:00" "column=Waters Acquity BEH C18 1.7um x 2.1 x 150 mm" "retention time=669" "raw data file=C:\Data\Confirmed Standards\14Jan10 Confirmed stds MSMS\6,8-Dimethyl-4-hydroxycoumarin.d" "computed mass accuracy=294.8051851851074" "computed mass error=-0.055718179999985296" "SPLASH=splash10-0002-0900000000-6ec6e612fae7fc576a7a" "submitter=Aiko Barsch (Bruker)" "MoNA Rating=3.5714285714285716"
Num Peaks: 2
145.0660 100.000000
146.0682 7.707708


Name: 6,8-Dimethyl-4-hydroxycoumarin
Synon: $:00in-source
DB#: MetaboBASE0288
InChIKey: HVHIQQVTLCUBKA-UHFFFAOYSA-N
Instrument_type: LC-ESI-TOF
Instrument: impact HD
Ion_mode: N
Collision_energy: 10
Formula: C11H10O3
MW: 190
ExactMass: 190.06299417999998
Comments: "cas number=55004-76-7" "SMILES=Cc1cc(c2c(c1)c(cc(=O)o2)O)C" "InChI=InChI=1S/C11H10O3/c1-6-3-7(2)11-8(4-6)9(12)5-10(13)14-11/h3-5,12H,1-2H3" "computed SMILES=O=C1OC2=C(C=C(C=C2C)C)C(O)=C1" "license=License CC-BY-NC-SA 4.0 International" "author=Plant Biology, The Noble Foundation, Ardmore, OK, US/Dennis Fine, Daniel Wherritt, and Lloyd Sumner" "ionization=ESI" "collision gas=Nitrogen" "peak width=0.014" "date=2013-11-08 18:15:44+01:00" "column=Waters Acquity BEH C18 1.7um x 2.1 x 150 mm" "retention time=670.8" "raw data file=C:\Data\Confirmed Standards\Confirmed Stds 7Nov13\6,8-Dimethyl-4-hydroxycoumarin.d" "annotformula=145.0666;       C10H9O1" "annotformula=189.0570;       C11H9O3" "SPLASH=splash10-000i-0900000000-7be2bbbe25bb75f3baeb" "submitter=Aiko Barsch (Bruker)" "MoNA Rating=4.444444444444445"
Num Peaks: 7
145.0666 12.812813
146.0701 1.101101
189.0570 100.000000
190.0601 8.508509
401.1026 7.607608
402.1052 1.501502
613.1476 1.501502


Name: 6,8-Dimethyl-4-hydroxycoumarin
Synon: $:00in-source
DB#: MetaboBASE0289
InChIKey: HVHIQQVTLCUBKA-UHFFFAOYSA-N
Instrument_type: LC-ESI-TOF
Instrument: impact HD
Ion_mode: N
Formula: C11H10O3
MW: 190
ExactMass: 190.06299417999998
Comments: "cas number=55004-76-7" "SMILES=Cc1cc(c2c(c1)c(cc(=O)o2)O)C" "InChI=InChI=1S/C11H10O3/c1-6-3-7(2)11-8(4-6)9(12)5-10(13)14-11/h3-5,12H,1-2H3" "computed SMILES=O=C1OC2=C(C=C(C=C2C)C)C(O)=C1" "license=License CC-BY-NC-SA 4.0 International" "author=Plant Biology, The Noble Foundation, Ardmore, OK, US/Dennis Fine, Daniel Wherritt, and Lloyd Sumner" "ionization=ESI" "collision gas=Nitrogen" "peak width=0.0088" "date=2014-01-10 23:12:15+01:00" "column=Waters Acquity BEH C18 1.7um x 2.1 x 150 mm" "retention time=669" "raw data file=C:\Data\Confirmed Standards\14Jan10 Confirmed stds MSMS\6,8-Dimethyl-4-hydroxycoumarin.d" "SPLASH=splash10-000i-0900000000-8ff022ff2a445c83d822" "submitter=Aiko Barsch (Bruker)" "MoNA Rating=3.888888888888889"
Num Peaks: 3
189.0561 100.000000
190.0593 8.708709
401.1013 4.304304


Name: 6,8-Dimethyl-4-hydroxycoumarin
Synon: $:00in-source
DB#: MetaboBASE0290
InChIKey: HVHIQQVTLCUBKA-UHFFFAOYSA-N
Precursor_type: [M-H]-
Spectrum_type: MS2
PrecursorMZ: 189.0561
Instrument_type: LC-ESI-TOF
Instrument: impact HD
Ion_mode: N
Collision_energy: 10
Formula: C11H10O3
MW: 190
ExactMass: 190.06299417999998
Comments: "cas number=55004-76-7" "SMILES=Cc1cc(c2c(c1)c(cc(=O)o2)O)C" "InChI=InChI=1S/C11H10O3/c1-6-3-7(2)11-8(4-6)9(12)5-10(13)14-11/h3-5,12H,1-2H3" "computed SMILES=O=C1OC2=C(C=C(C=C2C)C)C(O)=C1" "license=License CC-BY-NC-SA 4.0 International" "author=Plant Biology, The Noble Foundation, Ardmore, OK, US/Dennis Fine, Daniel Wherritt, and Lloyd Sumner" "ionization=ESI" "isolation width=5" "collision gas=Nitrogen" "peak width=0.0094" "date=2014-01-10 23:12:15+01:00" "column=Waters Acquity BEH C18 1.7um x 2.1 x 150 mm" "retention time=669" "raw data file=C:\Data\Confirmed Standards\14Jan10 Confirmed stds MSMS\6,8-Dimethyl-4-hydroxycoumarin.d" "computed mass accuracy=2.019612168034771" "computed mass error=3.818200000011984E-4" "SPLASH=splash10-000i-0900000000-713b6db8c013d1bc7e52" "submitter=Aiko Barsch (Bruker)" "MoNA Rating=4.583333333333334"
Num Peaks: 3
145.0661 5.005005
189.0561 100.000000
190.0592 6.806807


Name: 6,8-Dimethyl-4-hydroxycoumarin
Synon: $:00in-source
DB#: MetaboBASE0291
InChIKey: HVHIQQVTLCUBKA-UHFFFAOYSA-N
Precursor_type: [M-H]-
Spectrum_type: MS2
PrecursorMZ: 189.056
Instrument_type: LC-ESI-TOF
Instrument: impact HD
Ion_mode: N
Collision_energy: 20
Formula: C11H10O3
MW: 190
ExactMass: 190.06299417999998
Comments: "cas number=55004-76-7" "SMILES=Cc1cc(c2c(c1)c(cc(=O)o2)O)C" "InChI=InChI=1S/C11H10O3/c1-6-3-7(2)11-8(4-6)9(12)5-10(13)14-11/h3-5,12H,1-2H3" "computed SMILES=O=C1OC2=C(C=C(C=C2C)C)C(O)=C1" "license=License CC-BY-NC-SA 4.0 International" "author=Plant Biology, The Noble Foundation, Ardmore, OK, US/Dennis Fine, Daniel Wherritt, and Lloyd Sumner" "ionization=ESI" "isolation width=5" "collision gas=Nitrogen" "peak width=0.012" "date=2014-01-10 23:12:15+01:00" "column=Waters Acquity BEH C18 1.7um x 2.1 x 150 mm" "retention time=669" "raw data file=C:\Data\Confirmed Standards\14Jan10 Confirmed stds MSMS\6,8-Dimethyl-4-hydroxycoumarin.d" "computed mass accuracy=1.4906694314187356" "computed mass error=2.818200000263005E-4" "SPLASH=splash10-0002-0900000000-3f0febd80a7c4fc1ddb1" "submitter=Aiko Barsch (Bruker)" "MoNA Rating=4.583333333333334"
Num Peaks: 4
145.0661 100.000000
146.0693 6.406406
189.0560 25.725726
190.0591 2.302302


Name: 6,8-Dimethyl-4-hydroxycoumarin
Synon: $:00in-source
DB#: MetaboBASE0292
InChIKey: HVHIQQVTLCUBKA-UHFFFAOYSA-N
Precursor_type: [M-H]-
Spectrum_type: MS2
PrecursorMZ: 189
Instrument_type: LC-ESI-TOF
Instrument: impact HD
Ion_mode: N
Collision_energy: 40
Formula: C11H10O3
MW: 190
ExactMass: 190.06299417999998
Comments: "cas number=55004-76-7" "SMILES=Cc1cc(c2c(c1)c(cc(=O)o2)O)C" "InChI=InChI=1S/C11H10O3/c1-6-3-7(2)11-8(4-6)9(12)5-10(13)14-11/h3-5,12H,1-2H3" "computed SMILES=O=C1OC2=C(C=C(C=C2C)C)C(O)=C1" "license=License CC-BY-NC-SA 4.0 International" "author=Plant Biology, The Noble Foundation, Ardmore, OK, US/Dennis Fine, Daniel Wherritt, and Lloyd Sumner" "ionization=ESI" "isolation width=5" "collision gas=Nitrogen" "peak width=0.014" "date=2014-01-10 23:12:15+01:00" "column=Waters Acquity BEH C18 1.7um x 2.1 x 150 mm" "retention time=669" "raw data file=C:\Data\Confirmed Standards\14Jan10 Confirmed stds MSMS\6,8-Dimethyl-4-hydroxycoumarin.d" "computed mass accuracy=294.8051851851074" "computed mass error=-0.055718179999985296" "SPLASH=splash10-0002-0900000000-85138ec408210e97fc7d" "submitter=Aiko Barsch (Bruker)" "MoNA Rating=4.166666666666666"
Num Peaks: 10
102.0463 9.409409
115.0564 10.510511
117.0670 5.105105
130.0430 8.608609
133.0273 6.506507
144.0575 31.031031
145.0657 100.000000
146.0401 5.605606
146.0684 16.116116
159.0469 12.012012


Name: 6-Methoxyluteolin
Synon: $:00in-source
DB#: MetaboBASE0293
InChIKey: FHHSEFRSDKWJKJ-UHFFFAOYSA-N
Precursor_type: [M-H]-
Spectrum_type: MS2
PrecursorMZ: 315.1
Instrument_type: LC-ESI-TOF
Instrument: impact HD
Ion_mode: N
Collision_energy: 40
Formula: C16H12O7
MW: 316
ExactMass: 316.058302724
Comments: "cas number=520-11-6" "SMILES=COc1c(cc2c(c1O)c(=O)cc(o2)c3ccc(c(c3)O)O)O" "InChI=InChI=1S/C16H12O7/c1-22-16-11(20)6-13-14(15(16)21)10(19)5-12(23-13)7-2-3-8(17)9(18)4-7/h2-6,17-18,20-21H,1H3" "computed SMILES=O=C1C=C(OC2=CC(O)=C(OC)C(O)=C12)C=3C=CC(O)=C(O)C3" "license=License CC-BY-NC-SA 4.0 International" "author=Plant Biology, The Noble Foundation, Ardmore, OK, US/Dennis Fine, Daniel Wherritt, and Lloyd Sumner" "ionization=ESI" "isolation width=5" "collision gas=Nitrogen" "peak width=0.02" "date=2013-11-09 12:58:22+01:00" "column=Waters Acquity BEH C18 1.7um x 2.1 x 150 mm" "retention time=528" "raw data file=C:\Data\Confirmed Standards\Confirmed Stds 7Nov13\6-Methoxyluteolin (vial 92) MS.d" "computed mass accuracy=155.42137734061106" "computed mass error=0.048973276000026544" "SPLASH=splash10-0ug0-0792000000-b0493b07c4cff8abe96d" "submitter=Aiko Barsch (Bruker)" "MoNA Rating=4.545454545454546"
Num Peaks: 71
108.0216 5.305305
110.0019 15.715716
111.0094 4.204204
119.0132 7.207207
123.0091 3.503504
124.0172 4.004004
124.9874 4.404404
132.0216 15.415415
133.0296 31.031031
134.0378 14.714715
135.0351 4.704705
135.0436 4.704705
136.9884 85.485485
137.9934 7.407407
139.0039 12.712713
146.0372 7.307307
148.0374 4.204204
149.9961 6.506507
158.0386 11.011011
159.0453 3.403403
163.0050 7.107107
164.0117 5.405405
164.9905 4.404404
165.9906 24.724725
166.9979 6.806807
170.0379 3.703704
171.0444 6.506507
172.0504 8.808809
173.0269 4.904905
174.0321 11.211211
175.0386 5.405405
185.0266 4.004004
186.0306 5.705706
187.0398 6.506507
188.0469 6.606607
191.0013 4.604605
198.0329 6.506507
199.0400 18.218218
200.0461 10.810811
201.0198 32.132132
202.0256 22.822823
203.0346 4.304304
211.0390 4.104104
213.0197 11.611612
214.0256 9.209209
215.0354 13.113113
216.0421 16.516517
226.0277 9.409409
227.0350 41.041041
228.0414 46.446446
229.0257 11.211211
230.0217 18.018018
231.0284 5.205205
239.0348 5.405405
241.0138 9.709710
242.0192 9.109109
243.0292 40.740741
244.0360 9.209209
255.0295 15.115115
256.0361 4.304304
257.0173 3.503504
269.0073 9.309309
270.0155 18.618619
271.0240 16.616617
272.0301 12.112112
273.0303 4.004004
282.0177 3.803804
283.0237 8.308308
299.0194 21.621622
300.0269 100.000000
301.0306 12.212212


Name: 6-Methoxyluteolin
Synon: $:00in-source
DB#: MetaboBASE0294
InChIKey: FHHSEFRSDKWJKJ-UHFFFAOYSA-N
Precursor_type: [M-H]-
Spectrum_type: MS2
PrecursorMZ: 315.0506
Instrument_type: LC-ESI-TOF
Instrument: impact HD
Ion_mode: N
Collision_energy: 20
Formula: C16H12O7
MW: 316
ExactMass: 316.058302724
Comments: "cas number=520-11-6" "SMILES=COc1c(cc2c(c1O)c(=O)cc(o2)c3ccc(c(c3)O)O)O" "InChI=InChI=1S/C16H12O7/c1-22-16-11(20)6-13-14(15(16)21)10(19)5-12(23-13)7-2-3-8(17)9(18)4-7/h2-6,17-18,20-21H,1H3" "computed SMILES=O=C1C=C(OC2=CC(O)=C(OC)C(O)=C12)C=3C=CC(O)=C(O)C3" "license=License CC-BY-NC-SA 4.0 International" "author=Plant Biology, The Noble Foundation, Ardmore, OK, US/Dennis Fine, Daniel Wherritt, and Lloyd Sumner" "ionization=ESI" "isolation width=5" "collision gas=Nitrogen" "peak width=0.013" "date=2013-11-09 12:58:22+01:00" "column=Waters Acquity BEH C18 1.7um x 2.1 x 150 mm" "retention time=528" "raw data file=C:\Data\Confirmed Standards\Confirmed Stds 7Nov13\6-Methoxyluteolin (vial 92) MS.d" "computed mass accuracy=1.354461791286066" "computed mass error=-4.267240000217498E-4" "SPLASH=splash10-0udi-0009000000-f54474d5793a5cb95f17" "submitter=Aiko Barsch (Bruker)" "MoNA Rating=4.583333333333334"
Num Peaks: 7
270.0160 4.004004
285.0399 2.302302
298.0115 5.305305
300.0274 100.000000
301.0305 11.511512
315.0506 22.722723
316.0534 2.502503


Name: 6-Methoxyluteolin
Synon: $:00in-source
DB#: MetaboBASE0295
InChIKey: FHHSEFRSDKWJKJ-UHFFFAOYSA-N
Instrument_type: LC-ESI-TOF
Instrument: impact HD
Ion_mode: N
Collision_energy: 10
Formula: C16H12O7
MW: 316
ExactMass: 316.058302724
Comments: "cas number=520-11-6" "SMILES=COc1c(cc2c(c1O)c(=O)cc(o2)c3ccc(c(c3)O)O)O" "InChI=InChI=1S/C16H12O7/c1-22-16-11(20)6-13-14(15(16)21)10(19)5-12(23-13)7-2-3-8(17)9(18)4-7/h2-6,17-18,20-21H,1H3" "computed SMILES=O=C1C=C(OC2=CC(O)=C(OC)C(O)=C12)C=3C=CC(O)=C(O)C3" "license=License CC-BY-NC-SA 4.0 International" "author=Plant Biology, The Noble Foundation, Ardmore, OK, US/Dennis Fine, Daniel Wherritt, and Lloyd Sumner" "ionization=ESI" "collision gas=Nitrogen" "peak width=0.016" "date=2013-11-08 14:11:03+01:00" "column=Waters Acquity BEH C18 1.7um x 2.1 x 150 mm" "retention time=528" "raw data file=C:\Data\Confirmed Standards\Confirmed Stds 7Nov13\6-Methoxyluteolin (vial 92).d" "annotformula=300.0270;       C15H8O7" "annotformula=315.0508;       C16H11O7" "SPLASH=splash10-014i-0009000000-ba8db0221222e938d380" "submitter=Aiko Barsch (Bruker)" "MoNA Rating=4.444444444444445"
Num Peaks: 9
298.0109 1.101101
300.0270 13.413413
301.0302 1.801802
313.0349 4.104104
315.0508 100.000000
316.0539 15.215215
317.0554 1.901902
631.1096 1.401401
651.0754 1.801802


Name: 6-Methoxyluteolin
Synon: $:00in-source
DB#: MetaboBASE0296
InChIKey: FHHSEFRSDKWJKJ-UHFFFAOYSA-N
Precursor_type: [M-H]-
Spectrum_type: MS2
PrecursorMZ: 315.1
Instrument_type: LC-ESI-TOF
Instrument: impact HD
Ion_mode: N
Collision_energy: 50
Formula: C16H12O7
MW: 316
ExactMass: 316.058302724
Comments: "cas number=520-11-6" "SMILES=COc1c(cc2c(c1O)c(=O)cc(o2)c3ccc(c(c3)O)O)O" "InChI=InChI=1S/C16H12O7/c1-22-16-11(20)6-13-14(15(16)21)10(19)5-12(23-13)7-2-3-8(17)9(18)4-7/h2-6,17-18,20-21H,1H3" "computed SMILES=O=C1C=C(OC2=CC(O)=C(OC)C(O)=C12)C=3C=CC(O)=C(O)C3" "license=License CC-BY-NC-SA 4.0 International" "author=Plant Biology, The Noble Foundation, Ardmore, OK, US/Dennis Fine, Daniel Wherritt, and Lloyd Sumner" "ionization=ESI" "isolation width=5" "collision gas=Nitrogen" "peak width=0.02" "date=2013-11-09 12:58:22+01:00" "column=Waters Acquity BEH C18 1.7um x 2.1 x 150 mm" "retention time=528" "raw data file=C:\Data\Confirmed Standards\Confirmed Stds 7Nov13\6-Methoxyluteolin (vial 92) MS.d" "computed mass accuracy=155.42137734061106" "computed mass error=0.048973276000026544" "SPLASH=splash10-001r-0940000000-5baa8bd5a625567f08dd" "submitter=Aiko Barsch (Bruker)" "MoNA Rating=4.545454545454546"
Num Peaks: 44
108.0233 9.209209
110.0016 37.437437
111.0077 17.117117
132.0219 40.240240
133.0296 100.000000
134.0359 19.319319
135.0437 14.314314
136.9886 59.859860
139.0045 20.420420
143.0515 13.013013
145.0324 16.516517
146.0374 11.811812
158.0393 11.711712
159.0448 12.012012
163.0046 8.008008
164.0149 8.308308
165.9927 11.411411
170.0358 7.707708
171.0468 14.014014
173.0266 17.917918
174.0318 8.408408
175.0411 8.908909
182.0366 8.408408
183.0445 12.312312
185.0258 8.708709
187.0404 10.310310
199.0400 40.640641
200.0451 9.009009
201.0198 79.079079
202.0251 11.311311
213.0197 9.609610
214.0284 10.710711
215.0343 15.015015
216.0397 8.608609
226.0277 9.309309
227.0339 42.042042
228.0413 17.517518
229.0172 12.212212
230.0240 9.509510
243.0296 19.019019
255.0274 11.511512
271.0232 14.514515
299.0203 16.116116
300.0257 12.012012


Name: 7,3',4',5'-Tetrahydroxyflavone
Synon: $:00in-source
DB#: MetaboBASE0297
InChIKey: CCCIGFPBADVTFE-UHFFFAOYSA-N
Precursor_type: [M-H]-
Spectrum_type: MS2
PrecursorMZ: 285.0407
Instrument_type: LC-ESI-TOF
Instrument: impact HD
Ion_mode: N
Collision_energy: 30
Formula: C15H10O6
MW: 286
ExactMass: 286.04773804
Comments: "cas number=67858-31-5" "SMILES=c1cc2c(=O)cc(oc2cc1O)c3cc(c(c(c3)O)O)O" "InChI=InChI=1S/C15H10O6/c16-8-1-2-9-10(17)6-13(21-14(9)5-8)7-3-11(18)15(20)12(19)4-7/h1-6,16,18-20H" "computed SMILES=O=C1C=C(OC2=CC(O)=CC=C12)C=3C=C(O)C(O)=C(O)C3" "license=License CC-BY-NC-SA 4.0 International" "author=Plant Biology, The Noble Foundation, Ardmore, OK, US/Dennis Fine, Daniel Wherritt, and Lloyd Sumner" "ionization=ESI" "isolation width=5" "collision gas=Nitrogen" "peak width=0.022" "date=2013-11-09 12:17:32+01:00" "column=Waters Acquity BEH C18 1.7um x 2.1 x 150 mm" "retention time=276" "raw data file=C:\Data\Confirmed Standards\Confirmed Stds 7Nov13\7,3,4,5-Tetrahydroxyflavone MS.d" "computed mass accuracy=0.834828149077146" "computed mass error=2.3795999999265405E-4" "SPLASH=splash10-0002-0930000000-7bf999ef06e9afa4a650" "submitter=Aiko Barsch (Bruker)" "MoNA Rating=4.615384615384616"
Num Peaks: 3
135.0084 10.010010
149.0246 100.000000
285.0407 39.039039


Name: 7,3',4',5'-Tetrahydroxyflavone
Synon: $:00in-source
DB#: MetaboBASE0298
InChIKey: CCCIGFPBADVTFE-UHFFFAOYSA-N
Instrument_type: LC-ESI-TOF
Instrument: impact HD
Ion_mode: N
Collision_energy: 10
Formula: C15H10O6
MW: 286
ExactMass: 286.04773804
Comments: "cas number=67858-31-5" "SMILES=c1cc2c(=O)cc(oc2cc1O)c3cc(c(c(c3)O)O)O" "InChI=InChI=1S/C15H10O6/c16-8-1-2-9-10(17)6-13(21-14(9)5-8)7-3-11(18)15(20)12(19)4-7/h1-6,16,18-20H" "computed SMILES=O=C1C=C(OC2=CC(O)=CC=C12)C=3C=C(O)C(O)=C(O)C3" "license=License CC-BY-NC-SA 4.0 International" "author=Plant Biology, The Noble Foundation, Ardmore, OK, US/Dennis Fine, Daniel Wherritt, and Lloyd Sumner" "ionization=ESI" "collision gas=Nitrogen" "peak width=0.017" "date=2013-11-08 13:30:17+01:00" "column=Waters Acquity BEH C18 1.7um x 2.1 x 150 mm" "retention time=276" "raw data file=C:\Data\Confirmed Standards\Confirmed Stds 7Nov13\7,3,4,5-Tetrahydroxyflavone.d" "annotformula=285.0407;       C15H9O6" "SPLASH=splash10-000i-0090020000-b5b9cede2848cb0aab5f" "submitter=Aiko Barsch (Bruker)" "MoNA Rating=4.444444444444445"
Num Peaks: 16
283.0251 5.105105
284.0277 1.101101
285.0407 100.000000
286.0443 11.011011
287.0454 1.201201
301.0357 1.801802
319.0457 7.407407
537.0473 1.301301
541.0796 5.705706
542.0828 1.301301
567.0598 17.517518
568.0624 4.804805
569.0690 2.202202
571.0902 1.301301
585.0703 2.602603
601.0646 1.001001


Name: 7,4'-Dimethoxy-3-hydroxyflavone
Synon: $:00in-source
DB#: MetaboBASE0299
InChIKey: IFHXSMSQHPVVSF-UHFFFAOYSA-N
Precursor_type: [M-H]-
Spectrum_type: MS2
PrecursorMZ: 297.0798
Instrument_type: LC-ESI-TOF
Instrument: impact HD
Ion_mode: N
Collision_energy: 10
Formula: C17H14O5
MW: 298
ExactMass: 298.084123548
Comments: "cas number=13198-99-7" "SMILES=COc1ccc(cc1)c2c(c(=O)c3ccc(cc3o2)OC)O" "InChI=InChI=1S/C17H14O5/c1-20-11-5-3-10(4-6-11)17-16(19)15(18)13-8-7-12(21-2)9-14(13)22-17/h3-9,19H,1-2H3" "computed SMILES=O=C1C(O)=C(OC2=CC(OC)=CC=C21)C=3C=CC(OC)=CC3" "license=License CC-BY-NC-SA 4.0 International" "author=Plant Biology, The Noble Foundation, Ardmore, OK, US/Dennis Fine, Daniel Wherritt, and Lloyd Sumner" "ionization=ESI" "isolation width=5" "collision gas=Nitrogen" "peak width=0.013" "date=2013-11-18 23:33:31+01:00" "column=Waters Acquity BEH C18 1.7um x 2.1 x 150 mm" "retention time=1035" "raw data file=C:\Data\Confirmed Standards\Confirmed stds MSMS 14Nov13\7,4'Dimethoxy3hydroxyfMSMS v88.d" "computed mass accuracy=9.938245548799248" "computed mass error=0.0029524519999881704" "SPLASH=splash10-0002-0090000000-8617a989bd98f9ffc94c" "submitter=Aiko Barsch (Bruker)" "MoNA Rating=4.545454545454546"
Num Peaks: 3
282.0570 32.732733
297.0798 100.000000
298.0810 19.719720


Name: 7,4'-Dimethoxy-3-hydroxyflavone
Synon: $:00in-source
DB#: MetaboBASE0300
InChIKey: IFHXSMSQHPVVSF-UHFFFAOYSA-N
Precursor_type: [M-H]-
Spectrum_type: MS2
PrecursorMZ: 297.1
Instrument_type: LC-ESI-TOF
Instrument: impact HD
Ion_mode: N
Collision_energy: 20
Formula: C17H14O5
MW: 298
ExactMass: 298.084123548
Comments: "cas number=13198-99-7" "SMILES=COc1ccc(cc1)c2c(c(=O)c3ccc(cc3o2)OC)O" "InChI=InChI=1S/C17H14O5/c1-20-11-5-3-10(4-6-11)17-16(19)15(18)13-8-7-12(21-2)9-14(13)22-17/h3-9,19H,1-2H3" "computed SMILES=O=C1C(O)=C(OC2=CC(OC)=CC=C21)C=3C=CC(OC)=CC3" "license=License CC-BY-NC-SA 4.0 International" "author=Plant Biology, The Noble Foundation, Ardmore, OK, US/Dennis Fine, Daniel Wherritt, and Lloyd Sumner" "ionization=ESI" "isolation width=5" "collision gas=Nitrogen" "peak width=0.017" "date=2013-11-18 23:33:31+01:00" "column=Waters Acquity BEH C18 1.7um x 2.1 x 150 mm" "retention time=1035" "raw data file=C:\Data\Confirmed Standards\Confirmed stds MSMS 14Nov13\7,4'Dimethoxy3hydroxyfMSMS v88.d" "computed mass accuracy=77.92814540569998" "computed mass error=0.023152452000033463" "SPLASH=splash10-001i-0090000000-7c83ef94cf310a87b01f" "submitter=Aiko Barsch (Bruker)" "MoNA Rating=4.545454545454546"
Num Peaks: 4
239.0354 49.649650
267.0312 43.743744
282.0577 100.000000
283.0591 31.831832


Name: 7,4'-Dimethoxy-3-hydroxyflavone
Synon: $:00in-source
DB#: MetaboBASE0301
InChIKey: IFHXSMSQHPVVSF-UHFFFAOYSA-N
Instrument_type: LC-ESI-TOF
Instrument: impact HD
Ion_mode: N
Collision_energy: 10
Formula: C17H14O5
MW: 298
ExactMass: 298.084123548
Comments: "cas number=13198-99-7" "SMILES=COc1ccc(cc1)c2c(c(=O)c3ccc(cc3o2)OC)O" "InChI=InChI=1S/C17H14O5/c1-20-11-5-3-10(4-6-11)17-16(19)15(18)13-8-7-12(21-2)9-14(13)22-17/h3-9,19H,1-2H3" "computed SMILES=O=C1C(O)=C(OC2=CC(OC)=CC=C21)C=3C=CC(OC)=CC3" "license=License CC-BY-NC-SA 4.0 International" "author=Plant Biology, The Noble Foundation, Ardmore, OK, US/Dennis Fine, Daniel Wherritt, and Lloyd Sumner" "ionization=ESI" "collision gas=Nitrogen" "peak width=0.022" "date=2013-11-08 11:28:01+01:00" "column=Waters Acquity BEH C18 1.7um x 2.1 x 150 mm" "retention time=1035" "raw data file=C:\Data\Confirmed Standards\Confirmed Stds 7Nov13\7,4-Dimethoxy3hydroxyflavone.d" "annotformula=257.0812;       C15H13O4" "annotformula=282.0523;       C16H10O5" "annotformula=285.0759;       C16H13O5" "annotformula=297.0759;       C17H13O5" "annotformula=313.0711;       C17H13O6" "annotformula=617.1406;       C43H21O5" "SPLASH=splash10-00kk-0091002000-d82ff689b60dc56f6f66" "submitter=Aiko Barsch (Bruker)" "MoNA Rating=4.444444444444445"
Num Peaks: 86
112.9847 5.205205
116.9284 2.702703
128.0100 4.804805
161.0244 2.202202
174.9548 1.501502
227.1657 1.201201
239.0340 7.107107
240.0355 1.001001
241.0493 2.802803
242.0556 1.301301
248.9610 2.202202
254.0575 2.502503
255.2340 1.301301
257.0812 37.537538
258.0844 6.006006
267.0291 7.207207
268.0334 1.801802
280.9828 1.101101
282.0523 41.841842
283.0553 7.907908
284.0577 1.101101
285.0759 64.064064
286.0784 10.410410
287.0845 2.102102
292.9845 1.301301
297.0759 100.000000
298.0796 17.817818
299.0815 2.402402
299.1642 1.101101
304.9819 1.901902
313.0711 10.210210
314.0754 2.002002
316.9453 1.601602
316.9826 1.001001
336.9789 1.101101
342.9788 3.203203
349.0870 1.101101
354.9809 1.401401
355.0343 2.102102
365.0630 26.226226
366.0655 6.306306
367.0684 1.101101
427.0342 4.504505
428.0385 1.701702
433.0512 1.901902
443.0061 1.501502
448.0767 1.601602
488.0028 2.102102
601.1662 1.501502
617.1406 41.341341
618.1443 15.315315
619.1504 3.203203
633.1378 1.701702
639.1439 1.901902
679.1138 4.704705
680.1136 2.302302
685.1261 7.707708
686.1318 3.703704
740.0813 8.808809
741.0786 3.703704
742.0892 1.101101
747.0982 1.701702
753.1196 1.601602
815.0857 1.201201
821.1036 1.301301
931.1956 2.102102
932.1935 1.301301
937.2049 9.509510
938.2096 5.205205
939.2128 1.701702
953.2045 1.001001
992.1575 1.701702
993.1688 1.101101
999.1744 1.101101
1005.1895 1.701702
1006.2030 1.101101
1073.1720 1.201201
1073.1982 1.201201
1251.2714 1.501502
1252.2690 1.201201
1257.2817 5.105105
1258.2848 3.203203
1259.2955 1.401401
1325.2499 1.101101
1577.3418 1.101101
1578.3468 1.501502


Name: 7,4'-Dimethoxy-3-hydroxyflavone
Synon: $:00in-source
DB#: MetaboBASE0302
InChIKey: IFHXSMSQHPVVSF-UHFFFAOYSA-N
Precursor_type: [M-H]-
Spectrum_type: MS2
PrecursorMZ: 297.1
Instrument_type: LC-ESI-TOF
Instrument: impact HD
Ion_mode: N
Collision_energy: 30
Formula: C17H14O5
MW: 298
ExactMass: 298.084123548
Comments: "cas number=13198-99-7" "SMILES=COc1ccc(cc1)c2c(c(=O)c3ccc(cc3o2)OC)O" "InChI=InChI=1S/C17H14O5/c1-20-11-5-3-10(4-6-11)17-16(19)15(18)13-8-7-12(21-2)9-14(13)22-17/h3-9,19H,1-2H3" "computed SMILES=O=C1C(O)=C(OC2=CC(OC)=CC=C21)C=3C=CC(OC)=CC3" "license=License CC-BY-NC-SA 4.0 International" "author=Plant Biology, The Noble Foundation, Ardmore, OK, US/Dennis Fine, Daniel Wherritt, and Lloyd Sumner" "ionization=ESI" "isolation width=5" "collision gas=Nitrogen" "peak width=0.017" "date=2013-11-18 23:33:31+01:00" "column=Waters Acquity BEH C18 1.7um x 2.1 x 150 mm" "retention time=1035" "raw data file=C:\Data\Confirmed Standards\Confirmed stds MSMS 14Nov13\7,4'Dimethoxy3hydroxyfMSMS v88.d" "computed mass accuracy=77.92814540569998" "computed mass error=0.023152452000033463" "SPLASH=splash10-00kr-0090000000-836b8e5369b5c54df80a" "submitter=Aiko Barsch (Bruker)" "MoNA Rating=4.545454545454546"
Num Peaks: 3
239.0350 100.000000
240.0434 18.018018
267.0338 81.381381


Name: 7,4'-Dimethoxy-3-hydroxyflavone
Synon: $:00in-source
DB#: MetaboBASE0303
InChIKey: IFHXSMSQHPVVSF-UHFFFAOYSA-N
Precursor_type: [M-H]-
Spectrum_type: MS2
PrecursorMZ: 297.1
Instrument_type: LC-ESI-TOF
Instrument: impact HD
Ion_mode: N
Collision_energy: 40
Formula: C17H14O5
MW: 298
ExactMass: 298.084123548
Comments: "cas number=13198-99-7" "SMILES=COc1ccc(cc1)c2c(c(=O)c3ccc(cc3o2)OC)O" "InChI=InChI=1S/C17H14O5/c1-20-11-5-3-10(4-6-11)17-16(19)15(18)13-8-7-12(21-2)9-14(13)22-17/h3-9,19H,1-2H3" "computed SMILES=O=C1C(O)=C(OC2=CC(OC)=CC=C21)C=3C=CC(OC)=CC3" "license=License CC-BY-NC-SA 4.0 International" "author=Plant Biology, The Noble Foundation, Ardmore, OK, US/Dennis Fine, Daniel Wherritt, and Lloyd Sumner" "ionization=ESI" "isolation width=5" "collision gas=Nitrogen" "peak width=0.014" "date=2013-11-18 23:33:31+01:00" "column=Waters Acquity BEH C18 1.7um x 2.1 x 150 mm" "retention time=1035" "raw data file=C:\Data\Confirmed Standards\Confirmed stds MSMS 14Nov13\7,4'Dimethoxy3hydroxyfMSMS v88.d" "computed mass accuracy=77.92814540569998" "computed mass error=0.023152452000033463" "SPLASH=splash10-000i-0090000000-1ea05dd0291155b9cc77" "submitter=Aiko Barsch (Bruker)" "MoNA Rating=4.545454545454546"
Num Peaks: 4
211.0414 16.416416
239.0352 100.000000
240.0380 21.821822
267.0330 13.413413


Name: 7,4'-Dimethoxy-3-hydroxyflavone
Synon: $:00in-source
DB#: MetaboBASE0304
InChIKey: IFHXSMSQHPVVSF-UHFFFAOYSA-N
Precursor_type: [M-H]-
Spectrum_type: MS2
PrecursorMZ: 297.1
Instrument_type: LC-ESI-TOF
Instrument: impact HD
Ion_mode: N
Collision_energy: 50
Formula: C17H14O5
MW: 298
ExactMass: 298.084123548
Comments: "cas number=13198-99-7" "SMILES=COc1ccc(cc1)c2c(c(=O)c3ccc(cc3o2)OC)O" "InChI=InChI=1S/C17H14O5/c1-20-11-5-3-10(4-6-11)17-16(19)15(18)13-8-7-12(21-2)9-14(13)22-17/h3-9,19H,1-2H3" "computed SMILES=O=C1C(O)=C(OC2=CC(OC)=CC=C21)C=3C=CC(OC)=CC3" "license=License CC-BY-NC-SA 4.0 International" "author=Plant Biology, The Noble Foundation, Ardmore, OK, US/Dennis Fine, Daniel Wherritt, and Lloyd Sumner" "ionization=ESI" "isolation width=5" "collision gas=Nitrogen" "peak width=0.016" "date=2013-11-18 23:33:31+01:00" "column=Waters Acquity BEH C18 1.7um x 2.1 x 150 mm" "retention time=1035" "raw data file=C:\Data\Confirmed Standards\Confirmed stds MSMS 14Nov13\7,4'Dimethoxy3hydroxyfMSMS v88.d" "computed mass accuracy=77.92814540569998" "computed mass error=0.023152452000033463" "SPLASH=splash10-03dr-0090000000-bd57d01bf9fe59cd3c0f" "submitter=Aiko Barsch (Bruker)" "MoNA Rating=4.545454545454546"
Num Peaks: 3
210.0320 67.767768
211.0377 56.156156
239.0343 100.000000


Name: Vitexin
Synon: $:00in-source
DB#: MetaboBASE0305
InChIKey: SGEWCQFRYRRZDC-VPRICQMDSA-N
Precursor_type: [M-H]-
Spectrum_type: MS2
PrecursorMZ: 431.1
Instrument_type: LC-ESI-TOF
Instrument: impact HD
Ion_mode: N
Collision_energy: 60
Formula: C21H20O10
MW: 432
ExactMass: 432.10564683999996
Comments: "cas number=3681-93-4" "SMILES=c1cc(ccc1c2cc(=O)c3c(cc(c(c3o2)[C@H]4[C@@H]([C@H]([C@@H]([C@H](O4)CO)O)O)O)O)O)O" "InChI=InChI=1S/C21H20O10/c22-7-14-17(27)18(28)19(29)21(31-14)16-11(25)5-10(24)15-12(26)6-13(30-20(15)16)8-1-3-9(23)4-2-8/h1-6,14,17-19,21-25,27-29H,7H2/t14-,17-,18+,19-,21+/m1/s1" "computed SMILES=O=C1C=C(OC=2C1=C(O)C=C(O)C2C3OC(CO)C(O)C(O)C3O)C=4C=CC(O)=CC4" "license=License CC-BY-NC-SA 4.0 International" "author=Plant Biology, The Noble Foundation, Ardmore, OK, US/Dennis Fine, Daniel Wherritt, and Lloyd Sumner" "ionization=ESI" "isolation width=5" "collision gas=Nitrogen" "peak width=0.023" "date=2013-11-09 08:53:26+01:00" "column=Waters Acquity BEH C18 1.7um x 2.1 x 150 mm" "retention time=297" "raw data file=C:\Data\Confirmed Standards\Confirmed Stds 7Nov13\Vitexin (vial 86) MSMS.d" "computed mass accuracy=3.779076780445322" "computed mass error=0.0016291600000499784" "SPLASH=splash10-00lr-0980000000-a7106606775ccbb5f877" "submitter=Aiko Barsch (Bruker)" "MoNA Rating=4.583333333333334"
Num Peaks: 39
117.0341 100.000000
118.0372 8.008008
119.0499 8.908909
121.0288 18.418418
125.0242 3.403403
133.0276 3.403403
135.0437 19.819820
136.0313 3.103103
145.0287 3.603604
148.0176 3.903904
149.0235 6.706707
159.0437 15.315315
161.0240 23.323323
163.0297 12.012012
165.0189 4.304304
169.0633 2.902903
196.0523 3.403403
197.0600 3.103103
211.0671 4.304304
215.0701 3.803804
223.0385 3.003003
224.0464 6.706707
225.0539 5.305305
237.0542 7.307307
238.0619 3.703704
239.0643 12.912913
240.0508 5.505506
241.0504 3.903904
253.0487 7.007007
254.0551 3.403403
268.0373 12.112112
269.0439 6.906907
281.0449 15.015015
282.0522 9.109109
283.0600 91.691692
284.0630 15.015015
293.0438 9.209209
295.0598 3.103103
311.0540 3.203203


Name: Vitexin
Synon: $:00in-source
DB#: MetaboBASE0306
InChIKey: SGEWCQFRYRRZDC-VPRICQMDSA-N
Precursor_type: [M-H]-
Spectrum_type: MS2
PrecursorMZ: 431.1
Instrument_type: LC-ESI-TOF
Instrument: impact HD
Ion_mode: N
Collision_energy: 70
Formula: C21H20O10
MW: 432
ExactMass: 432.10564683999996
Comments: "cas number=3681-93-4" "SMILES=c1cc(ccc1c2cc(=O)c3c(cc(c(c3o2)[C@H]4[C@@H]([C@H]([C@@H]([C@H](O4)CO)O)O)O)O)O)O" "InChI=InChI=1S/C21H20O10/c22-7-14-17(27)18(28)19(29)21(31-14)16-11(25)5-10(24)15-12(26)6-13(30-20(15)16)8-1-3-9(23)4-2-8/h1-6,14,17-19,21-25,27-29H,7H2/t14-,17-,18+,19-,21+/m1/s1" "computed SMILES=O=C1C=C(OC=2C1=C(O)C=C(O)C2C3OC(CO)C(O)C(O)C3O)C=4C=CC(O)=CC4" "license=License CC-BY-NC-SA 4.0 International" "author=Plant Biology, The Noble Foundation, Ardmore, OK, US/Dennis Fine, Daniel Wherritt, and Lloyd Sumner" "ionization=ESI" "isolation width=5" "collision gas=Nitrogen" "peak width=0.023" "date=2013-11-09 08:53:26+01:00" "column=Waters Acquity BEH C18 1.7um x 2.1 x 150 mm" "retention time=297" "raw data file=C:\Data\Confirmed Standards\Confirmed Stds 7Nov13\Vitexin (vial 86) MSMS.d" "computed mass accuracy=3.779076780445322" "computed mass error=0.0016291600000499784" "SPLASH=splash10-014i-0920000000-ff12e5d6160ba3267209" "submitter=Aiko Barsch (Bruker)" "MoNA Rating=4.583333333333334"
Num Peaks: 22
117.0339 100.000000
118.0376 9.409409
119.0491 7.107107
121.0293 9.909910
135.0437 14.714715
145.0311 3.803804
145.0358 3.803804
149.0246 3.403403
159.0436 7.007007
161.0233 14.714715
163.0200 6.706707
197.0597 3.203203
224.0454 3.703704
225.0539 3.803804
237.0564 3.803804
239.0523 3.103103
253.0508 5.005005
269.0446 3.603604
281.0462 5.405405
282.0501 3.503504
283.0594 12.112112
284.0614 3.703704


Name: Vitexin
Synon: $:00in-source
DB#: MetaboBASE0307
InChIKey: SGEWCQFRYRRZDC-VPRICQMDSA-N
Instrument_type: LC-ESI-TOF
Instrument: impact HD
Ion_mode: N
Collision_energy: 10
Formula: C21H20O10
MW: 432
ExactMass: 432.10564683999996
Comments: "cas number=3681-93-4" "SMILES=c1cc(ccc1c2cc(=O)c3c(cc(c(c3o2)[C@H]4[C@@H]([C@H]([C@@H]([C@H](O4)CO)O)O)O)O)O)O" "InChI=InChI=1S/C21H20O10/c22-7-14-17(27)18(28)19(29)21(31-14)16-11(25)5-10(24)15-12(26)6-13(30-20(15)16)8-1-3-9(23)4-2-8/h1-6,14,17-19,21-25,27-29H,7H2/t14-,17-,18+,19-,21+/m1/s1" "computed SMILES=O=C1C=C(OC=2C1=C(O)C=C(O)C2C3OC(CO)C(O)C(O)C3O)C=4C=CC(O)=CC4" "license=License CC-BY-NC-SA 4.0 International" "author=Plant Biology, The Noble Foundation, Ardmore, OK, US/Dennis Fine, Daniel Wherritt, and Lloyd Sumner" "ionization=ESI" "collision gas=Nitrogen" "peak width=0.016" "date=2013-11-08 10:06:26+01:00" "column=Waters Acquity BEH C18 1.7um x 2.1 x 150 mm" "retention time=297" "raw data file=C:\Data\Confirmed Standards\Confirmed Stds 7Nov13\Vitexin (vial 86).d" "SPLASH=splash10-001i-0000900000-416255b3ab73a581d12c" "submitter=Aiko Barsch (Bruker)" "MoNA Rating=4.444444444444445"
Num Peaks: 7
311.0557 1.301301
431.0987 100.000000
432.1020 18.918919
433.1038 3.003003
863.2050 8.308308
864.2087 3.503504
885.1876 1.301301


Name: Vitexin
Synon: $:00in-source
DB#: MetaboBASE0308
InChIKey: SGEWCQFRYRRZDC-VPRICQMDSA-N
Precursor_type: [M-H]-
Spectrum_type: MS2
PrecursorMZ: 431.0972
Instrument_type: LC-ESI-TOF
Instrument: impact HD
Ion_mode: N
Collision_energy: 20
Formula: C21H20O10
MW: 432
ExactMass: 432.10564683999996
Comments: "cas number=3681-93-4" "SMILES=c1cc(ccc1c2cc(=O)c3c(cc(c(c3o2)[C@H]4[C@@H]([C@H]([C@@H]([C@H](O4)CO)O)O)O)O)O)O" "InChI=InChI=1S/C21H20O10/c22-7-14-17(27)18(28)19(29)21(31-14)16-11(25)5-10(24)15-12(26)6-13(30-20(15)16)8-1-3-9(23)4-2-8/h1-6,14,17-19,21-25,27-29H,7H2/t14-,17-,18+,19-,21+/m1/s1" "computed SMILES=O=C1C=C(OC=2C1=C(O)C=C(O)C2C3OC(CO)C(O)C(O)C3O)C=4C=CC(O)=CC4" "license=License CC-BY-NC-SA 4.0 International" "author=Plant Biology, The Noble Foundation, Ardmore, OK, US/Dennis Fine, Daniel Wherritt, and Lloyd Sumner" "ionization=ESI" "isolation width=5" "collision gas=Nitrogen" "peak width=0.015" "date=2013-11-09 08:53:26+01:00" "column=Waters Acquity BEH C18 1.7um x 2.1 x 150 mm" "retention time=297" "raw data file=C:\Data\Confirmed Standards\Confirmed Stds 7Nov13\Vitexin (vial 86) MSMS.d" "computed mass accuracy=2.7159536178526062" "computed mass error=-0.0011708399999861285" "SPLASH=splash10-01q9-0007900000-ce033c3faf7df3ce4cb2" "submitter=Aiko Barsch (Bruker)" "MoNA Rating=4.583333333333334"
Num Peaks: 6
311.0553 81.581582
312.0584 12.112112
341.0653 5.505506
431.0972 100.000000
432.1001 16.016016
433.1023 2.502503


Name: Vitexin
Synon: $:00in-source
DB#: MetaboBASE0309
InChIKey: SGEWCQFRYRRZDC-VPRICQMDSA-N
Precursor_type: [M-H]-
Spectrum_type: MS2
PrecursorMZ: 431.1
Instrument_type: LC-ESI-TOF
Instrument: impact HD
Ion_mode: N
Collision_energy: 40
Formula: C21H20O10
MW: 432
ExactMass: 432.10564683999996
Comments: "cas number=3681-93-4" "SMILES=c1cc(ccc1c2cc(=O)c3c(cc(c(c3o2)[C@H]4[C@@H]([C@H]([C@@H]([C@H](O4)CO)O)O)O)O)O)O" "InChI=InChI=1S/C21H20O10/c22-7-14-17(27)18(28)19(29)21(31-14)16-11(25)5-10(24)15-12(26)6-13(30-20(15)16)8-1-3-9(23)4-2-8/h1-6,14,17-19,21-25,27-29H,7H2/t14-,17-,18+,19-,21+/m1/s1" "computed SMILES=O=C1C=C(OC=2C1=C(O)C=C(O)C2C3OC(CO)C(O)C(O)C3O)C=4C=CC(O)=CC4" "license=License CC-BY-NC-SA 4.0 International" "author=Plant Biology, The Noble Foundation, Ardmore, OK, US/Dennis Fine, Daniel Wherritt, and Lloyd Sumner" "ionization=ESI" "isolation width=5" "collision gas=Nitrogen" "peak width=0.022" "date=2013-11-09 08:53:26+01:00" "column=Waters Acquity BEH C18 1.7um x 2.1 x 150 mm" "retention time=297" "raw data file=C:\Data\Confirmed Standards\Confirmed Stds 7Nov13\Vitexin (vial 86) MSMS.d" "computed mass accuracy=3.779076780445322" "computed mass error=0.0016291600000499784" "SPLASH=splash10-01q9-0096000000-5352d14a270cef7d0573" "submitter=Aiko Barsch (Bruker)" "MoNA Rating=4.583333333333334"
Num Peaks: 11
268.0374 3.003003
269.0439 3.403403
281.0445 3.903904
282.0508 2.702703
283.0603 100.000000
284.0631 12.312312
293.0449 4.004004
311.0552 75.975976
312.0581 9.009009
323.0547 5.205205
341.0647 3.403403


Name: Vitexin
Synon: $:00in-source
DB#: MetaboBASE0310
InChIKey: SGEWCQFRYRRZDC-VPRICQMDSA-N
Precursor_type: [M-H]-
Spectrum_type: MS2
PrecursorMZ: 431.1
Instrument_type: LC-ESI-TOF
Instrument: impact HD
Ion_mode: N
Collision_energy: 50
Formula: C21H20O10
MW: 432
ExactMass: 432.10564683999996
Comments: "cas number=3681-93-4" "SMILES=c1cc(ccc1c2cc(=O)c3c(cc(c(c3o2)[C@H]4[C@@H]([C@H]([C@@H]([C@H](O4)CO)O)O)O)O)O)O" "InChI=InChI=1S/C21H20O10/c22-7-14-17(27)18(28)19(29)21(31-14)16-11(25)5-10(24)15-12(26)6-13(30-20(15)16)8-1-3-9(23)4-2-8/h1-6,14,17-19,21-25,27-29H,7H2/t14-,17-,18+,19-,21+/m1/s1" "computed SMILES=O=C1C=C(OC=2C1=C(O)C=C(O)C2C3OC(CO)C(O)C(O)C3O)C=4C=CC(O)=CC4" "license=License CC-BY-NC-SA 4.0 International" "author=Plant Biology, The Noble Foundation, Ardmore, OK, US/Dennis Fine, Daniel Wherritt, and Lloyd Sumner" "ionization=ESI" "isolation width=5" "collision gas=Nitrogen" "peak width=0.023" "date=2013-11-09 08:53:26+01:00" "column=Waters Acquity BEH C18 1.7um x 2.1 x 150 mm" "retention time=297" "raw data file=C:\Data\Confirmed Standards\Confirmed Stds 7Nov13\Vitexin (vial 86) MSMS.d" "computed mass accuracy=3.779076780445322" "computed mass error=0.0016291600000499784" "SPLASH=splash10-001i-0190000000-33aab7c5c534e3bd93d2" "submitter=Aiko Barsch (Bruker)" "MoNA Rating=4.583333333333334"
Num Peaks: 17
117.0338 10.710711
121.0290 2.002002
135.0444 2.202202
149.0238 2.102102
161.0234 3.003003
163.0371 2.702703
239.0689 4.404404
268.0370 5.805806
269.0439 4.004004
281.0440 4.804805
282.0511 4.304304
283.0600 100.000000
284.0631 11.911912
293.0443 5.205205
295.0596 2.202202
311.0544 11.711712
323.0546 2.002002


Name: Spiraeoside
Synon: $:00in-source
DB#: MetaboBASE0311
InChIKey: OIUBYZLTFSLSBY-HMGRVEAOSA-N
Precursor_type: [M-H]-
Spectrum_type: MS2
PrecursorMZ: 463.0886
Instrument_type: LC-ESI-TOF
Instrument: impact HD
Ion_mode: N
Collision_energy: 20
Formula: C21H20O12
MW: 464
ExactMass: 464.09547607999997
Comments: "cas number=20229-56-5" "SMILES=c1cc(c(cc1c2c(c(=O)c3c(cc(cc3o2)O)O)O)O)O[C@H]4[C@@H]([C@H]([C@@H]([C@H](O4)CO)O)O)O" "InChI=InChI=1S/C21H20O12/c22-6-13-15(26)17(28)19(30)21(33-13)32-11-2-1-7(3-9(11)24)20-18(29)16(27)14-10(25)4-8(23)5-12(14)31-20/h1-5,13,15,17,19,21-26,28-30H,6H2/t13-,15-,17+,19-,21-/m1/s1" "computed SMILES=O=C1C(O)=C(OC=2C=C(O)C=C(O)C12)C=3C=CC(OC4OC(CO)C(O)C(O)C4O)=C(O)C3" "license=License CC-BY-NC-SA 4.0 International" "author=Plant Biology, The Noble Foundation, Ardmore, OK, US/Dennis Fine, Daniel Wherritt, and Lloyd Sumner" "ionization=ESI" "isolation width=5" "collision gas=Nitrogen" "peak width=0.013" "date=2013-11-09 13:39:13+01:00" "column=Waters Acquity BEH C18 1.7um x 2.1 x 150 mm" "retention time=375" "raw data file=C:\Data\Confirmed Standards\Confirmed Stds 7Nov13\Spiraeoside (vial 96) MSMS.d" "computed mass accuracy=0.8635928416433905" "computed mass error=3.999200000066594E-4" "SPLASH=splash10-0udi-0009100000-8535cabe8cb5fcb11b9f" "submitter=Aiko Barsch (Bruker)" "MoNA Rating=4.615384615384616"
Num Peaks: 4
301.0357 100.000000
302.0392 10.910911
463.0886 17.417417
464.0923 3.303303


Name: Spiraeoside
Synon: $:00in-source
DB#: MetaboBASE0312
InChIKey: OIUBYZLTFSLSBY-HMGRVEAOSA-N
Precursor_type: [M-H]-
Spectrum_type: MS2
PrecursorMZ: 463.0886
Instrument_type: LC-ESI-TOF
Instrument: impact HD
Ion_mode: N
Collision_energy: 40
Formula: C21H20O12
MW: 464
ExactMass: 464.09547607999997
Comments: "cas number=20229-56-5" "SMILES=c1cc(c(cc1c2c(c(=O)c3c(cc(cc3o2)O)O)O)O)O[C@H]4[C@@H]([C@H]([C@@H]([C@H](O4)CO)O)O)O" "InChI=InChI=1S/C21H20O12/c22-6-13-15(26)17(28)19(30)21(33-13)32-11-2-1-7(3-9(11)24)20-18(29)16(27)14-10(25)4-8(23)5-12(14)31-20/h1-5,13,15,17,19,21-26,28-30H,6H2/t13-,15-,17+,19-,21-/m1/s1" "computed SMILES=O=C1C(O)=C(OC=2C=C(O)C=C(O)C12)C=3C=CC(OC4OC(CO)C(O)C(O)C4O)=C(O)C3" "license=License CC-BY-NC-SA 4.0 International" "author=Plant Biology, The Noble Foundation, Ardmore, OK, US/Dennis Fine, Daniel Wherritt, and Lloyd Sumner" "ionization=ESI" "isolation width=5" "collision gas=Nitrogen" "peak width=0.019" "date=2013-11-09 13:39:13+01:00" "column=Waters Acquity BEH C18 1.7um x 2.1 x 150 mm" "retention time=375" "raw data file=C:\Data\Confirmed Standards\Confirmed Stds 7Nov13\Spiraeoside (vial 96) MSMS.d" "computed mass accuracy=0.8635928416433905" "computed mass error=3.999200000066594E-4" "SPLASH=splash10-0udi-0209000000-8d0c8eda18dc8cceda25" "submitter=Aiko Barsch (Bruker)" "MoNA Rating=4.615384615384616"
Num Peaks: 10
121.0295 4.304304
151.0045 26.226226
178.9992 14.214214
229.0516 2.202202
257.0446 2.402402
273.0406 6.106106
300.0275 62.562563
301.0352 100.000000
302.0378 12.412412
463.0886 2.802803


Name: Spiraeoside
Synon: $:00in-source
DB#: MetaboBASE0313
InChIKey: OIUBYZLTFSLSBY-HMGRVEAOSA-N
Precursor_type: [M-H]-
Spectrum_type: MS2
PrecursorMZ: 463.1
Instrument_type: LC-ESI-TOF
Instrument: impact HD
Ion_mode: N
Collision_energy: 50
Formula: C21H20O12
MW: 464
ExactMass: 464.09547607999997
Comments: "cas number=20229-56-5" "SMILES=c1cc(c(cc1c2c(c(=O)c3c(cc(cc3o2)O)O)O)O)O[C@H]4[C@@H]([C@H]([C@@H]([C@H](O4)CO)O)O)O" "InChI=InChI=1S/C21H20O12/c22-6-13-15(26)17(28)19(30)21(33-13)32-11-2-1-7(3-9(11)24)20-18(29)16(27)14-10(25)4-8(23)5-12(14)31-20/h1-5,13,15,17,19,21-26,28-30H,6H2/t13-,15-,17+,19-,21-/m1/s1" "computed SMILES=O=C1C(O)=C(OC=2C=C(O)C=C(O)C12)C=3C=CC(OC4OC(CO)C(O)C(O)C4O)=C(O)C3" "license=License CC-BY-NC-SA 4.0 International" "author=Plant Biology, The Noble Foundation, Ardmore, OK, US/Dennis Fine, Daniel Wherritt, and Lloyd Sumner" "ionization=ESI" "isolation width=5" "collision gas=Nitrogen" "peak width=0.021" "date=2013-11-09 13:39:13+01:00" "column=Waters Acquity BEH C18 1.7um x 2.1 x 150 mm" "retention time=375" "raw data file=C:\Data\Confirmed Standards\Confirmed Stds 7Nov13\Spiraeoside (vial 96) MSMS.d" "computed mass accuracy=25.48028503572455" "computed mass error=0.01179992000004404" "SPLASH=splash10-0udi-0936000000-ead01d21177722db0c04" "submitter=Aiko Barsch (Bruker)" "MoNA Rating=4.545454545454546"
Num Peaks: 21
107.0152 12.312312
121.0298 25.125125
149.0277 3.503504
151.0042 100.000000
152.0091 7.307307
164.0129 4.004004
169.0148 3.503504
178.9995 38.338338
227.0357 7.607608
229.0478 8.208208
243.0306 4.104104
245.0455 8.208208
255.0305 7.207207
271.0262 12.212212
272.0320 4.004004
273.0399 9.809810
283.0272 5.505506
299.0196 5.405405
300.0276 87.787788
301.0344 42.442442
302.0370 5.505506


Name: Spiraeoside
Synon: $:00in-source
DB#: MetaboBASE0314
InChIKey: OIUBYZLTFSLSBY-HMGRVEAOSA-N
Precursor_type: [M-H]-
Spectrum_type: MS2
PrecursorMZ: 463.1
Instrument_type: LC-ESI-TOF
Instrument: impact HD
Ion_mode: N
Collision_energy: 60
Formula: C21H20O12
MW: 464
ExactMass: 464.09547607999997
Comments: "cas number=20229-56-5" "SMILES=c1cc(c(cc1c2c(c(=O)c3c(cc(cc3o2)O)O)O)O)O[C@H]4[C@@H]([C@H]([C@@H]([C@H](O4)CO)O)O)O" "InChI=InChI=1S/C21H20O12/c22-6-13-15(26)17(28)19(30)21(33-13)32-11-2-1-7(3-9(11)24)20-18(29)16(27)14-10(25)4-8(23)5-12(14)31-20/h1-5,13,15,17,19,21-26,28-30H,6H2/t13-,15-,17+,19-,21-/m1/s1" "computed SMILES=O=C1C(O)=C(OC=2C=C(O)C=C(O)C12)C=3C=CC(OC4OC(CO)C(O)C(O)C4O)=C(O)C3" "license=License CC-BY-NC-SA 4.0 International" "author=Plant Biology, The Noble Foundation, Ardmore, OK, US/Dennis Fine, Daniel Wherritt, and Lloyd Sumner" "ionization=ESI" "isolation width=5" "collision gas=Nitrogen" "peak width=0.019" "date=2013-11-09 13:39:13+01:00" "column=Waters Acquity BEH C18 1.7um x 2.1 x 150 mm" "retention time=375" "raw data file=C:\Data\Confirmed Standards\Confirmed Stds 7Nov13\Spiraeoside (vial 96) MSMS.d" "computed mass accuracy=25.48028503572455" "computed mass error=0.01179992000004404" "SPLASH=splash10-0udi-0942000000-fa589cb74705f9065b0e" "submitter=Aiko Barsch (Bruker)" "MoNA Rating=4.545454545454546"
Num Peaks: 19
107.0147 13.213213
121.0294 30.630631
148.0201 5.005005
149.0265 10.610611
151.0044 100.000000
152.0097 7.907908
164.0140 7.007007
178.9994 15.015015
227.0357 11.011011
229.0430 6.606607
243.0318 18.018018
245.0466 6.406406
255.0307 11.811812
271.0247 19.719720
273.0400 6.406406
283.0269 5.705706
299.0195 5.905906
300.0273 44.244244
301.0340 9.909910


Name: Spiraeoside
Synon: $:00in-source
DB#: MetaboBASE0315
InChIKey: OIUBYZLTFSLSBY-HMGRVEAOSA-N
Instrument_type: LC-ESI-TOF
Instrument: impact HD
Ion_mode: N
Collision_energy: 10
Formula: C21H20O12
MW: 464
ExactMass: 464.09547607999997
Comments: "cas number=20229-56-5" "SMILES=c1cc(c(cc1c2c(c(=O)c3c(cc(cc3o2)O)O)O)O)O[C@H]4[C@@H]([C@H]([C@@H]([C@H](O4)CO)O)O)O" "InChI=InChI=1S/C21H20O12/c22-6-13-15(26)17(28)19(30)21(33-13)32-11-2-1-7(3-9(11)24)20-18(29)16(27)14-10(25)4-8(23)5-12(14)31-20/h1-5,13,15,17,19,21-26,28-30H,6H2/t13-,15-,17+,19-,21-/m1/s1" "computed SMILES=O=C1C(O)=C(OC=2C=C(O)C=C(O)C12)C=3C=CC(OC4OC(CO)C(O)C(O)C4O)=C(O)C3" "license=License CC-BY-NC-SA 4.0 International" "author=Plant Biology, The Noble Foundation, Ardmore, OK, US/Dennis Fine, Daniel Wherritt, and Lloyd Sumner" "ionization=ESI" "collision gas=Nitrogen" "peak width=0.02" "date=2013-11-08 16:54:11+01:00" "column=Waters Acquity BEH C18 1.7um x 2.1 x 150 mm" "retention time=375" "raw data file=C:\Data\Confirmed Standards\Confirmed Stds 7Nov13\Spiraeoside (vial 96).d" "SPLASH=splash10-03di-0002900001-4dfb6b7d47117fdc7cd5" "submitter=Aiko Barsch (Bruker)" "MoNA Rating=4.444444444444445"
Num Peaks: 19
301.0366 40.340340
302.0395 5.405405
317.0304 1.101101
339.0126 1.101101
462.0792 2.102102
463.0893 100.000000
464.0926 20.220220
465.0943 3.803804
479.0838 31.031031
480.0865 6.706707
481.0890 1.401401
501.0624 2.302302
531.0764 3.503504
553.0574 2.002002
927.1891 13.013013
928.1927 6.106106
929.1953 1.501502
943.1770 5.605606
944.1772 2.702703


Name: Sissotrin
Synon: $:00in-source
DB#: MetaboBASE0316
InChIKey: LFEUICHQZGNOHD-RECXWPGBSA-N
Spectrum_type: MS2
PrecursorMZ: 283.0601
Instrument_type: LC-ESI-TOF
Instrument: impact HD
Ion_mode: N
Collision_energy: 30
Formula: C22H22O10
MW: 446
ExactMass: 446.12129690399996
Comments: "cas number=5928-26-7" "SMILES=COc1ccc(cc1)c2coc3cc(cc(c3c2=O)O)O[C@H]4[C@@H]([C@H]([C@@H]([C@H](O4)CO)O)O)O" "InChI=InChI=1S/C22H22O10/c1-29-11-4-2-10(3-5-11)13-9-30-15-7-12(6-14(24)17(15)18(13)25)31-22-21(28)20(27)19(26)16(8-23)32-22/h2-7,9,16,19-24,26-28H,8H2,1H3/t16-,19-,20+,21-,22-/m1/s1" "computed SMILES=O=C1C(=COC2=CC(OC3OC(CO)C(O)C(O)C3O)=CC(O)=C12)C=4C=CC(OC)=CC4" "license=License CC-BY-NC-SA 4.0 International" "author=Plant Biology, The Noble Foundation, Ardmore, OK, US/Dennis Fine, Daniel Wherritt, and Lloyd Sumner" "ionization=ESI" "isolation width=5" "collision gas=Nitrogen" "peak width=0.017" "date=2014-08-05 23:12:13+02:00" "column=Waters Acquity BEH C18 1.7um x 2.1 x 150 mm" "retention time=613.8" "raw data file=C:\Data\Confirmed standards 24_July_2014\MSMS\Sissotin vial 87 dil 50%MeOH_1-F,6_01_542.d" "SPLASH=splash10-014i-0090000000-6b8821e1d4da894bb47a" "submitter=Aiko Barsch (Bruker)" "MoNA Rating=3.125"
Num Peaks: 54
132.0218 1.601602
133.0258 0.200200
135.0101 0.800801
151.0013 0.300300
153.0209 0.200200
168.0616 0.200200
180.0553 0.200200
184.0525 0.300300
195.0421 0.400400
196.0521 0.600601
211.0396 2.402402
212.0470 1.401401
213.0470 0.200200
222.0307 0.200200
223.0397 3.403403
224.0467 4.504505
225.0174 0.200200
225.0509 0.500501
226.0269 1.901902
227.0294 0.400400
239.0350 18.218218
240.0413 8.408408
241.0444 1.001001
250.0309 0.400400
251.0318 0.300300
267.0294 18.118118
268.0378 100.000000
269.0407 12.112112
270.0434 1.001001
283.0601 5.605606
284.0641 0.900901
665.3753 0.200200
820.2408 0.200200
886.1191 0.200200
981.9970 0.200200
1041.8448 0.200200
1079.9456 0.200200
1116.8501 0.200200
1152.3906 0.200200
1154.2905 0.200200
1263.8265 0.200200
1288.0890 0.200200
1289.6755 0.200200
1306.6497 0.200200
1348.7086 0.200200
1355.7592 0.200200
1360.0072 0.200200
1361.2855 0.200200
1390.0316 0.200200
1403.5046 0.200200
1415.7914 0.200200
1416.1353 0.200200
1436.8043 0.200200
1466.9208 0.200200


Name: Sissotrin
Synon: $:00in-source
DB#: MetaboBASE0317
InChIKey: LFEUICHQZGNOHD-RECXWPGBSA-N
Precursor_type: [M+FA-H]-
Spectrum_type: MS2
PrecursorMZ: 491.12
Instrument_type: LC-ESI-TOF
Instrument: impact HD
Ion_mode: N
Collision_energy: 20
Formula: C22H22O10
MW: 446
ExactMass: 446.12129690399996
Comments: "cas number=5928-26-7" "SMILES=COc1ccc(cc1)c2coc3cc(cc(c3c2=O)O)O[C@H]4[C@@H]([C@H]([C@@H]([C@H](O4)CO)O)O)O" "InChI=InChI=1S/C22H22O10/c1-29-11-4-2-10(3-5-11)13-9-30-15-7-12(6-14(24)17(15)18(13)25)31-22-21(28)20(27)19(26)16(8-23)32-22/h2-7,9,16,19-24,26-28H,8H2,1H3/t16-,19-,20+,21-,22-/m1/s1" "computed SMILES=O=C1C(=COC2=CC(OC3OC(CO)C(O)C(O)C3O)=CC(O)=C12)C=4C=CC(OC)=CC4" "license=License CC-BY-NC-SA 4.0 International" "author=Plant Biology, The Noble Foundation, Ardmore, OK, US/Dennis Fine, Daniel Wherritt, and Lloyd Sumner" "ionization=ESI" "isolation width=5" "collision gas=Nitrogen" "peak width=0.014" "date=2014-08-07 02:12:41+02:00" "column=Waters Acquity BEH C18 1.7um x 2.1 x 150 mm" "retention time=613.8" "raw data file=C:\Data\Confirmed standards 24_July_2014\MSMS\Sissotin vial 87 dil 50%MeOH_1-F,6_01_561.d" "computed mass accuracy=1.0223489168592472" "computed mass error=5.020960000479135E-4" "SPLASH=splash10-001i-0090000000-e5713af50f10c07d7035" "submitter=Aiko Barsch (Bruker)" "MoNA Rating=4.583333333333334"
Num Peaks: 16
239.0299 0.100100
267.0252 0.200200
267.0619 0.300300
268.0342 2.202202
269.0384 0.200200
283.0593 100.000000
284.0617 11.311311
285.0633 0.700701
297.0748 0.200200
305.0770 0.300300
325.0685 2.002002
326.0729 0.300300
349.0688 0.200200
367.0789 0.300300
445.1134 1.401401
446.1166 0.300300


Name: Sissotrin
Synon: $:00in-source
DB#: MetaboBASE0318
InChIKey: LFEUICHQZGNOHD-RECXWPGBSA-N
Precursor_type: [M-H]-
Spectrum_type: MS2
PrecursorMZ: 445.12
Instrument_type: LC-ESI-TOF
Instrument: impact HD
Ion_mode: N
Collision_energy: 20
Formula: C22H22O10
MW: 446
ExactMass: 446.12129690399996
Comments: "cas number=5928-26-7" "SMILES=COc1ccc(cc1)c2coc3cc(cc(c3c2=O)O)O[C@H]4[C@@H]([C@H]([C@@H]([C@H](O4)CO)O)O)O" "InChI=InChI=1S/C22H22O10/c1-29-11-4-2-10(3-5-11)13-9-30-15-7-12(6-14(24)17(15)18(13)25)31-22-21(28)20(27)19(26)16(8-23)32-22/h2-7,9,16,19-24,26-28H,8H2,1H3/t16-,19-,20+,21-,22-/m1/s1" "computed SMILES=O=C1C(=COC2=CC(OC3OC(CO)C(O)C(O)C3O)=CC(O)=C12)C=4C=CC(OC)=CC4" "license=License CC-BY-NC-SA 4.0 International" "author=Plant Biology, The Noble Foundation, Ardmore, OK, US/Dennis Fine, Daniel Wherritt, and Lloyd Sumner" "ionization=ESI" "isolation width=5" "collision gas=Nitrogen" "peak width=0.017" "date=2014-08-07 01:31:49+02:00" "column=Waters Acquity BEH C18 1.7um x 2.1 x 150 mm" "retention time=613.8" "raw data file=C:\Data\Confirmed standards 24_July_2014\MSMS\Sissotin vial 87 dil 50%MeOH_1-F,6_01_560.d" "computed mass accuracy=13.432548526313733" "computed mass error=0.005979096000032769" "SPLASH=splash10-001i-0090000000-b4e2985c7e29b65f095a" "submitter=Aiko Barsch (Bruker)" "MoNA Rating=4.545454545454546"
Num Peaks: 21
239.0369 0.300300
240.0433 0.100100
267.0326 0.400400
267.0676 0.700701
268.0403 5.305305
268.0689 0.100100
269.0440 0.600601
282.0572 0.100100
283.0650 100.000000
283.1297 0.100100
284.0677 14.514515
285.0706 1.001001
296.0700 0.300300
297.0791 0.900901
298.0857 0.100100
300.0640 0.200200
305.0864 0.400400
307.0641 0.100100
325.0756 1.401401
326.0768 0.300300
349.0718 0.300300


Name: Sissotrin
Synon: $:00in-source
DB#: MetaboBASE0319
InChIKey: LFEUICHQZGNOHD-RECXWPGBSA-N
Instrument_type: LC-ESI-TOF
Instrument: impact HD
Ion_mode: N
Collision_energy: 10
Formula: C22H22O10
MW: 446
ExactMass: 446.121296904
Comments: "cas number=5928-26-7" "SMILES=COc1ccc(cc1)c2coc3cc(cc(c3c2=O)O)O[C@H]4[C@@H]([C@H]([C@@H]([C@H](O4)CO)O)O)O" "InChI=InChI=1S/C22H22O10/c1-29-11-4-2-10(3-5-11)13-9-30-15-7-12(6-14(24)17(15)18(13)25)31-22-21(28)20(27)19(26)16(8-23)32-22/h2-7,9,16,19-24,26-28H,8H2,1H3/t16-,19-,20+,21-,22-/m1/s1" "computed SMILES=O=C1C(=COC2=CC(OC3OC(CO)C(O)C(O)C3O)=CC(O)=C12)C=4C=CC(OC)=CC4" "license=License CC-BY-NC-SA 4.0 International" "author=Plant Biology, The Noble Foundation, Ardmore, OK, US/Dennis Fine, Daniel Wherritt, and Lloyd Sumner" "ionization=ESI" "collision gas=Nitrogen" "peak width=0.018" "date=2013-11-08 10:47:13+01:00" "column=Waters Acquity BEH C18 1.7um x 2.1 x 150 mm" "retention time=615" "raw data file=C:\Data\Confirmed Standards\Confirmed Stds 7Nov13\Sissotrin (vial 87).d" "annotformula=283.0608;       C16H11O5" "annotformula=445.1140;       C22H21O10" "annotformula=491.1192;       C23H23O12" "SPLASH=splash10-001i-0090500000-29b8edcd0a11cb923728" "submitter=Aiko Barsch (Bruker)" "MoNA Rating=4.444444444444445"
Num Peaks: 17
283.0608 100.000000
284.0640 14.314314
285.0664 1.501502
325.0711 1.101101
445.1140 14.714715
446.1172 3.103103
491.1192 41.441441
492.1225 9.009009
493.1245 1.501502
513.1011 1.401401
581.0871 1.101101
729.1805 1.801802
891.2325 3.103103
892.2352 1.301301
937.2379 6.406406
938.2413 3.003003
959.2183 1.201201


Name: Sissotrin
Synon: $:00in-source
DB#: MetaboBASE0320
InChIKey: LFEUICHQZGNOHD-RECXWPGBSA-N
Precursor_type: [M-H]-
Spectrum_type: MS2
PrecursorMZ: 445.119
Instrument_type: LC-ESI-TOF
Instrument: impact HD
Ion_mode: N
Collision_energy: 10
Formula: C22H22O10
MW: 446
ExactMass: 446.12129690399996
Comments: "cas number=5928-26-7" "SMILES=COc1ccc(cc1)c2coc3cc(cc(c3c2=O)O)O[C@H]4[C@@H]([C@H]([C@@H]([C@H](O4)CO)O)O)O" "InChI=InChI=1S/C22H22O10/c1-29-11-4-2-10(3-5-11)13-9-30-15-7-12(6-14(24)17(15)18(13)25)31-22-21(28)20(27)19(26)16(8-23)32-22/h2-7,9,16,19-24,26-28H,8H2,1H3/t16-,19-,20+,21-,22-/m1/s1" "computed SMILES=O=C1C(=COC2=CC(OC3OC(CO)C(O)C(O)C3O)=CC(O)=C12)C=4C=CC(OC)=CC4" "license=License CC-BY-NC-SA 4.0 International" "author=Plant Biology, The Noble Foundation, Ardmore, OK, US/Dennis Fine, Daniel Wherritt, and Lloyd Sumner" "ionization=ESI" "isolation width=5" "collision gas=Nitrogen" "peak width=0.017" "date=2014-08-07 01:31:49+02:00" "column=Waters Acquity BEH C18 1.7um x 2.1 x 150 mm" "retention time=613.8" "raw data file=C:\Data\Confirmed standards 24_July_2014\MSMS\Sissotin vial 87 dil 50%MeOH_1-F,6_01_560.d" "computed mass accuracy=11.18598846613246" "computed mass error=0.0049790960000564155" "SPLASH=splash10-001i-0090000000-ae2ccfe1a48a42c3e686" "submitter=Aiko Barsch (Bruker)" "MoNA Rating=4.545454545454546"
Num Peaks: 13
267.0701 0.100100
268.0403 1.101101
283.0649 100.000000
284.0674 14.014014
285.0693 0.800801
305.0829 0.300300
325.0748 2.302302
326.0789 0.500501
349.0747 0.300300
355.0862 0.100100
367.0850 0.200200
445.1190 2.902903
446.1233 0.800801


Name: Sissotrin
Synon: $:00in-source
DB#: MetaboBASE0321
InChIKey: LFEUICHQZGNOHD-RECXWPGBSA-N
Spectrum_type: MS2
PrecursorMZ: 283.062
Instrument_type: LC-ESI-TOF
Instrument: impact HD
Ion_mode: N
Collision_energy: 10
Formula: C22H22O10
MW: 446
ExactMass: 446.121296904
Comments: "cas number=5928-26-7" "SMILES=COc1ccc(cc1)c2coc3cc(cc(c3c2=O)O)O[C@H]4[C@@H]([C@H]([C@@H]([C@H](O4)CO)O)O)O" "InChI=InChI=1S/C22H22O10/c1-29-11-4-2-10(3-5-11)13-9-30-15-7-12(6-14(24)17(15)18(13)25)31-22-21(28)20(27)19(26)16(8-23)32-22/h2-7,9,16,19-24,26-28H,8H2,1H3/t16-,19-,20+,21-,22-/m1/s1" "computed SMILES=O=C1C(=COC2=CC(OC3OC(CO)C(O)C(O)C3O)=CC(O)=C12)C=4C=CC(OC)=CC4" "license=License CC-BY-NC-SA 4.0 International" "author=Plant Biology, The Noble Foundation, Ardmore, OK, US/Dennis Fine, Daniel Wherritt, and Lloyd Sumner" "ionization=ESI" "isolation width=5" "collision gas=Nitrogen" "peak width=0.014" "date=2014-08-05 23:12:13+02:00" "column=Waters Acquity BEH C18 1.7um x 2.1 x 150 mm" "retention time=613.8" "raw data file=C:\Data\Confirmed standards 24_July_2014\MSMS\Sissotin vial 87 dil 50%MeOH_1-F,6_01_542.d" "SPLASH=splash10-001i-0090000000-f278ce6638eba710bba3" "submitter=Aiko Barsch (Bruker)" "MoNA Rating=3.125"
Num Peaks: 9
239.0329 0.100100
267.0295 0.300300
268.0378 5.205205
269.0414 0.600601
283.0620 100.000000
284.0645 14.214214
285.0670 1.201201
980.2020 0.100100
1157.8019 0.100100


Name: Sissotrin
Synon: $:00in-source
DB#: MetaboBASE0322
InChIKey: LFEUICHQZGNOHD-RECXWPGBSA-N
Instrument_type: LC-ESI-TOF
Instrument: impact HD
Ion_mode: N
Formula: C22H22O10
MW: 446
ExactMass: 446.121296904
Comments: "cas number=5928-26-7" "SMILES=COc1ccc(cc1)c2coc3cc(cc(c3c2=O)O)O[C@H]4[C@@H]([C@H]([C@@H]([C@H](O4)CO)O)O)O" "InChI=InChI=1S/C22H22O10/c1-29-11-4-2-10(3-5-11)13-9-30-15-7-12(6-14(24)17(15)18(13)25)31-22-21(28)20(27)19(26)16(8-23)32-22/h2-7,9,16,19-24,26-28H,8H2,1H3/t16-,19-,20+,21-,22-/m1/s1" "computed SMILES=O=C1C(=COC2=CC(OC3OC(CO)C(O)C(O)C3O)=CC(O)=C12)C=4C=CC(OC)=CC4" "license=License CC-BY-NC-SA 4.0 International" "author=Plant Biology, The Noble Foundation, Ardmore, OK, US/Dennis Fine, Daniel Wherritt, and Lloyd Sumner" "ionization=ESI" "collision gas=Nitrogen" "peak width=0.013" "date=2014-01-10 21:50:41+01:00" "column=Waters Acquity BEH C18 1.7um x 2.1 x 150 mm" "retention time=613.8" "raw data file=C:\Data\Confirmed Standards\14Jan10 Confirmed stds MSMS\Sissotrin (vial 87).d" "SPLASH=splash10-0006-0000900002-d80e66666ba572648e23" "submitter=Aiko Barsch (Bruker)" "MoNA Rating=3.888888888888889"
Num Peaks: 16
112.9860 1.001001
283.0625 9.009009
284.0645 1.401401
445.1165 8.108108
446.1174 1.401401
481.0915 1.301301
491.1220 100.000000
492.1253 22.922923
493.1268 3.703704
891.2387 1.801802
937.2460 26.326326
938.2501 11.111111
939.2516 3.003003
959.2247 1.401401
1337.3634 1.501502
1338.3660 1.001001


Name: Sissotrin
Synon: $:00in-source
DB#: MetaboBASE0323
InChIKey: LFEUICHQZGNOHD-RECXWPGBSA-N
Precursor_type: [M+FA-H]-
Spectrum_type: MS2
PrecursorMZ: 491.12
Instrument_type: LC-ESI-TOF
Instrument: impact HD
Ion_mode: N
Collision_energy: 30
Formula: C22H22O10
MW: 446
ExactMass: 446.12129690399996
Comments: "cas number=5928-26-7" "SMILES=COc1ccc(cc1)c2coc3cc(cc(c3c2=O)O)O[C@H]4[C@@H]([C@H]([C@@H]([C@H](O4)CO)O)O)O" "InChI=InChI=1S/C22H22O10/c1-29-11-4-2-10(3-5-11)13-9-30-15-7-12(6-14(24)17(15)18(13)25)31-22-21(28)20(27)19(26)16(8-23)32-22/h2-7,9,16,19-24,26-28H,8H2,1H3/t16-,19-,20+,21-,22-/m1/s1" "computed SMILES=O=C1C(=COC2=CC(OC3OC(CO)C(O)C(O)C3O)=CC(O)=C12)C=4C=CC(OC)=CC4" "license=License CC-BY-NC-SA 4.0 International" "author=Plant Biology, The Noble Foundation, Ardmore, OK, US/Dennis Fine, Daniel Wherritt, and Lloyd Sumner" "ionization=ESI" "isolation width=5" "collision gas=Nitrogen" "peak width=0.014" "date=2014-08-07 02:12:41+02:00" "column=Waters Acquity BEH C18 1.7um x 2.1 x 150 mm" "retention time=613.8" "raw data file=C:\Data\Confirmed standards 24_July_2014\MSMS\Sissotin vial 87 dil 50%MeOH_1-F,6_01_561.d" "computed mass accuracy=1.0223489168592472" "computed mass error=5.020960000479135E-4" "SPLASH=splash10-001i-0090000000-69f8d63d1ba7ab5c701a" "submitter=Aiko Barsch (Bruker)" "MoNA Rating=4.583333333333334"
Num Peaks: 26
224.0465 0.100100
239.0303 0.400400
240.0379 0.200200
252.0400 0.100100
267.0263 0.700701
267.0623 0.500501
268.0352 7.807808
269.0374 0.700701
269.0805 0.100100
282.0513 0.100100
283.0592 100.000000
283.1375 0.100100
284.0617 11.911912
285.0651 0.700701
296.0669 0.100100
297.0734 0.600601
305.0789 0.400400
325.0692 0.900901
326.0700 0.200200
349.0703 0.200200
1067.7539 0.100100
1216.7318 0.100100
1220.7601 0.100100
1268.0109 0.100100
1318.3635 0.100100
1395.0085 0.100100


Name: Sissotrin
Synon: $:00in-source
DB#: MetaboBASE0324
InChIKey: LFEUICHQZGNOHD-RECXWPGBSA-N
Precursor_type: [M-H]-
Spectrum_type: MS2
PrecursorMZ: 445.12
Instrument_type: LC-ESI-TOF
Instrument: impact HD
Ion_mode: N
Collision_energy: 50
Formula: C22H22O10
MW: 446
ExactMass: 446.12129690399996
Comments: "cas number=5928-26-7" "SMILES=COc1ccc(cc1)c2coc3cc(cc(c3c2=O)O)O[C@H]4[C@@H]([C@H]([C@@H]([C@H](O4)CO)O)O)O" "InChI=InChI=1S/C22H22O10/c1-29-11-4-2-10(3-5-11)13-9-30-15-7-12(6-14(24)17(15)18(13)25)31-22-21(28)20(27)19(26)16(8-23)32-22/h2-7,9,16,19-24,26-28H,8H2,1H3/t16-,19-,20+,21-,22-/m1/s1" "computed SMILES=O=C1C(=COC2=CC(OC3OC(CO)C(O)C(O)C3O)=CC(O)=C12)C=4C=CC(OC)=CC4" "license=License CC-BY-NC-SA 4.0 International" "author=Plant Biology, The Noble Foundation, Ardmore, OK, US/Dennis Fine, Daniel Wherritt, and Lloyd Sumner" "ionization=ESI" "isolation width=5" "collision gas=Nitrogen" "peak width=0.016" "date=2014-08-07 01:31:49+02:00" "column=Waters Acquity BEH C18 1.7um x 2.1 x 150 mm" "retention time=613.8" "raw data file=C:\Data\Confirmed standards 24_July_2014\MSMS\Sissotin vial 87 dil 50%MeOH_1-F,6_01_560.d" "computed mass accuracy=13.432548526313733" "computed mass error=0.005979096000032769" "SPLASH=splash10-014i-0090000000-52fe88964bc9e258635d" "submitter=Aiko Barsch (Bruker)" "MoNA Rating=4.545454545454546"
Num Peaks: 73
132.0231 1.201201
135.0108 0.700701
151.0048 0.600601
167.0530 0.100100
180.0599 0.400400
183.0458 0.200200
184.0549 0.200200
195.0473 0.300300
196.0542 0.400400
198.0349 0.100100
199.0411 0.100100
200.0489 0.200200
211.0415 1.201201
212.0488 0.900901
215.0714 0.200200
223.0411 2.102102
224.0494 3.803804
225.0541 0.600601
226.0287 1.601602
226.0616 0.100100
227.0339 0.300300
237.0560 0.200200
239.0372 10.010010
239.0705 0.200200
240.0446 5.505506
241.0483 0.600601
250.0294 0.200200
251.0344 0.300300
252.0444 1.301301
253.0497 0.600601
254.0621 0.300300
255.0685 0.200200
264.0441 0.200200
267.0325 11.211211
268.0411 100.000000
269.0438 13.013013
270.0455 0.700701
280.0383 0.200200
281.0467 0.200200
282.0566 0.300300
283.0638 13.813814
284.0674 2.302302
285.0714 0.100100
290.0598 0.300300
295.0645 0.200200
310.0511 0.200200
930.9041 0.100100
942.0038 0.100100
1063.7416 0.100100
1131.0057 0.100100
1145.1715 0.100100
1159.4781 0.100100
1201.3007 0.100100
1238.7399 0.100100
1259.0955 0.100100
1275.5712 0.100100
1281.0054 0.100100
1329.4353 0.100100
1339.3020 0.100100
1346.8190 0.100100
1376.0944 0.100100
1380.8435 0.100100
1400.9755 0.100100
1406.3433 0.100100
1410.4535 0.100100
1418.0206 0.100100
1421.2440 0.100100
1436.1565 0.100100
1448.7738 0.100100
1471.4814 0.100100
1478.2260 0.100100
1480.7643 0.100100
1494.1879 0.100100


Name: Sissotrin
Synon: $:00in-source
DB#: MetaboBASE0325
InChIKey: LFEUICHQZGNOHD-RECXWPGBSA-N
Precursor_type: [M-H]-
Spectrum_type: MS2
PrecursorMZ: 445.12
Instrument_type: LC-ESI-TOF
Instrument: impact HD
Ion_mode: N
Collision_energy: 30
Formula: C22H22O10
MW: 446
ExactMass: 446.121296904
Comments: "cas number=5928-26-7" "SMILES=COc1ccc(cc1)c2coc3cc(cc(c3c2=O)O)O[C@H]4[C@@H]([C@H]([C@@H]([C@H](O4)CO)O)O)O" "InChI=InChI=1S/C22H22O10/c1-29-11-4-2-10(3-5-11)13-9-30-15-7-12(6-14(24)17(15)18(13)25)31-22-21(28)20(27)19(26)16(8-23)32-22/h2-7,9,16,19-24,26-28H,8H2,1H3/t16-,19-,20+,21-,22-/m1/s1" "computed SMILES=O=C1C(=COC2=CC(OC3OC(CO)C(O)C(O)C3O)=CC(O)=C12)C=4C=CC(OC)=CC4" "license=License CC-BY-NC-SA 4.0 International" "author=Plant Biology, The Noble Foundation, Ardmore, OK, US/Dennis Fine, Daniel Wherritt, and Lloyd Sumner" "ionization=ESI" "isolation width=5" "collision gas=Nitrogen" "peak width=0.015" "date=2014-08-07 01:31:49+02:00" "column=Waters Acquity BEH C18 1.7um x 2.1 x 150 mm" "retention time=613.8" "raw data file=C:\Data\Confirmed standards 24_July_2014\MSMS\Sissotin vial 87 dil 50%MeOH_1-F,6_01_560.d" "computed mass accuracy=13.432548526186029" "computed mass error=0.005979095999975925" "SPLASH=splash10-001i-0090000000-8efbc8670576f1a45e47" "submitter=Aiko Barsch (Bruker)" "MoNA Rating=4.545454545454546"
Num Peaks: 33
223.0432 0.200200
224.0498 0.200200
226.0271 0.100100
239.0372 1.001001
239.0726 0.300300
240.0451 0.600601
252.0446 0.500501
254.0609 0.100100
267.0326 1.201201
267.0682 1.001001
268.0408 28.628629
269.0443 3.103103
269.0849 0.100100
270.0447 0.300300
282.0547 0.500501
283.0651 100.000000
284.0679 15.215215
285.0699 1.001001
286.0748 0.100100
290.0605 0.200200
296.0721 0.300300
297.0789 0.500501
300.0696 0.100100
305.0850 0.200200
307.0663 0.200200
310.0503 0.100100
311.0591 0.100100
325.0724 0.600601
349.0733 0.100100
1147.7931 0.100100
1315.4288 0.100100
1316.3785 0.100100
1316.5775 0.100100


Name: Sissotrin
Synon: $:00in-source
DB#: MetaboBASE0326
InChIKey: LFEUICHQZGNOHD-RECXWPGBSA-N
Precursor_type: [M-H]-
Spectrum_type: MS2
PrecursorMZ: 445.12
Instrument_type: LC-ESI-TOF
Instrument: impact HD
Ion_mode: N
Collision_energy: 40
Formula: C22H22O10
MW: 446
ExactMass: 446.12129690399996
Comments: "cas number=5928-26-7" "SMILES=COc1ccc(cc1)c2coc3cc(cc(c3c2=O)O)O[C@H]4[C@@H]([C@H]([C@@H]([C@H](O4)CO)O)O)O" "InChI=InChI=1S/C22H22O10/c1-29-11-4-2-10(3-5-11)13-9-30-15-7-12(6-14(24)17(15)18(13)25)31-22-21(28)20(27)19(26)16(8-23)32-22/h2-7,9,16,19-24,26-28H,8H2,1H3/t16-,19-,20+,21-,22-/m1/s1" "computed SMILES=O=C1C(=COC2=CC(OC3OC(CO)C(O)C(O)C3O)=CC(O)=C12)C=4C=CC(OC)=CC4" "license=License CC-BY-NC-SA 4.0 International" "author=Plant Biology, The Noble Foundation, Ardmore, OK, US/Dennis Fine, Daniel Wherritt, and Lloyd Sumner" "ionization=ESI" "isolation width=5" "collision gas=Nitrogen" "peak width=0.015" "date=2014-08-07 01:31:49+02:00" "column=Waters Acquity BEH C18 1.7um x 2.1 x 150 mm" "retention time=613.8" "raw data file=C:\Data\Confirmed standards 24_July_2014\MSMS\Sissotin vial 87 dil 50%MeOH_1-F,6_01_560.d" "computed mass accuracy=13.432548526313733" "computed mass error=0.005979096000032769" "SPLASH=splash10-0159-0090000000-4bf08318fc53d6c47416" "submitter=Aiko Barsch (Bruker)" "MoNA Rating=4.545454545454546"
Num Peaks: 83
132.0229 0.300300
151.0048 0.200200
200.0527 0.100100
211.0428 0.300300
212.0507 0.200200
215.0714 0.200200
223.0424 0.800801
224.0492 1.501502
225.0540 0.300300
226.0289 0.500501
238.0618 0.100100
239.0372 4.204204
239.0740 0.400400
240.0444 2.302302
241.0484 0.300300
251.0368 0.100100
252.0452 2.102102
253.0512 0.400400
254.0592 0.400400
255.0665 0.300300
264.0438 0.300300
267.0323 4.904905
267.0685 0.700701
268.0412 100.000000
269.0435 13.413413
270.0464 0.700701
279.0674 0.200200
281.0465 0.400400
282.0568 0.600601
283.0647 65.965966
284.0674 10.710711
285.0700 0.600601
290.0586 0.400400
292.0403 0.200200
295.0645 0.100100
296.0689 0.200200
297.0799 0.200200
307.0654 0.100100
310.0527 0.200200
311.0534 0.100100
325.0774 0.100100
830.7919 0.100100
999.2930 0.100100
1012.0317 0.100100
1049.0179 0.100100
1049.7859 0.100100
1062.3684 0.100100
1086.4440 0.100100
1086.6777 0.100100
1092.2871 0.100100
1142.0389 0.100100
1144.0472 0.100100
1146.5863 0.100100
1152.8600 0.100100
1167.5540 0.100100
1168.1443 0.100100
1169.2340 0.100100
1184.4850 0.100100
1187.0586 0.200200
1233.5986 0.100100
1253.6493 0.100100
1259.0721 0.100100
1268.5414 0.100100
1276.2845 0.100100
1290.1107 0.100100
1318.3710 0.100100
1338.1300 0.100100
1350.9218 0.100100
1356.9041 0.100100
1365.5515 0.200200
1368.2601 0.100100
1383.4518 0.100100
1397.1383 0.100100
1398.4873 0.100100
1403.4137 0.100100
1406.2034 0.100100
1414.2767 0.200200
1441.9375 0.100100
1470.0194 0.100100
1480.5641 0.100100
1492.7917 0.200200
1500.8160 0.100100
1504.3995 0.100100


Name: Sissotrin
Synon: $:00in-source
DB#: MetaboBASE0327
InChIKey: LFEUICHQZGNOHD-RECXWPGBSA-N
Spectrum_type: MS2
PrecursorMZ: 283.06
Instrument_type: LC-ESI-TOF
Instrument: impact HD
Ion_mode: N
Collision_energy: 50
Formula: C22H22O10
MW: 446
ExactMass: 446.121296904
Comments: "cas number=5928-26-7" "SMILES=COc1ccc(cc1)c2coc3cc(cc(c3c2=O)O)O[C@H]4[C@@H]([C@H]([C@@H]([C@H](O4)CO)O)O)O" "InChI=InChI=1S/C22H22O10/c1-29-11-4-2-10(3-5-11)13-9-30-15-7-12(6-14(24)17(15)18(13)25)31-22-21(28)20(27)19(26)16(8-23)32-22/h2-7,9,16,19-24,26-28H,8H2,1H3/t16-,19-,20+,21-,22-/m1/s1" "computed SMILES=O=C1C(=COC2=CC(OC3OC(CO)C(O)C(O)C3O)=CC(O)=C12)C=4C=CC(OC)=CC4" "license=License CC-BY-NC-SA 4.0 International" "author=Plant Biology, The Noble Foundation, Ardmore, OK, US/Dennis Fine, Daniel Wherritt, and Lloyd Sumner" "ionization=ESI" "isolation width=5" "collision gas=Nitrogen" "peak width=0.019" "date=2014-08-05 23:12:13+02:00" "column=Waters Acquity BEH C18 1.7um x 2.1 x 150 mm" "retention time=613.8" "raw data file=C:\Data\Confirmed standards 24_July_2014\MSMS\Sissotin vial 87 dil 50%MeOH_1-F,6_01_542.d" "SPLASH=splash10-03yr-0490000000-3a66783207d07c25b2b7" "submitter=Aiko Barsch (Bruker)" "MoNA Rating=3.125"
Num Peaks: 39
104.0272 2.302302
117.0342 2.702703
130.0418 3.903904
132.0221 40.840841
133.0291 2.602603
134.0375 4.904905
135.0071 3.103103
141.0355 3.103103
142.0433 1.801802
143.0504 3.203203
151.0036 2.602603
154.0436 5.205205
155.0509 6.206206
156.0571 3.003003
166.0443 2.102102
167.0509 27.527528
168.0562 3.303303
169.0297 2.402402
179.0504 4.704705
182.0373 5.005005
183.0455 19.719720
184.0520 9.709710
195.0454 24.324324
196.0501 6.906907
197.0230 2.402402
210.0329 9.709710
211.0398 100.000000
212.0434 13.413413
222.0306 2.402402
223.0384 26.326326
224.0478 7.207207
225.0200 2.002002
226.0247 2.102102
227.0358 2.302302
239.0348 91.691692
240.0389 18.118118
267.0291 63.263263
268.0353 12.512513
1026.1090 1.901902


Name: Sissotrin
Synon: $:00in-source
DB#: MetaboBASE0328
InChIKey: LFEUICHQZGNOHD-RECXWPGBSA-N
Spectrum_type: MS2
PrecursorMZ: 283.06
Instrument_type: LC-ESI-TOF
Instrument: impact HD
Ion_mode: N
Collision_energy: 40
Formula: C22H22O10
MW: 446
ExactMass: 446.121296904
Comments: "cas number=5928-26-7" "SMILES=COc1ccc(cc1)c2coc3cc(cc(c3c2=O)O)O[C@H]4[C@@H]([C@H]([C@@H]([C@H](O4)CO)O)O)O" "InChI=InChI=1S/C22H22O10/c1-29-11-4-2-10(3-5-11)13-9-30-15-7-12(6-14(24)17(15)18(13)25)31-22-21(28)20(27)19(26)16(8-23)32-22/h2-7,9,16,19-24,26-28H,8H2,1H3/t16-,19-,20+,21-,22-/m1/s1" "computed SMILES=O=C1C(=COC2=CC(OC3OC(CO)C(O)C(O)C3O)=CC(O)=C12)C=4C=CC(OC)=CC4" "license=License CC-BY-NC-SA 4.0 International" "author=Plant Biology, The Noble Foundation, Ardmore, OK, US/Dennis Fine, Daniel Wherritt, and Lloyd Sumner" "ionization=ESI" "isolation width=5" "collision gas=Nitrogen" "peak width=0.019" "date=2014-08-05 23:12:13+02:00" "column=Waters Acquity BEH C18 1.7um x 2.1 x 150 mm" "retention time=613.8" "raw data file=C:\Data\Confirmed standards 24_July_2014\MSMS\Sissotin vial 87 dil 50%MeOH_1-F,6_01_542.d" "SPLASH=splash10-014r-0190000000-ec9b63c5ec4b82842dc2" "submitter=Aiko Barsch (Bruker)" "MoNA Rating=3.125"
Num Peaks: 40
130.0428 0.900901
132.0221 21.721722
133.0264 0.900901
134.0374 2.302302
135.0082 3.403403
142.0405 0.900901
143.0512 1.001001
147.0094 0.900901
151.0033 2.102102
154.0446 1.701702
156.0593 1.101101
167.0490 5.205205
179.0495 1.301301
180.0588 1.001001
182.0355 0.800801
183.0463 3.103103
184.0520 4.804805
185.0549 0.800801
195.0455 9.509510
196.0536 4.204204
198.0336 0.800801
199.0382 1.001001
210.0311 0.800801
211.0397 36.536537
212.0445 7.307307
222.0335 1.401401
223.0395 18.218218
224.0474 10.310310
225.0488 1.201201
226.0267 9.309309
227.0334 1.201201
239.0347 100.000000
240.0411 30.430430
241.0447 3.303303
250.0250 1.701702
251.0301 1.001001
267.0294 80.680681
268.0369 64.364364
269.0400 8.808809
270.0385 1.201201


Name: Sissotrin
Synon: $:00in-source
DB#: MetaboBASE0329
InChIKey: LFEUICHQZGNOHD-RECXWPGBSA-N
Precursor_type: [M+FA-H]-
Spectrum_type: MS2
PrecursorMZ: 491.12
Instrument_type: LC-ESI-TOF
Instrument: impact HD
Ion_mode: N
Collision_energy: 50
Formula: C22H22O10
MW: 446
ExactMass: 446.121296904
Comments: "cas number=5928-26-7" "SMILES=COc1ccc(cc1)c2coc3cc(cc(c3c2=O)O)O[C@H]4[C@@H]([C@H]([C@@H]([C@H](O4)CO)O)O)O" "InChI=InChI=1S/C22H22O10/c1-29-11-4-2-10(3-5-11)13-9-30-15-7-12(6-14(24)17(15)18(13)25)31-22-21(28)20(27)19(26)16(8-23)32-22/h2-7,9,16,19-24,26-28H,8H2,1H3/t16-,19-,20+,21-,22-/m1/s1" "computed SMILES=O=C1C(=COC2=CC(OC3OC(CO)C(O)C(O)C3O)=CC(O)=C12)C=4C=CC(OC)=CC4" "license=License CC-BY-NC-SA 4.0 International" "author=Plant Biology, The Noble Foundation, Ardmore, OK, US/Dennis Fine, Daniel Wherritt, and Lloyd Sumner" "ionization=ESI" "isolation width=5" "collision gas=Nitrogen" "peak width=0.016" "date=2014-08-07 02:12:41+02:00" "column=Waters Acquity BEH C18 1.7um x 2.1 x 150 mm" "retention time=613.8" "raw data file=C:\Data\Confirmed standards 24_July_2014\MSMS\Sissotin vial 87 dil 50%MeOH_1-F,6_01_561.d" "computed mass accuracy=1.022348916743505" "computed mass error=5.020959999910701E-4" "SPLASH=splash10-0159-0090000000-2b713324971850b1840c" "submitter=Aiko Barsch (Bruker)" "MoNA Rating=4.583333333333334"
Num Peaks: 95
132.0194 0.200200
151.0052 0.100100
200.0457 0.200200
211.0360 0.600601
223.0373 1.101101
224.0440 1.601602
225.0470 0.200200
226.0241 0.700701
227.0294 0.100100
239.0319 5.205205
239.0676 0.300300
240.0386 2.402402
241.0431 0.300300
250.0276 0.100100
252.0386 1.501502
253.0441 0.300300
254.0551 0.300300
255.0607 0.200200
264.0402 0.200200
267.0268 5.005005
267.0602 0.400400
268.0355 100.000000
269.0385 12.012012
269.0754 0.100100
270.0400 0.500501
281.0436 0.300300
282.0526 0.400400
283.0587 62.762763
284.0618 8.508509
285.0652 0.400400
290.0548 0.400400
292.0362 0.200200
305.0783 0.200200
307.0647 0.200200
310.0435 0.200200
325.0704 0.200200
757.8036 0.200200
760.3586 0.100100
801.0333 0.100100
803.1860 0.200200
859.4004 0.200200
906.7999 0.200200
956.7143 0.100100
974.3063 0.200200
976.0911 0.200200
976.3671 0.100100
1021.7843 0.200200
1028.3451 0.100100
1039.3472 0.200200
1040.0310 0.100100
1069.6646 0.100100
1087.4254 0.200200
1098.1315 0.100100
1102.7760 0.200200
1107.1793 0.200200
1109.3286 0.200200
1114.3884 0.200200
1159.5382 0.200200
1166.3770 0.100100
1167.0752 0.200200
1185.7278 0.200200
1217.8195 0.200200
1230.7428 0.200200
1264.8191 0.200200
1270.5033 0.200200
1271.4657 0.200200
1278.4818 0.100100
1280.7211 0.100100
1288.2938 0.200200
1300.4166 0.200200
1310.8011 0.100100
1315.2670 0.100100
1316.5886 0.200200
1333.0900 0.200200
1349.0608 0.200200
1357.5162 0.100100
1362.4653 0.200200
1367.9315 0.200200
1373.5332 0.200200
1373.8607 0.200200
1384.4214 0.200200
1389.1630 0.200200
1397.8052 0.200200
1418.0580 0.200200
1419.3317 0.200200
1419.7332 0.200200
1420.1661 0.200200
1424.0491 0.200200
1426.4760 0.100100
1438.6262 0.200200
1456.5891 0.200200
1460.6533 0.200200
1489.8892 0.200200
1493.6818 0.200200
1496.3000 0.200200


Name: Sissotrin
Synon: $:00in-source
DB#: MetaboBASE0330
InChIKey: LFEUICHQZGNOHD-RECXWPGBSA-N
Spectrum_type: MS2
PrecursorMZ: 283.0616
Instrument_type: LC-ESI-TOF
Instrument: impact HD
Ion_mode: N
Collision_energy: 20
Formula: C22H22O10
MW: 446
ExactMass: 446.12129690399996
Comments: "cas number=5928-26-7" "SMILES=COc1ccc(cc1)c2coc3cc(cc(c3c2=O)O)O[C@H]4[C@@H]([C@H]([C@@H]([C@H](O4)CO)O)O)O" "InChI=InChI=1S/C22H22O10/c1-29-11-4-2-10(3-5-11)13-9-30-15-7-12(6-14(24)17(15)18(13)25)31-22-21(28)20(27)19(26)16(8-23)32-22/h2-7,9,16,19-24,26-28H,8H2,1H3/t16-,19-,20+,21-,22-/m1/s1" "computed SMILES=O=C1C(=COC2=CC(OC3OC(CO)C(O)C(O)C3O)=CC(O)=C12)C=4C=CC(OC)=CC4" "license=License CC-BY-NC-SA 4.0 International" "author=Plant Biology, The Noble Foundation, Ardmore, OK, US/Dennis Fine, Daniel Wherritt, and Lloyd Sumner" "ionization=ESI" "isolation width=5" "collision gas=Nitrogen" "peak width=0.015" "date=2014-08-05 23:12:13+02:00" "column=Waters Acquity BEH C18 1.7um x 2.1 x 150 mm" "retention time=613.8" "raw data file=C:\Data\Confirmed standards 24_July_2014\MSMS\Sissotin vial 87 dil 50%MeOH_1-F,6_01_542.d" "SPLASH=splash10-0159-0090000000-48f54ee746cfb31f97bd" "submitter=Aiko Barsch (Bruker)" "MoNA Rating=3.125"
Num Peaks: 86
211.0408 0.200200
223.0403 0.500501
224.0478 0.900901
226.0267 0.500501
239.0349 2.302302
240.0412 1.501502
241.0439 0.200200
267.0292 3.303303
268.0383 100.000000
269.0410 12.412412
270.0423 1.101101
283.0616 74.274274
283.1143 0.200200
284.0643 10.810811
285.0656 0.900901
799.3257 0.100100
896.7755 0.100100
939.1214 0.100100
951.6226 0.100100
952.4235 0.100100
968.4847 0.100100
975.0726 0.200200
1012.3342 0.100100
1014.2745 0.100100
1016.1977 0.100100
1016.4221 0.100100
1053.7073 0.100100
1093.5483 0.100100
1098.7848 0.100100
1104.2395 0.100100
1110.4486 0.200200
1112.0229 0.200200
1123.7024 0.200200
1128.9814 0.200200
1130.1324 0.100100
1135.1489 0.200200
1136.8392 0.100100
1137.2753 0.100100
1144.3947 0.100100
1151.4534 0.100100
1157.4602 0.200200
1179.4171 0.200200
1185.9927 0.100100
1190.5614 0.100100
1200.3796 0.100100
1201.5510 0.100100
1239.8809 0.100100
1243.6005 0.100100
1251.3252 0.100100
1257.3059 0.200200
1258.8995 0.100100
1260.7987 0.200200
1264.8855 0.200200
1269.1136 0.100100
1270.0134 0.200200
1272.3645 0.100100
1275.8202 0.100100
1278.5448 0.100100
1280.6710 0.100100
1283.6974 0.100100
1283.8784 0.200200
1286.5806 0.200200
1289.4248 0.100100
1303.1211 0.100100
1306.7689 0.100100
1315.3396 0.100100
1335.7253 0.100100
1348.5425 0.200200
1360.4613 0.100100
1364.4674 0.100100
1369.8186 0.200200
1372.3263 0.200200
1376.3514 0.100100
1380.6671 0.100100
1401.4128 0.100100
1401.6150 0.100100
1420.8760 0.200200
1436.1705 0.100100
1436.7349 0.100100
1438.1633 0.200200
1440.0375 0.100100
1440.4180 0.200200
1456.8331 0.100100
1463.2690 0.100100
1469.3706 0.100100
1497.3993 0.100100


Name: Sissotrin
Synon: $:00in-source
DB#: MetaboBASE0331
InChIKey: LFEUICHQZGNOHD-RECXWPGBSA-N
Precursor_type: [M+FA-H]-
Spectrum_type: MS2
PrecursorMZ: 491.1187
Instrument_type: LC-ESI-TOF
Instrument: impact HD
Ion_mode: N
Collision_energy: 10
Formula: C22H22O10
MW: 446
ExactMass: 446.121296904
Comments: "cas number=5928-26-7" "SMILES=COc1ccc(cc1)c2coc3cc(cc(c3c2=O)O)O[C@H]4[C@@H]([C@H]([C@@H]([C@H](O4)CO)O)O)O" "InChI=InChI=1S/C22H22O10/c1-29-11-4-2-10(3-5-11)13-9-30-15-7-12(6-14(24)17(15)18(13)25)31-22-21(28)20(27)19(26)16(8-23)32-22/h2-7,9,16,19-24,26-28H,8H2,1H3/t16-,19-,20+,21-,22-/m1/s1" "computed SMILES=O=C1C(=COC2=CC(OC3OC(CO)C(O)C(O)C3O)=CC(O)=C12)C=4C=CC(OC)=CC4" "license=License CC-BY-NC-SA 4.0 International" "author=Plant Biology, The Noble Foundation, Ardmore, OK, US/Dennis Fine, Daniel Wherritt, and Lloyd Sumner" "ionization=ESI" "isolation width=5" "collision gas=Nitrogen" "peak width=0.014" "date=2014-08-07 02:12:41+02:00" "column=Waters Acquity BEH C18 1.7um x 2.1 x 150 mm" "retention time=613.8" "raw data file=C:\Data\Confirmed standards 24_July_2014\MSMS\Sissotin vial 87 dil 50%MeOH_1-F,6_01_561.d" "computed mass accuracy=1.6246662976255306" "computed mass error=-7.979040000236637E-4" "SPLASH=splash10-001i-0090700000-82730882f48fb2c70cab" "submitter=Aiko Barsch (Bruker)" "MoNA Rating=4.583333333333334"
Num Peaks: 103
207.0542 0.100100
268.0331 0.700701
283.0588 100.000000
283.1049 0.200200
284.0611 11.011011
285.0643 0.700701
325.0683 1.401401
326.0702 0.200200
349.0665 0.100100
367.0815 0.300300
445.1134 38.938939
445.1724 0.200200
446.1148 7.107107
447.1179 0.700701
491.1187 33.533534
492.1216 7.507508
493.1255 0.600601
752.2595 0.100100
766.3284 0.100100
828.8558 0.100100
882.6190 0.100100
941.1880 0.100100
951.4208 0.100100
1017.3303 0.100100
1031.6520 0.100100
1036.5645 0.100100
1043.2677 0.100100
1061.4294 0.100100
1068.8718 0.100100
1071.7279 0.100100
1086.8230 0.100100
1089.4460 0.100100
1094.6859 0.100100
1095.2638 0.100100
1110.0428 0.100100
1116.4302 0.100100
1124.0089 0.100100
1142.1841 0.100100
1152.1744 0.100100
1154.0033 0.100100
1159.4371 0.100100
1163.7882 0.100100
1170.9304 0.100100
1179.9506 0.100100
1200.6447 0.100100
1204.9365 0.100100
1212.0958 0.100100
1217.0410 0.100100
1225.8875 0.100100
1226.1354 0.100100
1233.1257 0.100100
1240.0236 0.100100
1240.7819 0.100100
1248.2654 0.100100
1251.3531 0.100100
1255.3318 0.100100
1258.9722 0.100100
1269.3470 0.100100
1272.9926 0.100100
1278.7715 0.100100
1286.5310 0.100100
1289.2006 0.100100
1301.0148 0.100100
1304.7349 0.100100
1304.9447 0.100100
1306.0142 0.100100
1309.0818 0.100100
1311.8447 0.100100
1311.9065 0.100100
1319.4602 0.100100
1331.0673 0.100100
1332.5789 0.100100
1352.0387 0.100100
1360.1178 0.100100
1364.7095 0.100100
1369.1146 0.100100
1371.6580 0.100100
1379.7191 0.100100
1395.8505 0.100100
1397.9548 0.200200
1399.2188 0.100100
1407.3512 0.100100
1409.4822 0.100100
1421.4536 0.100100
1421.9785 0.100100
1431.9568 0.100100
1443.7651 0.100100
1443.9979 0.100100
1445.6704 0.100100
1451.3989 0.100100
1455.9136 0.100100
1457.9414 0.100100
1464.1658 0.100100
1474.7141 0.100100
1477.1616 0.100100
1479.1565 0.100100
1480.1241 0.100100
1489.0046 0.100100
1490.1938 0.100100
1491.6396 0.100100
1497.6974 0.100100
1499.6853 0.100100
1503.7476 0.100100


Name: Sissotrin
Synon: $:00in-source
DB#: MetaboBASE0332
InChIKey: LFEUICHQZGNOHD-RECXWPGBSA-N
Precursor_type: [M+FA-H]-
Spectrum_type: MS2
PrecursorMZ: 491.12
Instrument_type: LC-ESI-TOF
Instrument: impact HD
Ion_mode: N
Collision_energy: 40
Formula: C22H22O10
MW: 446
ExactMass: 446.12129690399996
Comments: "cas number=5928-26-7" "SMILES=COc1ccc(cc1)c2coc3cc(cc(c3c2=O)O)O[C@H]4[C@@H]([C@H]([C@@H]([C@H](O4)CO)O)O)O" "InChI=InChI=1S/C22H22O10/c1-29-11-4-2-10(3-5-11)13-9-30-15-7-12(6-14(24)17(15)18(13)25)31-22-21(28)20(27)19(26)16(8-23)32-22/h2-7,9,16,19-24,26-28H,8H2,1H3/t16-,19-,20+,21-,22-/m1/s1" "computed SMILES=O=C1C(=COC2=CC(OC3OC(CO)C(O)C(O)C3O)=CC(O)=C12)C=4C=CC(OC)=CC4" "license=License CC-BY-NC-SA 4.0 International" "author=Plant Biology, The Noble Foundation, Ardmore, OK, US/Dennis Fine, Daniel Wherritt, and Lloyd Sumner" "ionization=ESI" "isolation width=5" "collision gas=Nitrogen" "peak width=0.015" "date=2014-08-07 02:12:41+02:00" "column=Waters Acquity BEH C18 1.7um x 2.1 x 150 mm" "retention time=613.8" "raw data file=C:\Data\Confirmed standards 24_July_2014\MSMS\Sissotin vial 87 dil 50%MeOH_1-F,6_01_561.d" "computed mass accuracy=1.0223489168592472" "computed mass error=5.020960000479135E-4" "SPLASH=splash10-001i-0090000000-6ab0d1daad8c72d7d2a3" "submitter=Aiko Barsch (Bruker)" "MoNA Rating=4.583333333333334"
Num Peaks: 110
215.0673 0.100100
223.0357 0.300300
224.0456 0.300300
226.0221 0.100100
239.0309 1.401401
239.0687 0.200200
240.0377 0.600601
252.0379 0.700701
253.0475 0.100100
254.0560 0.200200
255.0656 0.200200
267.0269 1.701702
267.0619 0.700701
268.0351 37.337337
269.0388 3.703704
270.0406 0.300300
279.0652 0.100100
282.0508 0.500501
283.0592 100.000000
283.1444 0.100100
284.0620 12.412412
285.0676 0.800801
290.0530 0.100100
296.0677 0.200200
297.0733 0.500501
305.0774 0.200200
307.0603 0.200200
325.0706 0.400400
349.0748 0.100100
702.9440 0.100100
761.0089 0.100100
813.9700 0.100100
826.0231 0.100100
847.7986 0.100100
906.2856 0.100100
943.2925 0.100100
943.6796 0.100100
968.6913 0.100100
982.7920 0.100100
997.4451 0.100100
1006.6779 0.100100
1008.5237 0.100100
1028.1715 0.100100
1030.1395 0.100100
1032.7028 0.100100
1036.1143 0.100100
1061.8486 0.100100
1065.2155 0.100100
1074.9780 0.100100
1082.5953 0.100100
1091.1561 0.100100
1104.0476 0.100100
1128.1437 0.100100
1154.1654 0.100100
1160.1978 0.100100
1162.0557 0.100100
1164.0476 0.100100
1168.8636 0.100100
1171.7539 0.100100
1179.1270 0.100100
1182.8992 0.100100
1201.6322 0.100100
1201.8923 0.100100
1201.9498 0.100100
1209.1548 0.100100
1234.0543 0.200200
1237.3755 0.100100
1238.9532 0.100100
1240.5730 0.100100
1264.3212 0.100100
1277.6819 0.100100
1291.5103 0.100100
1299.7411 0.100100
1307.5271 0.100100
1308.5381 0.100100
1309.1503 0.100100
1317.7844 0.100100
1322.3527 0.100100
1324.6953 0.100100
1330.9509 0.100100
1336.5479 0.100100
1343.4344 0.100100
1351.1630 0.100100
1359.9003 0.100100
1365.6406 0.100100
1382.1571 0.100100
1391.5942 0.100100
1394.3126 0.100100
1400.3020 0.100100
1403.8895 0.100100
1411.3777 0.100100
1423.8870 0.100100
1432.6266 0.100100
1432.6752 0.100100
1433.6567 0.100100
1434.9319 0.100100
1437.1300 0.100100
1440.3308 0.100100
1443.8405 0.100100
1445.6937 0.100100
1448.0281 0.100100
1449.4022 0.100100
1460.1204 0.100100
1462.1440 0.100100
1462.4644 0.100100
1467.0299 0.100100
1470.3849 0.100100
1486.3611 0.100100
1500.9474 0.100100
1501.7186 0.100100


Name: Puerarin
Synon: $:00in-source
DB#: MetaboBASE0333
InChIKey: HKEAFJYKMMKDOR-VPRICQMDSA-N
Precursor_type: [M-H]-
Spectrum_type: MS2
PrecursorMZ: 415.1031
Instrument_type: LC-ESI-TOF
Instrument: impact HD
Ion_mode: N
Collision_energy: 10
Formula: C21H20O9
MW: 416
ExactMass: 416.11073222
Comments: "SMILES=c1cc(ccc1c2coc3c(c2=O)ccc(c3[C@H]4[C@@H]([C@H]([C@@H]([C@H](O4)CO)O)O)O)O)O" "InChI=InChI=1S/C21H20O9/c22-7-14-17(26)18(27)19(28)21(30-14)15-13(24)6-5-11-16(25)12(8-29-20(11)15)9-1-3-10(23)4-2-9/h1-6,8,14,17-19,21-24,26-28H,7H2/t14-,17-,18+,19-,21+/m1/s1" "computed SMILES=O=C1C(=COC=2C1=CC=C(O)C2C3OC(CO)C(O)C(O)C3O)C=4C=CC(O)=CC4" "license=License CC-BY-NC-SA 4.0 International" "author=Plant Biology, The Noble Foundation, Ardmore, OK, US/Dennis Fine, Daniel Wherritt, and Lloyd Sumner" "ionization=ESI" "isolation width=5" "collision gas=Nitrogen" "peak width=0.0082" "date=2014-01-10 22:31:27+01:00" "column=Waters Acquity BEH C18 1.7um x 2.1 x 150 mm" "retention time=188.4" "raw data file=C:\Data\Confirmed Standards\14Jan10 Confirmed stds MSMS\Puerarin (vial 94).d" "computed mass accuracy=0.8581482528429037" "computed mass error=-3.5622000001467313E-4" "SPLASH=splash10-014i-0000900000-a447d2afd42a9adc0525" "submitter=Aiko Barsch (Bruker)" "MoNA Rating=4.0"
Num Peaks: 2
415.1031 100.000000
416.1066 13.613614


Name: Puerarin
Synon: $:00in-source
DB#: MetaboBASE0334
InChIKey: HKEAFJYKMMKDOR-VPRICQMDSA-N
Instrument_type: LC-ESI-TOF
Instrument: impact HD
Ion_mode: N
Formula: C21H20O9
MW: 416
ExactMass: 416.11073222
Comments: "SMILES=c1cc(ccc1c2coc3c(c2=O)ccc(c3[C@H]4[C@@H]([C@H]([C@@H]([C@H](O4)CO)O)O)O)O)O" "InChI=InChI=1S/C21H20O9/c22-7-14-17(26)18(27)19(28)21(30-14)15-13(24)6-5-11-16(25)12(8-29-20(11)15)9-1-3-10(23)4-2-9/h1-6,8,14,17-19,21-24,26-28H,7H2/t14-,17-,18+,19-,21+/m1/s1" "computed SMILES=O=C1C(=COC=2C1=CC=C(O)C2C3OC(CO)C(O)C(O)C3O)C=4C=CC(O)=CC4" "license=License CC-BY-NC-SA 4.0 International" "author=Plant Biology, The Noble Foundation, Ardmore, OK, US/Dennis Fine, Daniel Wherritt, and Lloyd Sumner" "ionization=ESI" "collision gas=Nitrogen" "peak width=0.0082" "date=2014-01-10 22:31:27+01:00" "column=Waters Acquity BEH C18 1.7um x 2.1 x 150 mm" "retention time=188.4" "raw data file=C:\Data\Confirmed Standards\14Jan10 Confirmed stds MSMS\Puerarin (vial 94).d" "SPLASH=splash10-014i-0000900010-b863ae3f0b9ed17d9a39" "submitter=Aiko Barsch (Bruker)" "MoNA Rating=3.888888888888889"
Num Peaks: 4
415.1035 100.000000
416.1065 16.316316
831.2134 9.309309
832.2166 4.004004


Name: Puerarin
Synon: $:00in-source
DB#: MetaboBASE0335
InChIKey: HKEAFJYKMMKDOR-VPRICQMDSA-N
Precursor_type: [M-H]-
Spectrum_type: MS2
PrecursorMZ: 415.1022
Instrument_type: LC-ESI-TOF
Instrument: impact HD
Ion_mode: N
Collision_energy: 30
Formula: C21H20O9
MW: 416
ExactMass: 416.11073222
Comments: "SMILES=c1cc(ccc1c2coc3c(c2=O)ccc(c3[C@H]4[C@@H]([C@H]([C@@H]([C@H](O4)CO)O)O)O)O)O" "InChI=InChI=1S/C21H20O9/c22-7-14-17(26)18(27)19(28)21(30-14)15-13(24)6-5-11-16(25)12(8-29-20(11)15)9-1-3-10(23)4-2-9/h1-6,8,14,17-19,21-24,26-28H,7H2/t14-,17-,18+,19-,21+/m1/s1" "computed SMILES=O=C1C(=COC=2C1=CC=C(O)C2C3OC(CO)C(O)C(O)C3O)C=4C=CC(O)=CC4" "license=License CC-BY-NC-SA 4.0 International" "author=Plant Biology, The Noble Foundation, Ardmore, OK, US/Dennis Fine, Daniel Wherritt, and Lloyd Sumner" "ionization=ESI" "isolation width=5" "collision gas=Nitrogen" "peak width=0.011" "date=2014-01-10 22:31:27+01:00" "column=Waters Acquity BEH C18 1.7um x 2.1 x 150 mm" "retention time=188.4" "raw data file=C:\Data\Confirmed Standards\14Jan10 Confirmed stds MSMS\Puerarin (vial 94).d" "computed mass accuracy=3.0262908749125597" "computed mass error=-0.0012562200000161283" "SPLASH=splash10-00kb-0090000000-f3c4a0b4e3177f12510c" "submitter=Aiko Barsch (Bruker)" "MoNA Rating=4.583333333333334"
Num Peaks: 8
267.0659 51.551552
268.0692 5.105105
277.0502 4.704705
295.0610 100.000000
296.0640 12.912913
325.0711 2.202202
415.1022 14.714715
416.1047 2.502503


Name: Puerarin
Synon: $:00in-source
DB#: MetaboBASE0336
InChIKey: HKEAFJYKMMKDOR-VPRICQMDSA-N
Instrument_type: LC-ESI-TOF
Instrument: impact HD
Ion_mode: N
Collision_energy: 10
Formula: C21H20O9
MW: 416
ExactMass: 416.11073222
Comments: "SMILES=c1cc(ccc1c2coc3c(c2=O)ccc(c3[C@H]4[C@@H]([C@H]([C@@H]([C@H](O4)CO)O)O)O)O)O" "InChI=InChI=1S/C21H20O9/c22-7-14-17(26)18(27)19(28)21(30-14)15-13(24)6-5-11-16(25)12(8-29-20(11)15)9-1-3-10(23)4-2-9/h1-6,8,14,17-19,21-24,26-28H,7H2/t14-,17-,18+,19-,21+/m1/s1" "computed SMILES=O=C1C(=COC=2C1=CC=C(O)C2C3OC(CO)C(O)C(O)C3O)C=4C=CC(O)=CC4" "license=License CC-BY-NC-SA 4.0 International" "author=Plant Biology, The Noble Foundation, Ardmore, OK, US/Dennis Fine, Daniel Wherritt, and Lloyd Sumner" "ionization=ESI" "collision gas=Nitrogen" "peak width=0.018" "date=2013-11-08 15:32:36+01:00" "column=Waters Acquity BEH C18 1.7um x 2.1 x 150 mm" "retention time=187.2" "raw data file=C:\Data\Confirmed Standards\Confirmed Stds 7Nov13\Puerarin (vial 94).d" "annotformula=415.1012;       C16H19N2O11" "annotformula=416.1041;       C28H16O4" "SPLASH=splash10-014i-0000900000-7fed27e6dfa7750805dd" "submitter=Aiko Barsch (Bruker)" "MoNA Rating=4.444444444444445"
Num Peaks: 5
415.1012 100.000000
416.1041 18.018018
417.1060 3.103103
831.2079 1.801802
853.1907 1.501502


Name: Puerarin
Synon: $:00in-source
DB#: MetaboBASE0337
InChIKey: HKEAFJYKMMKDOR-VPRICQMDSA-N
Precursor_type: [M-H]-
Spectrum_type: MS2
PrecursorMZ: 415
Instrument_type: LC-ESI-TOF
Instrument: impact HD
Ion_mode: N
Collision_energy: 40
Formula: C21H20O9
MW: 416
ExactMass: 416.11073222
Comments: "SMILES=c1cc(ccc1c2coc3c(c2=O)ccc(c3[C@H]4[C@@H]([C@H]([C@@H]([C@H](O4)CO)O)O)O)O)O" "InChI=InChI=1S/C21H20O9/c22-7-14-17(26)18(27)19(28)21(30-14)15-13(24)6-5-11-16(25)12(8-29-20(11)15)9-1-3-10(23)4-2-9/h1-6,8,14,17-19,21-24,26-28H,7H2/t14-,17-,18+,19-,21+/m1/s1" "computed SMILES=O=C1C(=COC=2C1=CC=C(O)C2C3OC(CO)C(O)C(O)C3O)C=4C=CC(O)=CC4" "license=License CC-BY-NC-SA 4.0 International" "author=Plant Biology, The Noble Foundation, Ardmore, OK, US/Dennis Fine, Daniel Wherritt, and Lloyd Sumner" "ionization=ESI" "isolation width=5" "collision gas=Nitrogen" "peak width=0.011" "date=2014-01-10 22:31:27+01:00" "column=Waters Acquity BEH C18 1.7um x 2.1 x 150 mm" "retention time=188.4" "raw data file=C:\Data\Confirmed Standards\14Jan10 Confirmed stds MSMS\Puerarin (vial 94).d" "computed mass accuracy=249.29209638553786" "computed mass error=-0.10345621999999821" "SPLASH=splash10-014i-0090000000-f75bdf7912e48c207955" "submitter=Aiko Barsch (Bruker)" "MoNA Rating=4.545454545454546"
Num Peaks: 6
253.0507 2.002002
267.0661 100.000000
268.0690 11.211211
277.0505 8.608609
295.0605 18.318318
296.0643 3.103103


Name: Puerarin
Synon: $:00in-source
DB#: MetaboBASE0338
InChIKey: HKEAFJYKMMKDOR-VPRICQMDSA-N
Precursor_type: [M-H]-
Spectrum_type: MS2
PrecursorMZ: 415.1031
Instrument_type: LC-ESI-TOF
Instrument: impact HD
Ion_mode: N
Collision_energy: 20
Formula: C21H20O9
MW: 416
ExactMass: 416.11073222
Comments: "SMILES=c1cc(ccc1c2coc3c(c2=O)ccc(c3[C@H]4[C@@H]([C@H]([C@@H]([C@H](O4)CO)O)O)O)O)O" "InChI=InChI=1S/C21H20O9/c22-7-14-17(26)18(27)19(28)21(30-14)15-13(24)6-5-11-16(25)12(8-29-20(11)15)9-1-3-10(23)4-2-9/h1-6,8,14,17-19,21-24,26-28H,7H2/t14-,17-,18+,19-,21+/m1/s1" "computed SMILES=O=C1C(=COC=2C1=CC=C(O)C2C3OC(CO)C(O)C(O)C3O)C=4C=CC(O)=CC4" "license=License CC-BY-NC-SA 4.0 International" "author=Plant Biology, The Noble Foundation, Ardmore, OK, US/Dennis Fine, Daniel Wherritt, and Lloyd Sumner" "ionization=ESI" "isolation width=5" "collision gas=Nitrogen" "peak width=0.0096" "date=2014-01-10 22:31:27+01:00" "column=Waters Acquity BEH C18 1.7um x 2.1 x 150 mm" "retention time=188.4" "raw data file=C:\Data\Confirmed Standards\14Jan10 Confirmed stds MSMS\Puerarin (vial 94).d" "computed mass accuracy=0.8581482528429037" "computed mass error=-3.5622000001467313E-4" "SPLASH=splash10-014i-0030900000-10d084d95d3435217c83" "submitter=Aiko Barsch (Bruker)" "MoNA Rating=4.615384615384616"
Num Peaks: 5
267.0657 2.302302
295.0607 33.133133
296.0644 4.104104
415.1031 100.000000
416.1060 15.315315


Name: Morin
Synon: $:00in-source
DB#: MetaboBASE0339
InChIKey: YXOLAZRVSSWPPT-UHFFFAOYSA-N
Spectrum_type: MS2
PrecursorMZ: 299.0208
Instrument_type: LC-ESI-TOF
Instrument: impact HD
Ion_mode: N
Collision_energy: 20
Formula: C15H10O7
MW: 302
ExactMass: 302.04265266
Comments: "cas number=11128-85-1" "SMILES=c1cc(c(cc1O)O)c2c(c(=O)c3c(cc(cc3o2)O)O)O" "InChI=InChI=1S/C15H10O7/c16-6-1-2-8(9(18)3-6)15-14(21)13(20)12-10(19)4-7(17)5-11(12)22-15/h1-5,16-19,21H" "computed SMILES=O=C1C(O)=C(OC=2C=C(O)C=C(O)C12)C=3C=CC(O)=CC3O" "license=License CC-BY-NC-SA 4.0 International" "author=Plant Biology, The Noble Foundation, Ardmore, OK, US/Dennis Fine, Daniel Wherritt, and Lloyd Sumner" "ionization=ESI" "isolation width=5" "collision gas=Nitrogen" "peak width=0.02" "date=2013-11-09 10:55:56+01:00" "column=Waters Acquity BEH C18 1.7um x 2.1 x 150 mm" "retention time=414" "raw data file=C:\Data\Confirmed Standards\Confirmed Stds 7Nov13\Morin (vial 89) MSMS.d" "SPLASH=splash10-0fk9-0193000000-da94b75048715f96e77f" "submitter=Aiko Barsch (Bruker)" "MoNA Rating=3.125"
Num Peaks: 18
125.0239 9.509510
149.0225 4.504505
151.0020 17.517518
163.0020 2.602603
227.0343 13.513514
229.0468 5.205205
237.0189 3.003003
243.0298 2.902903
255.0300 8.908909
257.0442 2.702703
271.0255 100.000000
272.0288 9.509510
273.0374 3.303303
283.0252 2.102102
299.0208 25.025025
300.0240 3.303303
301.0363 52.352352
302.0389 3.103103


Name: Morin
Synon: $:00in-source
DB#: MetaboBASE0340
InChIKey: YXOLAZRVSSWPPT-UHFFFAOYSA-N
Spectrum_type: MS2
PrecursorMZ: 299
Instrument_type: LC-ESI-TOF
Instrument: impact HD
Ion_mode: N
Collision_energy: 40
Formula: C15H10O7
MW: 302
ExactMass: 302.04265266
Comments: "cas number=11128-85-1" "SMILES=c1cc(c(cc1O)O)c2c(c(=O)c3c(cc(cc3o2)O)O)O" "InChI=InChI=1S/C15H10O7/c16-6-1-2-8(9(18)3-6)15-14(21)13(20)12-10(19)4-7(17)5-11(12)22-15/h1-5,16-19,21H" "computed SMILES=O=C1C(O)=C(OC=2C=C(O)C=C(O)C12)C=3C=CC(O)=CC3O" "license=License CC-BY-NC-SA 4.0 International" "author=Plant Biology, The Noble Foundation, Ardmore, OK, US/Dennis Fine, Daniel Wherritt, and Lloyd Sumner" "ionization=ESI" "isolation width=5" "collision gas=Nitrogen" "peak width=0.021" "date=2013-11-09 10:55:56+01:00" "column=Waters Acquity BEH C18 1.7um x 2.1 x 150 mm" "retention time=414" "raw data file=C:\Data\Confirmed Standards\Confirmed Stds 7Nov13\Morin (vial 89) MSMS.d" "SPLASH=splash10-0002-0910000000-f4855d0bab3b1b8fa113" "submitter=Aiko Barsch (Bruker)" "MoNA Rating=3.125"
Num Peaks: 52
107.0134 17.217217
109.0285 6.806807
113.0398 5.305305
115.0555 8.608609
117.0347 8.808809
119.0130 11.211211
121.0292 21.621622
123.0093 5.905906
124.0159 4.104104
125.0237 23.123123
127.0537 6.506507
129.0326 7.207207
131.0505 5.405405
133.0279 24.724725
135.0078 42.742743
139.0497 6.206206
143.0487 13.013013
145.0288 11.111111
147.0197 20.020020
148.0151 56.756757
149.0225 100.000000
150.0237 4.204204
151.0029 33.633634
153.0191 6.206206
154.0403 4.604605
155.0479 8.708709
157.0272 21.321321
158.0341 4.504505
159.0427 20.720721
161.0232 12.712713
163.0014 16.116116
171.0436 19.719720
173.0219 15.215215
175.0375 23.423423
176.0422 4.204204
182.0352 9.009009
183.0432 17.717718
185.0255 21.021021
187.0354 5.505506
198.0300 11.211211
199.0381 19.519520
201.0271 5.705706
203.0335 7.907908
215.0337 8.108108
226.0269 5.805806
227.0339 24.224224
228.0367 4.004004
243.0307 19.819820
253.0149 4.104104
271.0260 20.620621
272.0297 5.205205
283.0263 3.903904


Name: Morin
Synon: $:00in-source
DB#: MetaboBASE0341
InChIKey: YXOLAZRVSSWPPT-UHFFFAOYSA-N
Instrument_type: LC-ESI-TOF
Instrument: impact HD
Ion_mode: N
Collision_energy: 10
Formula: C15H10O7
MW: 302
ExactMass: 302.04265266
Comments: "cas number=11128-85-1" "SMILES=c1cc(c(cc1O)O)c2c(c(=O)c3c(cc(cc3o2)O)O)O" "InChI=InChI=1S/C15H10O7/c16-6-1-2-8(9(18)3-6)15-14(21)13(20)12-10(19)4-7(17)5-11(12)22-15/h1-5,16-19,21H" "computed SMILES=O=C1C(O)=C(OC=2C=C(O)C=C(O)C12)C=3C=CC(O)=CC3O" "license=License CC-BY-NC-SA 4.0 International" "author=Plant Biology, The Noble Foundation, Ardmore, OK, US/Dennis Fine, Daniel Wherritt, and Lloyd Sumner" "ionization=ESI" "collision gas=Nitrogen" "peak width=0.018" "date=2013-11-08 12:08:46+01:00" "column=Waters Acquity BEH C18 1.7um x 2.1 x 150 mm" "retention time=414" "raw data file=C:\Data\Confirmed Standards\Confirmed Stds 7Nov13\Morin (vial 89).d" "annotformula=163.0043;       C8H3O4" "annotformula=271.0251;       C14H7O6" "annotformula=299.0201;       C15H7O7" "annotformula=301.0356;       C15H9O7" "annotformula=317.0305;       C15H9O8" "SPLASH=splash10-0udj-0159000000-3b5e183acbd84887fe16" "submitter=Aiko Barsch (Bruker)" "MoNA Rating=4.444444444444445"
Num Peaks: 23
151.0042 2.302302
153.0196 3.003003
163.0043 12.112112
190.9992 2.302302
206.9942 8.308308
207.9998 1.401401
229.0512 1.001001
255.0301 1.601602
271.0251 12.512513
272.0283 1.401401
273.0402 2.802803
289.0353 1.301301
299.0201 63.163163
300.0232 8.208208
301.0356 100.000000
302.0390 13.713714
303.0408 1.501502
317.0305 29.429429
318.0336 3.703704
345.0251 3.903904
617.0588 1.201201
625.0615 3.003003
635.0690 2.502503


Name: Chrysoeriol
Synon: $:00in-source
DB#: MetaboBASE0342
InChIKey: SCZVLDHREVKTSH-UHFFFAOYSA-N
Instrument_type: LC-ESI-TOF
Instrument: impact HD
Ion_mode: N
Formula: C16H12O6
MW: 300
ExactMass: 300.06338810399996
Comments: "cas number=491-71-4" "SMILES=COc1cc(ccc1O)c2cc(=O)c3c(cc(cc3o2)O)O" "InChI=InChI=1S/C16H12O6/c1-21-14-4-8(2-3-10(14)18)13-7-12(20)16-11(19)5-9(17)6-15(16)22-13/h2-7,17-19H,1H3" "computed SMILES=O=C1C=C(OC=2C=C(O)C=C(O)C12)C=3C=CC(O)=C(OC)C3" "license=License CC-BY-NC-SA 4.0 International" "author=Plant Biology, The Noble Foundation, Ardmore, OK, US/Dennis Fine, Daniel Wherritt, and Lloyd Sumner" "ionization=ESI" "collision gas=Nitrogen" "peak width=0.0092" "date=2013-11-19 03:38:56+01:00" "column=Waters Acquity BEH C18 1.7um x 2.1 x 150 mm" "retention time=624.6" "raw data file=C:\Data\Confirmed Standards\Confirmed stds MSMS 14Nov13\Chrysoeriol MSMS (vial 112).d" "SPLASH=splash10-0002-0091010000-c79a20e1046701a4b60a" "submitter=Aiko Barsch (Bruker)" "MoNA Rating=3.888888888888889"
Num Peaks: 4
299.0553 100.000000
300.0587 14.014014
599.1218 14.514515
600.1251 4.204204


Name: Chrysoeriol
Synon: $:00in-source
DB#: MetaboBASE0343
InChIKey: SCZVLDHREVKTSH-UHFFFAOYSA-N
Precursor_type: [M-H]-
Spectrum_type: MS2
PrecursorMZ: 299.0552
Instrument_type: LC-ESI-TOF
Instrument: impact HD
Ion_mode: N
Collision_energy: 20
Formula: C16H12O6
MW: 300
ExactMass: 300.06338810399996
Comments: "cas number=491-71-4" "SMILES=COc1cc(ccc1O)c2cc(=O)c3c(cc(cc3o2)O)O" "InChI=InChI=1S/C16H12O6/c1-21-14-4-8(2-3-10(14)18)13-7-12(20)16-11(19)5-9(17)6-15(16)22-13/h2-7,17-19H,1H3" "computed SMILES=O=C1C=C(OC=2C=C(O)C=C(O)C12)C=3C=CC(O)=C(OC)C3" "license=License CC-BY-NC-SA 4.0 International" "author=Plant Biology, The Noble Foundation, Ardmore, OK, US/Dennis Fine, Daniel Wherritt, and Lloyd Sumner" "ionization=ESI" "isolation width=5" "collision gas=Nitrogen" "peak width=0.011" "date=2013-11-19 03:38:56+01:00" "column=Waters Acquity BEH C18 1.7um x 2.1 x 150 mm" "retention time=624.6" "raw data file=C:\Data\Confirmed Standards\Confirmed stds MSMS 14Nov13\Chrysoeriol MSMS (vial 112).d" "computed mass accuracy=3.049951981946281" "computed mass error=-9.121039999513414E-4" "SPLASH=splash10-001j-0090000000-10b8cb8801e211ef50f3" "submitter=Aiko Barsch (Bruker)" "MoNA Rating=4.583333333333334"
Num Peaks: 5
256.0350 2.202202
284.0300 100.000000
285.0333 10.510511
299.0552 58.658659
300.0583 6.206206


Name: Chrysoeriol
Synon: $:00in-source
DB#: MetaboBASE0344
InChIKey: SCZVLDHREVKTSH-UHFFFAOYSA-N
Precursor_type: [M-H]-
Spectrum_type: MS2
PrecursorMZ: 299.1
Instrument_type: LC-ESI-TOF
Instrument: impact HD
Ion_mode: N
Collision_energy: 40
Formula: C16H12O6
MW: 300
ExactMass: 300.06338810399996
Comments: "cas number=491-71-4" "SMILES=COc1cc(ccc1O)c2cc(=O)c3c(cc(cc3o2)O)O" "InChI=InChI=1S/C16H12O6/c1-21-14-4-8(2-3-10(14)18)13-7-12(20)16-11(19)5-9(17)6-15(16)22-13/h2-7,17-19H,1H3" "computed SMILES=O=C1C=C(OC=2C=C(O)C=C(O)C12)C=3C=CC(O)=C(OC)C3" "license=License CC-BY-NC-SA 4.0 International" "author=Plant Biology, The Noble Foundation, Ardmore, OK, US/Dennis Fine, Daniel Wherritt, and Lloyd Sumner" "ionization=ESI" "isolation width=5" "collision gas=Nitrogen" "peak width=0.016" "date=2013-11-19 03:38:56+01:00" "column=Waters Acquity BEH C18 1.7um x 2.1 x 150 mm" "retention time=624.6" "raw data file=C:\Data\Confirmed Standards\Confirmed stds MSMS 14Nov13\Chrysoeriol MSMS (vial 112).d" "computed mass accuracy=146.7331862255364" "computed mass error=0.043887896000057935" "SPLASH=splash10-0a59-0190000000-e41a7a0b369e042fae34" "submitter=Aiko Barsch (Bruker)" "MoNA Rating=4.545454545454546"
Num Peaks: 22
107.0106 3.003003
132.0194 3.203203
133.0267 3.803804
134.0334 3.703704
149.9952 2.102102
151.0013 13.313313
183.0437 2.502503
187.0382 2.802803
199.0383 2.102102
200.0459 2.802803
211.0400 5.005005
227.0343 41.141141
228.0398 6.506507
239.0358 4.804805
255.0281 21.521522
256.0357 100.000000
257.0388 11.211211
258.0405 2.402402
283.0226 5.705706
284.0295 96.596597
285.0332 15.415415
286.0344 2.402402


Name: Chrysoeriol
Synon: $:00in-source
DB#: MetaboBASE0345
InChIKey: SCZVLDHREVKTSH-UHFFFAOYSA-N
Precursor_type: [M-H]-
Spectrum_type: MS2
PrecursorMZ: 299.1
Instrument_type: LC-ESI-TOF
Instrument: impact HD
Ion_mode: N
Collision_energy: 50
Formula: C16H12O6
MW: 300
ExactMass: 300.06338810399996
Comments: "cas number=491-71-4" "SMILES=COc1cc(ccc1O)c2cc(=O)c3c(cc(cc3o2)O)O" "InChI=InChI=1S/C16H12O6/c1-21-14-4-8(2-3-10(14)18)13-7-12(20)16-11(19)5-9(17)6-15(16)22-13/h2-7,17-19H,1H3" "computed SMILES=O=C1C=C(OC=2C=C(O)C=C(O)C12)C=3C=CC(O)=C(OC)C3" "license=License CC-BY-NC-SA 4.0 International" "author=Plant Biology, The Noble Foundation, Ardmore, OK, US/Dennis Fine, Daniel Wherritt, and Lloyd Sumner" "ionization=ESI" "isolation width=5" "collision gas=Nitrogen" "peak width=0.016" "date=2013-11-19 03:38:56+01:00" "column=Waters Acquity BEH C18 1.7um x 2.1 x 150 mm" "retention time=624.6" "raw data file=C:\Data\Confirmed Standards\Confirmed stds MSMS 14Nov13\Chrysoeriol MSMS (vial 112).d" "computed mass accuracy=146.7331862255364" "computed mass error=0.043887896000057935" "SPLASH=splash10-057i-0590000000-9bcbe16e3cceb12dd431" "submitter=Aiko Barsch (Bruker)" "MoNA Rating=4.545454545454546"
Num Peaks: 16
107.0104 16.216216
124.0137 11.311311
132.0186 9.909910
133.0259 31.131131
134.0347 7.507508
151.0013 32.532533
155.0496 7.307307
183.0430 16.416416
199.0408 11.911912
211.0400 13.213213
227.0350 100.000000
228.0378 10.110110
239.0359 7.907908
255.0282 35.735736
256.0343 35.435435
284.0308 18.218218


Name: Chrysoeriol
Synon: $:00in-source
DB#: MetaboBASE0346
InChIKey: SCZVLDHREVKTSH-UHFFFAOYSA-N
Instrument_type: LC-ESI-TOF
Instrument: impact HD
Ion_mode: N
Collision_energy: 10
Formula: C16H12O6
MW: 300
ExactMass: 300.06338810399996
Comments: "cas number=491-71-4" "SMILES=COc1cc(ccc1O)c2cc(=O)c3c(cc(cc3o2)O)O" "InChI=InChI=1S/C16H12O6/c1-21-14-4-8(2-3-10(14)18)13-7-12(20)16-11(19)5-9(17)6-15(16)22-13/h2-7,17-19H,1H3" "computed SMILES=O=C1C=C(OC=2C=C(O)C=C(O)C12)C=3C=CC(O)=C(OC)C3" "license=License CC-BY-NC-SA 4.0 International" "author=Plant Biology, The Noble Foundation, Ardmore, OK, US/Dennis Fine, Daniel Wherritt, and Lloyd Sumner" "ionization=ESI" "collision gas=Nitrogen" "peak width=0.017" "date=2013-11-09 05:29:28+01:00" "column=Waters Acquity BEH C18 1.7um x 2.1 x 150 mm" "retention time=624.6" "raw data file=C:\Data\Confirmed Standards\Confirmed Stds 7Nov13\Chrysoeriol (vial 112).d" "annotformula=299.0567;       C16H11O6" "SPLASH=splash10-0002-0091000000-bcccd2fe60d84477404f" "submitter=Aiko Barsch (Bruker)" "MoNA Rating=4.444444444444445"
Num Peaks: 7
284.0328 8.408408
285.0361 1.101101
299.0567 100.000000
300.0599 16.416416
301.0615 1.801802
599.1205 1.901902
621.1019 2.402402


Name: Demethyl medicarpin
Synon: $:00in-source
DB#: MetaboBASE0347
InChIKey: ODMIEGVTNZNSLD-WFASDCNBSA-N
Precursor_type: [M-H]-
Spectrum_type: MS2
PrecursorMZ: 255.0656
Instrument_type: LC-ESI-TOF
Instrument: impact HD
Ion_mode: N
Collision_energy: 20
Formula: C15H12O4
MW: 256
ExactMass: 256.073558864
Comments: "cas number=61135-91-9" "SMILES=c1cc2c(cc1O)O[C@@H]3[C@H]2COc4c3ccc(c4)O" "InChI=InChI=1S/C15H12O4/c16-8-2-4-11-13(5-8)18-7-12-10-3-1-9(17)6-14(10)19-15(11)12/h1-6,12,15-17H,7H2/t12-,15-/m0/s1" "computed SMILES=OC1=CC=C2C(OCC3C4=CC=C(O)C=C4OC23)=C1" "computed InChI=InChI=1S/C15H12O4/c16-8-2-4-11-13(5-8)18-7-12-10-3-1-9(17)6-14(10)19-15(11)12/h1-6,12,15-17H,7H2" "license=License CC-BY-NC-SA 4.0 International" "author=Plant Biology, The Noble Foundation, Ardmore, OK, US/Dennis Fine, Daniel Wherritt, and Lloyd Sumner" "ionization=ESI" "isolation width=5" "collision gas=Nitrogen" "peak width=0.0089" "date=2014-01-10 23:53:00+01:00" "column=Waters Acquity BEH C18 1.7um x 2.1 x 150 mm" "retention time=493.8" "raw data file=C:\Data\Confirmed Standards\14Jan10 Confirmed stds MSMS\Demethyl medicarpin (vial 104).d" "computed mass accuracy=2.677209314099918" "computed mass error=-6.828640000264841E-4" "SPLASH=splash10-052f-0190000000-5ee37ddf2074954802e5" "submitter=Aiko Barsch (Bruker)" "MoNA Rating=4.583333333333334"
Num Peaks: 7
140.6552 54.154154
212.0496 26.126126
213.0514 32.132132
237.0587 23.223223
240.0433 46.346346
242.0458 21.721722
255.0656 100.000000


Name: Demethyl medicarpin
Synon: $:00in-source
DB#: MetaboBASE0348
InChIKey: ODMIEGVTNZNSLD-WFASDCNBSA-N
Precursor_type: [M-H]-
Spectrum_type: MS2
PrecursorMZ: 255.0668
Instrument_type: LC-ESI-TOF
Instrument: impact HD
Ion_mode: N
Collision_energy: 10
Formula: C15H12O4
MW: 256
ExactMass: 256.073558864
Comments: "cas number=61135-91-9" "SMILES=c1cc2c(cc1O)O[C@@H]3[C@H]2COc4c3ccc(c4)O" "InChI=InChI=1S/C15H12O4/c16-8-2-4-11-13(5-8)18-7-12-10-3-1-9(17)6-14(10)19-15(11)12/h1-6,12,15-17H,7H2/t12-,15-/m0/s1" "computed SMILES=OC1=CC=C2C(OCC3C4=CC=C(O)C=C4OC23)=C1" "computed InChI=InChI=1S/C15H12O4/c16-8-2-4-11-13(5-8)18-7-12-10-3-1-9(17)6-14(10)19-15(11)12/h1-6,12,15-17H,7H2" "license=License CC-BY-NC-SA 4.0 International" "author=Plant Biology, The Noble Foundation, Ardmore, OK, US/Dennis Fine, Daniel Wherritt, and Lloyd Sumner" "ionization=ESI" "isolation width=5" "collision gas=Nitrogen" "peak width=0.015" "date=2014-01-10 23:53:00+01:00" "column=Waters Acquity BEH C18 1.7um x 2.1 x 150 mm" "retention time=493.8" "raw data file=C:\Data\Confirmed Standards\14Jan10 Confirmed stds MSMS\Demethyl medicarpin (vial 104).d" "computed mass accuracy=2.027453200435847" "computed mass error=5.171359999849301E-4" "SPLASH=splash10-0a4i-0090000000-d7ca64ed871fc5fdb547" "submitter=Aiko Barsch (Bruker)" "MoNA Rating=3.9285714285714284"
Num Peaks: 2
255.0668 100.000000
256.0691 16.216216


Name: Demethyl medicarpin
Synon: $:00in-source
DB#: MetaboBASE0349
InChIKey: ODMIEGVTNZNSLD-WFASDCNBSA-N
Instrument_type: LC-ESI-TOF
Instrument: impact HD
Ion_mode: N
Formula: C15H12O4
MW: 256
ExactMass: 256.073558864
Comments: "cas number=61135-91-9" "SMILES=c1cc2c(cc1O)O[C@@H]3[C@H]2COc4c3ccc(c4)O" "InChI=InChI=1S/C15H12O4/c16-8-2-4-11-13(5-8)18-7-12-10-3-1-9(17)6-14(10)19-15(11)12/h1-6,12,15-17H,7H2/t12-,15-/m0/s1" "computed SMILES=OC1=CC=C2C(OCC3C4=CC=C(O)C=C4OC23)=C1" "computed InChI=InChI=1S/C15H12O4/c16-8-2-4-11-13(5-8)18-7-12-10-3-1-9(17)6-14(10)19-15(11)12/h1-6,12,15-17H,7H2" "license=License CC-BY-NC-SA 4.0 International" "author=Plant Biology, The Noble Foundation, Ardmore, OK, US/Dennis Fine, Daniel Wherritt, and Lloyd Sumner" "ionization=ESI" "collision gas=Nitrogen" "peak width=0.015" "date=2014-01-10 23:53:00+01:00" "column=Waters Acquity BEH C18 1.7um x 2.1 x 150 mm" "retention time=493.8" "raw data file=C:\Data\Confirmed Standards\14Jan10 Confirmed stds MSMS\Demethyl medicarpin (vial 104).d" "SPLASH=splash10-0a4i-0390000000-48d2b18140610a914c5c" "submitter=Aiko Barsch (Bruker)" "MoNA Rating=3.888888888888889"
Num Peaks: 12
112.9857 33.733734
116.9286 10.210210
128.0121 7.107107
174.9560 5.905906
240.0451 8.208208
252.0430 6.506507
253.0511 21.221221
254.0565 10.810811
255.0666 100.000000
256.0708 20.820821
301.0714 10.510511
511.1403 6.706707


Name: Demethyl medicarpin
Synon: $:00in-source
DB#: MetaboBASE0350
InChIKey: ODMIEGVTNZNSLD-WFASDCNBSA-N
Precursor_type: [M-H]-
Spectrum_type: MS2
PrecursorMZ: 255.0663
Instrument_type: LC-ESI-TOF
Instrument: impact HD
Ion_mode: N
Collision_energy: 6
Formula: C15H12O4
MW: 256
ExactMass: 256.073558864
Comments: "cas number=61135-91-9" "SMILES=c1cc2c(cc1O)O[C@@H]3[C@H]2COc4c3ccc(c4)O" "InChI=InChI=1S/C15H12O4/c16-8-2-4-11-13(5-8)18-7-12-10-3-1-9(17)6-14(10)19-15(11)12/h1-6,12,15-17H,7H2/t12-,15-/m0/s1" "computed SMILES=OC1=CC=C2C(OCC3C4=CC=C(O)C=C4OC23)=C1" "computed InChI=InChI=1S/C15H12O4/c16-8-2-4-11-13(5-8)18-7-12-10-3-1-9(17)6-14(10)19-15(11)12/h1-6,12,15-17H,7H2" "license=License CC-BY-NC-SA 4.0 International" "author=Plant Biology, The Noble Foundation, Ardmore, OK, US/Dennis Fine, Daniel Wherritt, and Lloyd Sumner" "ionization=ESI" "isolation width=5" "collision gas=Nitrogen" "peak width=0.012" "date=2014-01-10 23:53:00+01:00" "column=Waters Acquity BEH C18 1.7um x 2.1 x 150 mm" "retention time=493.8" "raw data file=C:\Data\Confirmed Standards\14Jan10 Confirmed stds MSMS\Demethyl medicarpin (vial 104).d" "computed mass accuracy=0.06718253252881123" "computed mass error=1.7135999996753526E-5" "SPLASH=splash10-0a4i-0090000000-947b61453d201df6eb9e" "submitter=Aiko Barsch (Bruker)" "MoNA Rating=4.0"
Num Peaks: 2
255.0663 100.000000
256.0722 31.331331


Name: Demethyl medicarpin
Synon: $:00in-source
DB#: MetaboBASE0351
InChIKey: ODMIEGVTNZNSLD-WFASDCNBSA-N
Instrument_type: LC-ESI-TOF
Instrument: impact HD
Ion_mode: N
Collision_energy: 10
Formula: C15H12O4
MW: 256
ExactMass: 256.073558864
Comments: "cas number=61135-91-9" "SMILES=c1cc2c(cc1O)O[C@@H]3[C@H]2COc4c3ccc(c4)O" "InChI=InChI=1S/C15H12O4/c16-8-2-4-11-13(5-8)18-7-12-10-3-1-9(17)6-14(10)19-15(11)12/h1-6,12,15-17H,7H2/t12-,15-/m0/s1" "computed SMILES=OC1=CC=C2C(OCC3C4=CC=C(O)C=C4OC23)=C1" "computed InChI=InChI=1S/C15H12O4/c16-8-2-4-11-13(5-8)18-7-12-10-3-1-9(17)6-14(10)19-15(11)12/h1-6,12,15-17H,7H2" "license=License CC-BY-NC-SA 4.0 International" "author=Plant Biology, The Noble Foundation, Ardmore, OK, US/Dennis Fine, Daniel Wherritt, and Lloyd Sumner" "ionization=ESI" "collision gas=Nitrogen" "peak width=0.016" "date=2013-11-09 00:03:14+01:00" "column=Waters Acquity BEH C18 1.7um x 2.1 x 150 mm" "retention time=493.2" "raw data file=C:\Data\Confirmed Standards\Confirmed Stds 7Nov13\Demethyl medicarpin (vial 104).d" "SPLASH=splash10-0a4i-0090000000-8be0fbab0e37d62f7611" "submitter=Aiko Barsch (Bruker)" "MoNA Rating=4.444444444444445"
Num Peaks: 6
240.0427 3.003003
255.0666 100.000000
256.0696 12.312312
257.0721 1.501502
301.0718 1.301301
511.1395 1.701702


Name: Fisetin
Synon: $:00in-source
DB#: MetaboBASE0352
InChIKey: XHEFDIBZLJXQHF-UHFFFAOYSA-N
Precursor_type: [M-H]-
Spectrum_type: MS2
PrecursorMZ: 285.0353
Instrument_type: LC-ESI-TOF
Instrument: impact HD
Ion_mode: N
Collision_energy: 20
Formula: C15H10O6
MW: 286
ExactMass: 286.04773804
Comments: "cas number=528-48-3" "SMILES=c1cc(c(cc1c2c(c(=O)c3ccc(cc3o2)O)O)O)O" "InChI=InChI=1S/C15H10O6/c16-8-2-3-9-12(6-8)21-15(14(20)13(9)19)7-1-4-10(17)11(18)5-7/h1-6,16-18,20H" "computed SMILES=O=C1C(O)=C(OC2=CC(O)=CC=C12)C=3C=CC(O)=C(O)C3" "license=License CC-BY-NC-SA 4.0 International" "author=Plant Biology, The Noble Foundation, Ardmore, OK, US/Dennis Fine, Daniel Wherritt, and Lloyd Sumner" "ionization=ESI" "isolation width=5" "collision gas=Nitrogen" "peak width=0.017" "date=2013-11-19 04:19:49+01:00" "column=Waters Acquity BEH C18 1.7um x 2.1 x 150 mm" "retention time=381.6" "raw data file=C:\Data\Confirmed Standards\Confirmed stds MSMS 14Nov13\Fisetin MSMS (vial 113).d" "computed mass accuracy=18.11017793240373" "computed mass error=-0.005162040000016077" "SPLASH=splash10-0a4r-0290000000-5c8ad469168402341b9f" "submitter=Aiko Barsch (Bruker)" "MoNA Rating=4.545454545454546"
Num Peaks: 14
121.0275 15.915916
135.0067 21.621622
149.0220 3.103103
163.0021 12.712713
227.0353 4.704705
229.0496 8.308308
241.0494 6.706707
255.0270 100.000000
256.0302 14.714715
257.0395 8.808809
283.0201 11.411411
284.0235 4.204204
285.0353 55.755756
286.0381 7.607608


Name: Fisetin
Synon: $:00in-source
DB#: MetaboBASE0353
InChIKey: XHEFDIBZLJXQHF-UHFFFAOYSA-N
Instrument_type: LC-ESI-TOF
Instrument: impact HD
Ion_mode: N
Collision_energy: 10
Formula: C15H10O6
MW: 286
ExactMass: 286.04773804
Comments: "cas number=528-48-3" "SMILES=c1cc(c(cc1c2c(c(=O)c3ccc(cc3o2)O)O)O)O" "InChI=InChI=1S/C15H10O6/c16-8-2-3-9-12(6-8)21-15(14(20)13(9)19)7-1-4-10(17)11(18)5-7/h1-6,16-18,20H" "computed SMILES=O=C1C(O)=C(OC2=CC(O)=CC=C12)C=3C=CC(O)=C(O)C3" "license=License CC-BY-NC-SA 4.0 International" "author=Plant Biology, The Noble Foundation, Ardmore, OK, US/Dennis Fine, Daniel Wherritt, and Lloyd Sumner" "ionization=ESI" "collision gas=Nitrogen" "peak width=0.019" "date=2013-11-09 06:10:16+01:00" "column=Waters Acquity BEH C18 1.7um x 2.1 x 150 mm" "retention time=381.6" "raw data file=C:\Data\Confirmed Standards\Confirmed Stds 7Nov13\Fisetin (vial 113).d" "annotformula=255.0300;       C14H7O5" "annotformula=283.0249;       C15H7O6" "annotformula=301.0351;       C15H9O7" "SPLASH=splash10-001i-0090000000-f3c523b1f1bc8f01642b" "submitter=Aiko Barsch (Bruker)" "MoNA Rating=4.444444444444445"
Num Peaks: 14
135.0083 2.402402
163.0033 2.302302
190.9983 1.401401
255.0300 23.823824
256.0331 2.902903
257.0436 1.401401
283.0249 100.000000
284.0280 13.413413
285.0401 35.935936
286.0432 4.604605
301.0351 11.511512
302.0382 1.501502
569.0715 1.301301
589.0381 1.201201


Name: Fisetin
Synon: $:00in-source
DB#: MetaboBASE0354
InChIKey: XHEFDIBZLJXQHF-UHFFFAOYSA-N
Precursor_type: [M-H]-
Spectrum_type: MS2
PrecursorMZ: 285
Instrument_type: LC-ESI-TOF
Instrument: impact HD
Ion_mode: N
Collision_energy: 40
Formula: C15H10O6
MW: 286
ExactMass: 286.04773803999996
Comments: "cas number=528-48-3" "SMILES=c1cc(c(cc1c2c(c(=O)c3ccc(cc3o2)O)O)O)O" "InChI=InChI=1S/C15H10O6/c16-8-2-3-9-12(6-8)21-15(14(20)13(9)19)7-1-4-10(17)11(18)5-7/h1-6,16-18,20H" "computed SMILES=O=C1C(O)=C(OC2=CC(O)=CC=C12)C=3C=CC(O)=C(O)C3" "license=License CC-BY-NC-SA 4.0 International" "author=Plant Biology, The Noble Foundation, Ardmore, OK, US/Dennis Fine, Daniel Wherritt, and Lloyd Sumner" "ionization=ESI" "isolation width=5" "collision gas=Nitrogen" "peak width=0.016" "date=2013-11-19 04:19:49+01:00" "column=Waters Acquity BEH C18 1.7um x 2.1 x 150 mm" "retention time=381.6" "raw data file=C:\Data\Confirmed Standards\Confirmed stds MSMS 14Nov13\Fisetin MSMS (vial 113).d" "computed mass accuracy=141.97207017531852" "computed mass error=-0.04046203999996578" "SPLASH=splash10-00b9-0890000000-a1442e3e62aebd868ecc" "submitter=Aiko Barsch (Bruker)" "MoNA Rating=4.545454545454546"
Num Peaks: 9
121.0278 100.000000
135.0066 70.370370
143.0488 31.931932
171.0438 34.534535
210.0318 31.031031
226.0268 86.786787
227.0338 58.858859
229.0503 33.733734
255.0267 48.548549


Name: Formononetin
Synon: $:00in-source
DB#: MetaboBASE0355
InChIKey: HKQYGTCOTHHOMP-UHFFFAOYSA-N
Precursor_type: [M-H]-
Spectrum_type: MS2
PrecursorMZ: 267.1
Instrument_type: LC-ESI-TOF
Instrument: impact HD
Ion_mode: N
Collision_energy: 50
Formula: C16H12O4
MW: 268
ExactMass: 268.073558864
Comments: "cas number=485-72-3" "SMILES=COc1ccc(cc1)c2coc3cc(ccc3c2=O)O" "InChI=InChI=1S/C16H12O4/c1-19-12-5-2-10(3-6-12)14-9-20-15-8-11(17)4-7-13(15)16(14)18/h2-9,17H,1H3" "computed SMILES=O=C1C(=COC2=CC(O)=CC=C21)C=3C=CC(OC)=CC3" "license=License CC-BY-NC-SA 4.0 International" "author=Plant Biology, The Noble Foundation, Ardmore, OK, US/Dennis Fine, Daniel Wherritt, and Lloyd Sumner" "ionization=ESI" "isolation width=5" "collision gas=Nitrogen" "peak width=0.018" "date=2013-11-19 02:17:07+01:00" "column=Waters Acquity BEH C18 1.7um x 2.1 x 150 mm" "retention time=720" "raw data file=C:\Data\Confirmed Standards\Confirmed stds MSMS 14Nov13\Formononetin MSMS (vial 108).d" "computed mass accuracy=126.23412953952464" "computed mass error=0.03371713600000703" "SPLASH=splash10-006t-0960000000-882facb1d6090879f469" "submitter=Aiko Barsch (Bruker)" "MoNA Rating=4.545454545454546"
Num Peaks: 11
132.0226 21.321321
135.0096 14.414414
167.0514 18.218218
168.0553 2.202202
180.0587 2.902903
195.0464 100.000000
196.0499 10.610611
223.0409 78.678679
224.0452 10.510511
251.0358 21.321321
252.0408 4.104104


Name: Formononetin
Synon: $:00in-source
DB#: MetaboBASE0356
InChIKey: HKQYGTCOTHHOMP-UHFFFAOYSA-N
Precursor_type: [M-H]-
Spectrum_type: MS2
PrecursorMZ: 267.0664
Instrument_type: LC-ESI-TOF
Instrument: impact HD
Ion_mode: N
Collision_energy: 30
Formula: C16H12O4
MW: 268
ExactMass: 268.073558864
Comments: "cas number=485-72-3" "SMILES=COc1ccc(cc1)c2coc3cc(ccc3c2=O)O" "InChI=InChI=1S/C16H12O4/c1-19-12-5-2-10(3-6-12)14-9-20-15-8-11(17)4-7-13(15)16(14)18/h2-9,17H,1H3" "computed SMILES=O=C1C(=COC2=CC(O)=CC=C21)C=3C=CC(OC)=CC3" "license=License CC-BY-NC-SA 4.0 International" "author=Plant Biology, The Noble Foundation, Ardmore, OK, US/Dennis Fine, Daniel Wherritt, and Lloyd Sumner" "ionization=ESI" "isolation width=5" "collision gas=Nitrogen" "peak width=0.011" "date=2013-11-19 02:17:07+01:00" "column=Waters Acquity BEH C18 1.7um x 2.1 x 150 mm" "retention time=720" "raw data file=C:\Data\Confirmed Standards\Confirmed stds MSMS 14Nov13\Formononetin MSMS (vial 108).d" "computed mass accuracy=0.4386025346941864" "computed mass error=1.1713599997165147E-4" "SPLASH=splash10-0udi-0090000000-c85f2c5d083aef27307a" "submitter=Aiko Barsch (Bruker)" "MoNA Rating=4.615384615384616"
Num Peaks: 9
132.0225 4.504505
135.0097 2.102102
195.0462 3.103103
223.0412 25.425425
224.0475 8.608609
251.0360 16.716717
252.0437 100.000000
253.0467 10.610611
267.0664 2.302302


Name: Formononetin
Synon: $:00in-source
DB#: MetaboBASE0357
InChIKey: HKQYGTCOTHHOMP-UHFFFAOYSA-N
Precursor_type: [M-H]-
Spectrum_type: MS2
PrecursorMZ: 267.0671
Instrument_type: LC-ESI-TOF
Instrument: impact HD
Ion_mode: N
Collision_energy: 10
Formula: C16H12O4
MW: 268
ExactMass: 268.073558864
Comments: "cas number=485-72-3" "SMILES=COc1ccc(cc1)c2coc3cc(ccc3c2=O)O" "InChI=InChI=1S/C16H12O4/c1-19-12-5-2-10(3-6-12)14-9-20-15-8-11(17)4-7-13(15)16(14)18/h2-9,17H,1H3" "computed SMILES=O=C1C(=COC2=CC(O)=CC=C21)C=3C=CC(OC)=CC3" "license=License CC-BY-NC-SA 4.0 International" "author=Plant Biology, The Noble Foundation, Ardmore, OK, US/Dennis Fine, Daniel Wherritt, and Lloyd Sumner" "ionization=ESI" "isolation width=5" "collision gas=Nitrogen" "peak width=0.012" "date=2013-11-19 02:17:07+01:00" "column=Waters Acquity BEH C18 1.7um x 2.1 x 150 mm" "retention time=720" "raw data file=C:\Data\Confirmed Standards\Confirmed stds MSMS 14Nov13\Formononetin MSMS (vial 108).d" "computed mass accuracy=3.059665529623332" "computed mass error=8.171359999664674E-4" "SPLASH=splash10-014i-0090000000-1c961341bd2d8a5a1789" "submitter=Aiko Barsch (Bruker)" "MoNA Rating=4.583333333333334"
Num Peaks: 3
252.0437 6.006006
267.0671 100.000000
268.0699 12.112112


Name: Formononetin
Synon: $:00in-source
DB#: MetaboBASE0358
InChIKey: HKQYGTCOTHHOMP-UHFFFAOYSA-N
Precursor_type: [M-H]-
Spectrum_type: MS2
PrecursorMZ: 267.1
Instrument_type: LC-ESI-TOF
Instrument: impact HD
Ion_mode: N
Collision_energy: 40
Formula: C16H12O4
MW: 268
ExactMass: 268.073558864
Comments: "cas number=485-72-3" "SMILES=COc1ccc(cc1)c2coc3cc(ccc3c2=O)O" "InChI=InChI=1S/C16H12O4/c1-19-12-5-2-10(3-6-12)14-9-20-15-8-11(17)4-7-13(15)16(14)18/h2-9,17H,1H3" "computed SMILES=O=C1C(=COC2=CC(O)=CC=C21)C=3C=CC(OC)=CC3" "license=License CC-BY-NC-SA 4.0 International" "author=Plant Biology, The Noble Foundation, Ardmore, OK, US/Dennis Fine, Daniel Wherritt, and Lloyd Sumner" "ionization=ESI" "isolation width=5" "collision gas=Nitrogen" "peak width=0.015" "date=2013-11-19 02:17:07+01:00" "column=Waters Acquity BEH C18 1.7um x 2.1 x 150 mm" "retention time=720" "raw data file=C:\Data\Confirmed Standards\Confirmed stds MSMS 14Nov13\Formononetin MSMS (vial 108).d" "computed mass accuracy=126.23412953952464" "computed mass error=0.03371713600000703" "SPLASH=splash10-0fk9-0390000000-60bac2bf99a8a69fbfa0" "submitter=Aiko Barsch (Bruker)" "MoNA Rating=4.545454545454546"
Num Peaks: 11
132.0227 24.524525
135.0096 15.515516
167.0514 3.603604
195.0464 40.840841
196.0509 4.704705
208.0539 3.703704
223.0413 100.000000
224.0466 21.121121
251.0361 41.741742
252.0428 32.132132
253.0462 3.303303


Name: Formononetin
Synon: $:00in-source
DB#: MetaboBASE0359
InChIKey: HKQYGTCOTHHOMP-UHFFFAOYSA-N
Precursor_type: [M-H]-
Spectrum_type: MS2
PrecursorMZ: 267.0667
Instrument_type: LC-ESI-TOF
Instrument: impact HD
Ion_mode: N
Collision_energy: 20
Formula: C16H12O4
MW: 268
ExactMass: 268.073558864
Comments: "cas number=485-72-3" "SMILES=COc1ccc(cc1)c2coc3cc(ccc3c2=O)O" "InChI=InChI=1S/C16H12O4/c1-19-12-5-2-10(3-6-12)14-9-20-15-8-11(17)4-7-13(15)16(14)18/h2-9,17H,1H3" "computed SMILES=O=C1C(=COC2=CC(O)=CC=C21)C=3C=CC(OC)=CC3" "license=License CC-BY-NC-SA 4.0 International" "author=Plant Biology, The Noble Foundation, Ardmore, OK, US/Dennis Fine, Daniel Wherritt, and Lloyd Sumner" "ionization=ESI" "isolation width=5" "collision gas=Nitrogen" "peak width=0.0098" "date=2013-11-19 02:17:07+01:00" "column=Waters Acquity BEH C18 1.7um x 2.1 x 150 mm" "retention time=720" "raw data file=C:\Data\Confirmed Standards\Confirmed stds MSMS 14Nov13\Formononetin MSMS (vial 108).d" "computed mass accuracy=1.5619169294038984" "computed mass error=4.1713600001003215E-4" "SPLASH=splash10-0uxr-0090000000-0755787b026efa8867b7" "submitter=Aiko Barsch (Bruker)" "MoNA Rating=4.583333333333334"
Num Peaks: 6
223.0409 2.602603
251.0358 2.302302
252.0438 100.000000
253.0469 10.910911
267.0667 56.756757
268.0700 5.405405


Name: Formononetin
Synon: $:00in-source
DB#: MetaboBASE0360
InChIKey: HKQYGTCOTHHOMP-UHFFFAOYSA-N
Instrument_type: LC-ESI-TOF
Instrument: impact HD
Ion_mode: N
Formula: C16H12O4
MW: 268
ExactMass: 268.073558864
Comments: "cas number=485-72-3" "SMILES=COc1ccc(cc1)c2coc3cc(ccc3c2=O)O" "InChI=InChI=1S/C16H12O4/c1-19-12-5-2-10(3-6-12)14-9-20-15-8-11(17)4-7-13(15)16(14)18/h2-9,17H,1H3" "computed SMILES=O=C1C(=COC2=CC(O)=CC=C21)C=3C=CC(OC)=CC3" "license=License CC-BY-NC-SA 4.0 International" "author=Plant Biology, The Noble Foundation, Ardmore, OK, US/Dennis Fine, Daniel Wherritt, and Lloyd Sumner" "ionization=ESI" "collision gas=Nitrogen" "peak width=0.017" "date=2013-11-19 02:17:07+01:00" "column=Waters Acquity BEH C18 1.7um x 2.1 x 150 mm" "retention time=720" "raw data file=C:\Data\Confirmed Standards\Confirmed stds MSMS 14Nov13\Formononetin MSMS (vial 108).d" "SPLASH=splash10-014i-0090000000-9e7db78f88f3bcea3676" "submitter=Aiko Barsch (Bruker)" "MoNA Rating=3.888888888888889"
Num Peaks: 4
267.0679 100.000000
268.0700 29.129129
269.0725 2.502503
535.1408 3.903904


Name: Kaempferol
Synon: $:00in-source
DB#: MetaboBASE0361
InChIKey: IYRMWMYZSQPJKC-UHFFFAOYSA-N
Precursor_type: [M-H]-
Spectrum_type: MS2
PrecursorMZ: 285.0415
Instrument_type: LC-ESI-TOF
Instrument: impact HD
Ion_mode: N
Collision_energy: 40
Formula: C15H10O6
MW: 286
ExactMass: 286.04773804
Comments: "cas number=520-18-3" "SMILES=c1cc(ccc1c2c(c(=O)c3c(cc(cc3o2)O)O)O)O" "InChI=InChI=1S/C15H10O6/c16-8-3-1-7(2-4-8)15-14(20)13(19)12-10(18)5-9(17)6-11(12)21-15/h1-6,16-18,20H" "computed SMILES=O=C1C(O)=C(OC=2C=C(O)C=C(O)C12)C=3C=CC(O)=CC3" "license=License CC-BY-NC-SA 4.0 International" "author=Plant Biology, The Noble Foundation, Ardmore, OK, US/Dennis Fine, Daniel Wherritt, and Lloyd Sumner" "ionization=ESI" "isolation width=5" "collision gas=Nitrogen" "peak width=0.016" "date=2013-11-19 02:58:02+01:00" "column=Waters Acquity BEH C18 1.7um x 2.1 x 150 mm" "retention time=588.6" "raw data file=C:\Data\Confirmed Standards\Confirmed stds MSMS 14Nov13\Kaempferol MSMS (vial 109).d" "computed mass accuracy=3.6414346681531216" "computed mass error=0.0010379599999623679" "SPLASH=splash10-000i-0950000000-580cab3c0e471a3f4e00" "submitter=Aiko Barsch (Bruker)" "MoNA Rating=4.583333333333334"
Num Peaks: 58
107.0140 9.609610
108.0214 18.118118
109.0295 18.118118
115.0555 10.010010
117.0346 74.874875
118.0398 8.608609
121.0287 10.110110
123.0094 7.207207
130.0425 15.715716
131.0507 24.224224
133.0317 16.616617
135.0153 21.721722
136.0173 9.609610
137.0257 13.413413
143.0501 33.033033
145.0313 37.337337
151.0050 15.015015
151.0086 15.015015
154.0428 12.812813
155.0502 14.814815
156.0566 21.121121
157.0537 31.431431
158.0405 14.214214
159.0450 42.042042
161.0262 32.732733
163.0061 15.515516
164.0121 11.711712
167.0513 12.712713
169.0488 7.807808
171.0455 29.629630
173.0361 9.909910
183.0453 16.716717
184.0520 17.017017
185.0607 37.537538
187.0404 37.137137
195.0456 7.807808
196.0520 9.409409
199.0403 12.812813
201.0566 9.309309
210.0324 8.108108
211.0413 28.828829
213.0419 8.108108
214.0290 9.709710
215.0371 8.508509
219.0320 7.707708
227.0350 60.160160
228.0418 12.612613
229.0503 37.837838
239.0349 55.155155
240.0399 16.616617
243.0311 12.412412
255.0290 37.337337
256.0356 12.312312
257.0430 7.307307
267.0306 19.619620
268.0377 10.710711
285.0415 100.000000
286.0433 18.018018


Name: Kaempferol
Synon: $:00in-source
DB#: MetaboBASE0362
InChIKey: IYRMWMYZSQPJKC-UHFFFAOYSA-N
Instrument_type: LC-ESI-TOF
Instrument: impact HD
Ion_mode: N
Formula: C15H10O6
MW: 286
ExactMass: 286.04773804
Comments: "cas number=520-18-3" "SMILES=c1cc(ccc1c2c(c(=O)c3c(cc(cc3o2)O)O)O)O" "InChI=InChI=1S/C15H10O6/c16-8-3-1-7(2-4-8)15-14(20)13(19)12-10(18)5-9(17)6-11(12)21-15/h1-6,16-18,20H" "computed SMILES=O=C1C(O)=C(OC=2C=C(O)C=C(O)C12)C=3C=CC(O)=CC3" "license=License CC-BY-NC-SA 4.0 International" "author=Plant Biology, The Noble Foundation, Ardmore, OK, US/Dennis Fine, Daniel Wherritt, and Lloyd Sumner" "ionization=ESI" "collision gas=Nitrogen" "peak width=0.011" "date=2013-11-19 02:58:02+01:00" "column=Waters Acquity BEH C18 1.7um x 2.1 x 150 mm" "retention time=588.6" "raw data file=C:\Data\Confirmed Standards\Confirmed stds MSMS 14Nov13\Kaempferol MSMS (vial 109).d" "SPLASH=splash10-000i-0091000000-295f056c177e6e49fb6b" "submitter=Aiko Barsch (Bruker)" "MoNA Rating=3.888888888888889"
Num Peaks: 5
285.0411 100.000000
286.0442 15.015015
301.0359 14.214214
571.0859 7.907908
572.0891 2.102102


Name: Kaempferol
Synon: $:00in-source
DB#: MetaboBASE0363
InChIKey: IYRMWMYZSQPJKC-UHFFFAOYSA-N
Precursor_type: [M-H]-
Spectrum_type: MS2
PrecursorMZ: 285
Instrument_type: LC-ESI-TOF
Instrument: impact HD
Ion_mode: N
Collision_energy: 50
Formula: C15H10O6
MW: 286
ExactMass: 286.04773803999996
Comments: "cas number=520-18-3" "SMILES=c1cc(ccc1c2c(c(=O)c3c(cc(cc3o2)O)O)O)O" "InChI=InChI=1S/C15H10O6/c16-8-3-1-7(2-4-8)15-14(20)13(19)12-10(18)5-9(17)6-11(12)21-15/h1-6,16-18,20H" "computed SMILES=O=C1C(O)=C(OC=2C=C(O)C=C(O)C12)C=3C=CC(O)=CC3" "license=License CC-BY-NC-SA 4.0 International" "author=Plant Biology, The Noble Foundation, Ardmore, OK, US/Dennis Fine, Daniel Wherritt, and Lloyd Sumner" "ionization=ESI" "isolation width=5" "collision gas=Nitrogen" "peak width=0.017" "date=2013-11-19 02:58:02+01:00" "column=Waters Acquity BEH C18 1.7um x 2.1 x 150 mm" "retention time=588.6" "raw data file=C:\Data\Confirmed Standards\Confirmed stds MSMS 14Nov13\Kaempferol MSMS (vial 109).d" "computed mass accuracy=141.97207017531852" "computed mass error=-0.04046203999996578" "SPLASH=splash10-066r-0930000000-f40d69c592d60004cae0" "submitter=Aiko Barsch (Bruker)" "MoNA Rating=4.545454545454546"
Num Peaks: 30
108.0221 13.913914
109.0297 18.218218
117.0346 100.000000
119.0489 12.012012
130.0419 15.115115
131.0508 16.416416
132.0263 12.712713
133.0297 12.012012
135.0218 12.912913
141.0337 11.811812
143.0504 23.523524
145.0315 18.318318
154.0433 10.310310
156.0589 11.211211
157.0455 11.311311
158.0371 29.229229
159.0459 20.720721
161.0277 17.917918
167.0518 10.310310
171.0449 13.213213
182.0368 13.313313
183.0459 23.823824
187.0383 16.316316
210.0314 11.611612
211.0382 17.117117
227.0357 48.748749
228.0410 10.210210
239.0347 19.219219
255.0296 28.828829
267.0312 14.014014


Name: Kaempferol
Synon: $:00in-source
DB#: MetaboBASE0364
InChIKey: IYRMWMYZSQPJKC-UHFFFAOYSA-N
Precursor_type: [M-H]-
Spectrum_type: MS2
PrecursorMZ: 285.0409
Instrument_type: LC-ESI-TOF
Instrument: impact HD
Ion_mode: N
Collision_energy: 20
Formula: C15H10O6
MW: 286
ExactMass: 286.04773804
Comments: "cas number=520-18-3" "SMILES=c1cc(ccc1c2c(c(=O)c3c(cc(cc3o2)O)O)O)O" "InChI=InChI=1S/C15H10O6/c16-8-3-1-7(2-4-8)15-14(20)13(19)12-10(18)5-9(17)6-11(12)21-15/h1-6,16-18,20H" "computed SMILES=O=C1C(O)=C(OC=2C=C(O)C=C(O)C12)C=3C=CC(O)=CC3" "license=License CC-BY-NC-SA 4.0 International" "author=Plant Biology, The Noble Foundation, Ardmore, OK, US/Dennis Fine, Daniel Wherritt, and Lloyd Sumner" "ionization=ESI" "isolation width=5" "collision gas=Nitrogen" "peak width=0.0091" "date=2013-11-19 02:58:02+01:00" "column=Waters Acquity BEH C18 1.7um x 2.1 x 150 mm" "retention time=588.6" "raw data file=C:\Data\Confirmed Standards\Confirmed stds MSMS 14Nov13\Kaempferol MSMS (vial 109).d" "computed mass accuracy=1.536481255845366" "computed mass error=4.3795999999929336E-4" "SPLASH=splash10-000i-0090000000-9c05961ef763b3e7b726" "submitter=Aiko Barsch (Bruker)" "MoNA Rating=3.9285714285714284"
Num Peaks: 2
285.0409 100.000000
286.0439 10.610611


Name: Liquiritigenin
Synon: $:00in-source
DB#: MetaboBASE0365
InChIKey: FURUXTVZLHCCNA-AWEZNQCLSA-N
Precursor_type: [M-H]-
Spectrum_type: MS2
PrecursorMZ: 255.0685
Instrument_type: LC-ESI-TOF
Instrument: impact HD
Ion_mode: N
Collision_energy: 20
Formula: C15H12O4
MW: 256
ExactMass: 256.073558864
Comments: "cas number=578-86-9" "SMILES=c1cc(ccc1[C@@H]2CC(=O)c3ccc(cc3O2)O)O" "InChI=InChI=1S/C15H12O4/c16-10-3-1-9(2-4-10)14-8-13(18)12-6-5-11(17)7-15(12)19-14/h1-7,14,16-17H,8H2/t14-/m0/s1" "computed SMILES=O=C1C2=CC=C(O)C=C2OC(C3=CC=C(O)C=C3)C1" "license=License CC-BY-NC-SA 4.0 International" "author=Plant Biology, The Noble Foundation, Ardmore, OK, US/Dennis Fine, Daniel Wherritt, and Lloyd Sumner" "ionization=ESI" "isolation width=5" "collision gas=Nitrogen" "peak width=0.014" "date=2013-11-19 11:49:19+01:00" "column=Waters Acquity BEH C18 1.7um x 2.1 x 150 mm" "retention time=445.8" "raw data file=C:\Data\Confirmed Standards\Confirmed stds MSMS 14Nov13\Liquiritigenin (vial 101).d" "computed mass accuracy=8.692315985645115" "computed mass error=0.002217135999984521" "SPLASH=splash10-014r-0900000000-8829ca13726fa5ef2894" "submitter=Aiko Barsch (Bruker)" "MoNA Rating=4.545454545454546"
Num Peaks: 6
119.0512 100.000000
120.0544 5.705706
135.0098 55.855856
136.0132 2.702703
153.0204 4.204204
255.0685 5.005005


Name: Liquiritigenin
Synon: $:00in-source
DB#: MetaboBASE0366
InChIKey: FURUXTVZLHCCNA-AWEZNQCLSA-N
Instrument_type: LC-ESI-TOF
Instrument: impact HD
Ion_mode: N
Formula: C15H12O4
MW: 256
ExactMass: 256.073558864
Comments: "cas number=578-86-9" "SMILES=c1cc(ccc1[C@@H]2CC(=O)c3ccc(cc3O2)O)O" "InChI=InChI=1S/C15H12O4/c16-10-3-1-9(2-4-10)14-8-13(18)12-6-5-11(17)7-15(12)19-14/h1-7,14,16-17H,8H2/t14-/m0/s1" "computed SMILES=O=C1C2=CC=C(O)C=C2OC(C3=CC=C(O)C=C3)C1" "license=License CC-BY-NC-SA 4.0 International" "author=Plant Biology, The Noble Foundation, Ardmore, OK, US/Dennis Fine, Daniel Wherritt, and Lloyd Sumner" "ionization=ESI" "collision gas=Nitrogen" "peak width=0.011" "date=2013-11-19 11:49:19+01:00" "column=Waters Acquity BEH C18 1.7um x 2.1 x 150 mm" "retention time=445.8" "raw data file=C:\Data\Confirmed Standards\Confirmed stds MSMS 14Nov13\Liquiritigenin (vial 101).d" "SPLASH=splash10-0a4i-0090010000-4f0e0e7c69cd0563f154" "submitter=Aiko Barsch (Bruker)" "MoNA Rating=3.888888888888889"
Num Peaks: 4
255.0689 100.000000
256.0720 13.113113
511.1447 16.316316
512.1481 4.404404


Name: Naringenin-7-O-glucoside
Synon: $:00in-source
DB#: MetaboBASE0367
InChIKey: DLIKSSGEMUFQOK-SFTVRKLSSA-N
Precursor_type: [M-H]-
Spectrum_type: MS2
PrecursorMZ: 433.1
Instrument_type: LC-ESI-TOF
Instrument: impact HD
Ion_mode: N
Collision_energy: 20
Formula: C21H22O10
MW: 434
ExactMass: 434.121296904
Comments: "cas number=529-55-5" "SMILES=c1cc(ccc1[C@@H]2CC(=O)c3c(cc(cc3O2)O[C@H]4[C@@H]([C@H]([C@@H]([C@H](O4)CO)O)O)O)O)O" "InChI=InChI=1S/C21H22O10/c22-8-16-18(26)19(27)20(28)21(31-16)29-11-5-12(24)17-13(25)7-14(30-15(17)6-11)9-1-3-10(23)4-2-9/h1-6,14,16,18-24,26-28H,7-8H2/t14-,16+,18+,19-,20+,21+/m0/s1" "computed SMILES=O=C1C2=C(O)C=C(OC3OC(CO)C(O)C(O)C3O)C=C2OC(C4=CC=C(O)C=C4)C1" "license=License CC-BY-NC-SA 4.0 International" "author=Plant Biology, The Noble Foundation, Ardmore, OK, US/Dennis Fine, Daniel Wherritt, and Lloyd Sumner" "ionization=ESI" "isolation width=5" "collision gas=Nitrogen" "peak width=0.013" "date=2013-11-19 05:00:43+01:00" "column=Waters Acquity BEH C18 1.7um x 2.1 x 150 mm" "retention time=375" "raw data file=C:\Data\Confirmed Standards\Confirmed stds MSMS 14Nov13\Naringenin7glucoside MSMS v115.d" "computed mass accuracy=32.373364119154665" "computed mass error=-0.014020904000005885" "SPLASH=splash10-00di-0090000000-7a348aba51cc35445f0d" "submitter=Aiko Barsch (Bruker)" "MoNA Rating=3.846153846153846"
Num Peaks: 2
271.0656 100.000000
272.0690 9.309309


Name: Naringenin-7-O-glucoside
Synon: $:00in-source
DB#: MetaboBASE0368
InChIKey: DLIKSSGEMUFQOK-SFTVRKLSSA-N
Instrument_type: LC-ESI-TOF
Instrument: impact HD
Ion_mode: N
Formula: C21H22O10
MW: 434
ExactMass: 434.121296904
Comments: "cas number=529-55-5" "SMILES=c1cc(ccc1[C@@H]2CC(=O)c3c(cc(cc3O2)O[C@H]4[C@@H]([C@H]([C@@H]([C@H](O4)CO)O)O)O)O)O" "InChI=InChI=1S/C21H22O10/c22-8-16-18(26)19(27)20(28)21(31-16)29-11-5-12(24)17-13(25)7-14(30-15(17)6-11)9-1-3-10(23)4-2-9/h1-6,14,16,18-24,26-28H,7-8H2/t14-,16+,18+,19-,20+,21+/m0/s1" "computed SMILES=O=C1C2=C(O)C=C(OC3OC(CO)C(O)C(O)C3O)C=C2OC(C4=CC=C(O)C=C4)C1" "license=License CC-BY-NC-SA 4.0 International" "author=Plant Biology, The Noble Foundation, Ardmore, OK, US/Dennis Fine, Daniel Wherritt, and Lloyd Sumner" "ionization=ESI" "collision gas=Nitrogen" "peak width=0.012" "date=2013-11-19 05:00:43+01:00" "column=Waters Acquity BEH C18 1.7um x 2.1 x 150 mm" "retention time=375" "raw data file=C:\Data\Confirmed Standards\Confirmed stds MSMS 14Nov13\Naringenin7glucoside MSMS v115.d" "SPLASH=splash10-001i-0000900030-213d48a9fc89249d0aeb" "submitter=Aiko Barsch (Bruker)" "MoNA Rating=3.888888888888889"
Num Peaks: 12
271.0658 5.405405
433.1213 100.000000
434.1245 16.716717
435.1269 2.402402
479.1274 4.904905
867.2495 31.231231
867.7498 3.403403
868.2531 12.612613
869.2555 2.902903
1084.3112 2.802803
1084.8140 3.003003
1301.8774 2.102102


Name: Naringenin-7-O-glucoside
Synon: $:00in-source
DB#: MetaboBASE0369
InChIKey: DLIKSSGEMUFQOK-SFTVRKLSSA-N
Instrument_type: LC-ESI-TOF
Instrument: impact HD
Ion_mode: N
Collision_energy: 10
Formula: C21H22O10
MW: 434
ExactMass: 434.121296904
Comments: "cas number=529-55-5" "SMILES=c1cc(ccc1[C@@H]2CC(=O)c3c(cc(cc3O2)O[C@H]4[C@@H]([C@H]([C@@H]([C@H](O4)CO)O)O)O)O)O" "InChI=InChI=1S/C21H22O10/c22-8-16-18(26)19(27)20(28)21(31-16)29-11-5-12(24)17-13(25)7-14(30-15(17)6-11)9-1-3-10(23)4-2-9/h1-6,14,16,18-24,26-28H,7-8H2/t14-,16+,18+,19-,20+,21+/m0/s1" "computed SMILES=O=C1C2=C(O)C=C(OC3OC(CO)C(O)C(O)C3O)C=C2OC(C4=CC=C(O)C=C4)C1" "license=License CC-BY-NC-SA 4.0 International" "author=Plant Biology, The Noble Foundation, Ardmore, OK, US/Dennis Fine, Daniel Wherritt, and Lloyd Sumner" "ionization=ESI" "collision gas=Nitrogen" "peak width=0.015" "date=2013-11-09 07:31:46+01:00" "column=Waters Acquity BEH C18 1.7um x 2.1 x 150 mm" "retention time=375" "raw data file=C:\Data\Confirmed Standards\Confirmed Stds 7Nov13\Naringenin-7-O-glucoside.d" "annotformula=271.0614;       C15H11O5" "annotformula=433.1148;       C21H21O10" "SPLASH=splash10-00e9-0090600000-3fa1e0de7ee375e6fb13" "submitter=Aiko Barsch (Bruker)" "MoNA Rating=4.444444444444445"
Num Peaks: 9
271.0614 100.000000
272.0646 12.812813
273.0670 1.301301
433.1148 72.772773
434.1182 13.513514
435.1202 2.102102
501.1024 2.602603
867.2371 7.607608
868.2402 3.103103


Name: Naringenin-7-O-glucoside
Synon: $:00in-source
DB#: MetaboBASE0370
InChIKey: DLIKSSGEMUFQOK-SFTVRKLSSA-N
Precursor_type: [M-H]-
Spectrum_type: MS2
PrecursorMZ: 433.1
Instrument_type: LC-ESI-TOF
Instrument: impact HD
Ion_mode: N
Collision_energy: 40
Formula: C21H22O10
MW: 434
ExactMass: 434.121296904
Comments: "cas number=529-55-5" "SMILES=c1cc(ccc1[C@@H]2CC(=O)c3c(cc(cc3O2)O[C@H]4[C@@H]([C@H]([C@@H]([C@H](O4)CO)O)O)O)O)O" "InChI=InChI=1S/C21H22O10/c22-8-16-18(26)19(27)20(28)21(31-16)29-11-5-12(24)17-13(25)7-14(30-15(17)6-11)9-1-3-10(23)4-2-9/h1-6,14,16,18-24,26-28H,7-8H2/t14-,16+,18+,19-,20+,21+/m0/s1" "computed SMILES=O=C1C2=C(O)C=C(OC3OC(CO)C(O)C(O)C3O)C=C2OC(C4=CC=C(O)C=C4)C1" "license=License CC-BY-NC-SA 4.0 International" "author=Plant Biology, The Noble Foundation, Ardmore, OK, US/Dennis Fine, Daniel Wherritt, and Lloyd Sumner" "ionization=ESI" "isolation width=5" "collision gas=Nitrogen" "peak width=0.017" "date=2013-11-19 05:00:43+01:00" "column=Waters Acquity BEH C18 1.7um x 2.1 x 150 mm" "retention time=375" "raw data file=C:\Data\Confirmed Standards\Confirmed stds MSMS 14Nov13\Naringenin7glucoside MSMS v115.d" "computed mass accuracy=32.373364119154665" "computed mass error=-0.014020904000005885" "SPLASH=splash10-0g4i-0960000000-4cdbf1aa9926e7c6f413" "submitter=Aiko Barsch (Bruker)" "MoNA Rating=4.545454545454546"
Num Peaks: 5
119.0521 72.372372
151.0066 83.383383
177.0215 10.110110
271.0655 100.000000
272.0692 15.515516


Name: Orientin
Synon: $:00in-source
DB#: MetaboBASE0371
InChIKey: PLAPMLGJVGLZOV-VPRICQMDSA-N
Instrument_type: LC-ESI-TOF
Instrument: impact HD
Ion_mode: N
Collision_energy: 10
Formula: C21H20O11
MW: 448
ExactMass: 448.10056146
Comments: "cas number=28608-75-5" "SMILES=c1cc(c(cc1c2cc(=O)c3c(cc(c(c3o2)[C@H]4[C@@H]([C@H]([C@@H]([C@H](O4)CO)O)O)O)O)O)O)O" "InChI=InChI=1S/C21H20O11/c22-6-14-17(28)18(29)19(30)21(32-14)16-11(26)4-10(25)15-12(27)5-13(31-20(15)16)7-1-2-8(23)9(24)3-7/h1-5,14,17-19,21-26,28-30H,6H2/t14-,17-,18+,19-,21+/m1/s1" "computed SMILES=O=C1C=C(OC=2C1=C(O)C=C(O)C2C3OC(CO)C(O)C(O)C3O)C=4C=CC(O)=C(O)C4" "license=License CC-BY-NC-SA 4.0 International" "author=Plant Biology, The Noble Foundation, Ardmore, OK, US/Dennis Fine, Daniel Wherritt, and Lloyd Sumner" "ionization=ESI" "collision gas=Nitrogen" "peak width=0.018" "date=2013-11-09 02:05:34+01:00" "column=Waters Acquity BEH C18 1.7um x 2.1 x 150 mm" "retention time=254.4" "raw data file=C:\Data\Confirmed Standards\Confirmed Stds 7Nov13\Orientin (vial 107).d" "annotformula=445.0777;       C21H17O11" "annotformula=447.0931;       C21H19O11" "annotformula=893.1810;       C42H37O22" "annotformula=895.1959;       C35H43O27" "SPLASH=splash10-0002-0000900030-b0497f7a2341d8d2acc9" "submitter=Aiko Barsch (Bruker)" "MoNA Rating=4.444444444444445"
Num Peaks: 18
327.0504 2.202202
445.0777 84.884885
446.0809 16.116116
447.0931 100.000000
448.0962 18.618619
449.0982 3.103103
463.0879 4.804805
464.0909 1.001001
893.1810 23.023023
894.1844 9.909910
895.1959 40.840841
896.1995 16.416416
897.2014 4.204204
915.1627 1.701702
917.1764 1.501502
1341.2786 1.501502
1343.2939 2.402402
1344.2954 1.401401


Name: Orientin
Synon: $:00in-source
DB#: MetaboBASE0372
InChIKey: PLAPMLGJVGLZOV-VPRICQMDSA-N
Spectrum_type: MS2
PrecursorMZ: 445.0799
Instrument_type: LC-ESI-TOF
Instrument: impact HD
Ion_mode: N
Collision_energy: 10
Formula: C21H20O11
MW: 448
ExactMass: 448.10056146
Comments: "cas number=28608-75-5" "SMILES=c1cc(c(cc1c2cc(=O)c3c(cc(c(c3o2)[C@H]4[C@@H]([C@H]([C@@H]([C@H](O4)CO)O)O)O)O)O)O)O" "InChI=InChI=1S/C21H20O11/c22-6-14-17(28)18(29)19(30)21(32-14)16-11(26)4-10(25)15-12(27)5-13(31-20(15)16)7-1-2-8(23)9(24)3-7/h1-5,14,17-19,21-26,28-30H,6H2/t14-,17-,18+,19-,21+/m1/s1" "computed SMILES=O=C1C=C(OC=2C1=C(O)C=C(O)C2C3OC(CO)C(O)C(O)C3O)C=4C=CC(O)=C(O)C4" "license=License CC-BY-NC-SA 4.0 International" "author=Plant Biology, The Noble Foundation, Ardmore, OK, US/Dennis Fine, Daniel Wherritt, and Lloyd Sumner" "ionization=ESI" "isolation width=5" "collision gas=Nitrogen" "peak width=0.014" "date=2014-01-11 00:33:47+01:00" "column=Waters Acquity BEH C18 1.7um x 2.1 x 150 mm" "retention time=255.6" "raw data file=C:\Data\Confirmed Standards\14Jan10 Confirmed stds MSMS\Orientin (vial 107).d" "SPLASH=splash10-0002-0000900000-8e6d30577df9f5fc94df" "submitter=Aiko Barsch (Bruker)" "MoNA Rating=3.125"
Num Peaks: 4
445.0799 100.000000
446.0822 25.125125
447.0937 60.260260
448.0959 13.713714


Name: Orientin
Synon: $:00in-source
DB#: MetaboBASE0373
InChIKey: PLAPMLGJVGLZOV-VPRICQMDSA-N
Spectrum_type: MS2
PrecursorMZ: 445.0793
Instrument_type: LC-ESI-TOF
Instrument: impact HD
Ion_mode: N
Collision_energy: 20
Formula: C21H20O11
MW: 448
ExactMass: 448.10056146
Comments: "cas number=28608-75-5" "SMILES=c1cc(c(cc1c2cc(=O)c3c(cc(c(c3o2)[C@H]4[C@@H]([C@H]([C@@H]([C@H](O4)CO)O)O)O)O)O)O)O" "InChI=InChI=1S/C21H20O11/c22-6-14-17(28)18(29)19(30)21(32-14)16-11(26)4-10(25)15-12(27)5-13(31-20(15)16)7-1-2-8(23)9(24)3-7/h1-5,14,17-19,21-26,28-30H,6H2/t14-,17-,18+,19-,21+/m1/s1" "computed SMILES=O=C1C=C(OC=2C1=C(O)C=C(O)C2C3OC(CO)C(O)C(O)C3O)C=4C=CC(O)=C(O)C4" "license=License CC-BY-NC-SA 4.0 International" "author=Plant Biology, The Noble Foundation, Ardmore, OK, US/Dennis Fine, Daniel Wherritt, and Lloyd Sumner" "ionization=ESI" "isolation width=5" "collision gas=Nitrogen" "peak width=0.015" "date=2014-01-11 00:33:47+01:00" "column=Waters Acquity BEH C18 1.7um x 2.1 x 150 mm" "retention time=255.6" "raw data file=C:\Data\Confirmed Standards\14Jan10 Confirmed stds MSMS\Orientin (vial 107).d" "SPLASH=splash10-0002-0014900000-de11af075e5b872f5b32" "submitter=Aiko Barsch (Bruker)" "MoNA Rating=3.125"
Num Peaks: 12
297.0426 19.719720
298.0443 5.305305
325.0385 17.717718
327.0523 47.947948
328.0547 8.208208
357.0633 20.320320
369.0685 5.205205
417.0822 14.514515
445.0793 100.000000
446.0825 31.531532
447.0935 36.236236
448.0925 5.905906


Name: Orientin
Synon: $:00in-source
DB#: MetaboBASE0374
InChIKey: PLAPMLGJVGLZOV-VPRICQMDSA-N
Spectrum_type: MS2
PrecursorMZ: 445.078
Instrument_type: LC-ESI-TOF
Instrument: impact HD
Ion_mode: N
Collision_energy: 30
Formula: C21H20O11
MW: 448
ExactMass: 448.10056146
Comments: "cas number=28608-75-5" "SMILES=c1cc(c(cc1c2cc(=O)c3c(cc(c(c3o2)[C@H]4[C@@H]([C@H]([C@@H]([C@H](O4)CO)O)O)O)O)O)O)O" "InChI=InChI=1S/C21H20O11/c22-6-14-17(28)18(29)19(30)21(32-14)16-11(26)4-10(25)15-12(27)5-13(31-20(15)16)7-1-2-8(23)9(24)3-7/h1-5,14,17-19,21-26,28-30H,6H2/t14-,17-,18+,19-,21+/m1/s1" "computed SMILES=O=C1C=C(OC=2C1=C(O)C=C(O)C2C3OC(CO)C(O)C(O)C3O)C=4C=CC(O)=C(O)C4" "license=License CC-BY-NC-SA 4.0 International" "author=Plant Biology, The Noble Foundation, Ardmore, OK, US/Dennis Fine, Daniel Wherritt, and Lloyd Sumner" "ionization=ESI" "isolation width=5" "collision gas=Nitrogen" "peak width=0.016" "date=2014-01-11 00:33:47+01:00" "column=Waters Acquity BEH C18 1.7um x 2.1 x 150 mm" "retention time=255.6" "raw data file=C:\Data\Confirmed Standards\14Jan10 Confirmed stds MSMS\Orientin (vial 107).d" "SPLASH=splash10-002b-0069300000-4170d340b65f08002cea" "submitter=Aiko Barsch (Bruker)" "MoNA Rating=3.125"
Num Peaks: 14
269.0455 15.015015
297.0411 98.198198
298.0457 23.023023
299.0571 17.717718
313.0370 9.409409
325.0363 40.940941
326.0389 13.513514
327.0514 100.000000
328.0557 13.313313
357.0640 24.324324
417.0845 26.826827
418.0873 11.811812
445.0780 22.122122
446.0826 8.208208


Name: Orientin
Synon: $:00in-source
DB#: MetaboBASE0375
InChIKey: PLAPMLGJVGLZOV-VPRICQMDSA-N
Precursor_type: [M-H]-
Spectrum_type: MS2
PrecursorMZ: 447.2
Instrument_type: LC-ESI-TOF
Instrument: impact HD
Ion_mode: N
Collision_energy: 40
Formula: C21H20O11
MW: 448
ExactMass: 448.10056146
Comments: "cas number=28608-75-5" "SMILES=c1cc(c(cc1c2cc(=O)c3c(cc(c(c3o2)[C@H]4[C@@H]([C@H]([C@@H]([C@H](O4)CO)O)O)O)O)O)O)O" "InChI=InChI=1S/C21H20O11/c22-6-14-17(28)18(29)19(30)21(32-14)16-11(26)4-10(25)15-12(27)5-13(31-20(15)16)7-1-2-8(23)9(24)3-7/h1-5,14,17-19,21-26,28-30H,6H2/t14-,17-,18+,19-,21+/m1/s1" "computed SMILES=O=C1C=C(OC=2C1=C(O)C=C(O)C2C3OC(CO)C(O)C(O)C3O)C=4C=CC(O)=C(O)C4" "license=License CC-BY-NC-SA 4.0 International" "author=Plant Biology, The Noble Foundation, Ardmore, OK, US/Dennis Fine, Daniel Wherritt, and Lloyd Sumner" "ionization=ESI" "isolation width=5" "collision gas=Nitrogen" "peak width=0.014" "date=2014-01-11 00:33:47+01:00" "column=Waters Acquity BEH C18 1.7um x 2.1 x 150 mm" "retention time=255.6" "raw data file=C:\Data\Confirmed Standards\14Jan10 Confirmed stds MSMS\Orientin (vial 107).d" "computed mass accuracy=238.62822003574348" "computed mass error=0.10671453999998448" "SPLASH=splash10-0002-0093000000-c28146f9492cb714d0df" "submitter=Aiko Barsch (Bruker)" "MoNA Rating=4.545454545454546"
Num Peaks: 19
161.0226 8.908909
225.0583 6.906907
241.0517 7.707708
253.0523 9.309309
255.0357 9.009009
269.0464 43.943944
270.0514 13.713714
284.0354 16.316316
285.0428 12.412412
297.0403 100.000000
298.0472 27.427427
299.0550 18.818819
311.0499 7.407407
313.0336 10.010010
325.0369 10.010010
327.0509 54.454454
328.0551 7.507508
357.0634 12.012012
417.0865 7.407407


Name: Orientin
Synon: $:00in-source
DB#: MetaboBASE0376
InChIKey: PLAPMLGJVGLZOV-VPRICQMDSA-N
Precursor_type: [M-H]-
Spectrum_type: MS2
PrecursorMZ: 447.2
Instrument_type: LC-ESI-TOF
Instrument: impact HD
Ion_mode: N
Collision_energy: 50
Formula: C21H20O11
MW: 448
ExactMass: 448.10056146
Comments: "cas number=28608-75-5" "SMILES=c1cc(c(cc1c2cc(=O)c3c(cc(c(c3o2)[C@H]4[C@@H]([C@H]([C@@H]([C@H](O4)CO)O)O)O)O)O)O)O" "InChI=InChI=1S/C21H20O11/c22-6-14-17(28)18(29)19(30)21(32-14)16-11(26)4-10(25)15-12(27)5-13(31-20(15)16)7-1-2-8(23)9(24)3-7/h1-5,14,17-19,21-26,28-30H,6H2/t14-,17-,18+,19-,21+/m1/s1" "computed SMILES=O=C1C=C(OC=2C1=C(O)C=C(O)C2C3OC(CO)C(O)C(O)C3O)C=4C=CC(O)=C(O)C4" "license=License CC-BY-NC-SA 4.0 International" "author=Plant Biology, The Noble Foundation, Ardmore, OK, US/Dennis Fine, Daniel Wherritt, and Lloyd Sumner" "ionization=ESI" "isolation width=5" "collision gas=Nitrogen" "peak width=0.015" "date=2014-01-11 00:33:47+01:00" "column=Waters Acquity BEH C18 1.7um x 2.1 x 150 mm" "retention time=255.6" "raw data file=C:\Data\Confirmed Standards\14Jan10 Confirmed stds MSMS\Orientin (vial 107).d" "computed mass accuracy=238.62822003574348" "computed mass error=0.10671453999998448" "SPLASH=splash10-00kb-0090000000-9f29188d1544babad879" "submitter=Aiko Barsch (Bruker)" "MoNA Rating=4.545454545454546"
Num Peaks: 12
133.0292 20.320320
225.0559 23.223223
227.0369 18.918919
268.0377 17.117117
269.0458 100.000000
270.0498 41.141141
284.0328 24.024024
285.0411 27.227227
297.0423 52.352352
298.0465 46.746747
299.0552 41.141141
327.0503 23.223223


Name: Orientin
Synon: $:00in-source
DB#: MetaboBASE0377
InChIKey: PLAPMLGJVGLZOV-VPRICQMDSA-N
Instrument_type: LC-ESI-TOF
Instrument: impact HD
Ion_mode: N
Formula: C21H20O11
MW: 448
ExactMass: 448.10056146
Comments: "cas number=28608-75-5" "SMILES=c1cc(c(cc1c2cc(=O)c3c(cc(c(c3o2)[C@H]4[C@@H]([C@H]([C@@H]([C@H](O4)CO)O)O)O)O)O)O)O" "InChI=InChI=1S/C21H20O11/c22-6-14-17(28)18(29)19(30)21(32-14)16-11(26)4-10(25)15-12(27)5-13(31-20(15)16)7-1-2-8(23)9(24)3-7/h1-5,14,17-19,21-26,28-30H,6H2/t14-,17-,18+,19-,21+/m1/s1" "computed SMILES=O=C1C=C(OC=2C1=C(O)C=C(O)C2C3OC(CO)C(O)C(O)C3O)C=4C=CC(O)=C(O)C4" "license=License CC-BY-NC-SA 4.0 International" "author=Plant Biology, The Noble Foundation, Ardmore, OK, US/Dennis Fine, Daniel Wherritt, and Lloyd Sumner" "ionization=ESI" "collision gas=Nitrogen" "peak width=0.014" "date=2014-01-11 00:33:47+01:00" "column=Waters Acquity BEH C18 1.7um x 2.1 x 150 mm" "retention time=255.6" "raw data file=C:\Data\Confirmed Standards\14Jan10 Confirmed stds MSMS\Orientin (vial 107).d" "SPLASH=splash10-0002-0000900030-0430273dac7d2efd03d8" "submitter=Aiko Barsch (Bruker)" "MoNA Rating=3.888888888888889"
Num Peaks: 16
445.0793 86.786787
446.0821 13.913914
447.0946 100.000000
448.0977 17.017017
449.0996 2.402402
463.0893 10.510511
464.0917 2.102102
493.0988 4.204204
515.0829 3.403403
891.1636 4.804805
893.1801 37.837838
894.1829 15.215215
895.1937 22.122122
896.1979 6.706707
915.1600 2.002002
1341.2791 2.302302


Name: Myricetin
Synon: $:00in-source
DB#: MetaboBASE0378
InChIKey: IKMDFBPHZNJCSN-UHFFFAOYSA-N
Instrument_type: LC-ESI-TOF
Instrument: impact HD
Ion_mode: N
Collision_energy: 10
Formula: C15H10O8
MW: 318
ExactMass: 318.03756728
Comments: "cas number=529-44-2" "SMILES=c1c(cc(c(c1O)O)O)c2c(c(=O)c3c(cc(cc3o2)O)O)O" "InChI=InChI=1S/C15H10O8/c16-6-3-7(17)11-10(4-6)23-15(14(22)13(11)21)5-1-8(18)12(20)9(19)2-5/h1-4,16-20,22H" "computed SMILES=O=C1C(O)=C(OC=2C=C(O)C=C(O)C12)C=3C=C(O)C(O)=C(O)C3" "license=License CC-BY-NC-SA 4.0 International" "author=Plant Biology, The Noble Foundation, Ardmore, OK, US/Dennis Fine, Daniel Wherritt, and Lloyd Sumner" "ionization=ESI" "collision gas=Nitrogen" "peak width=0.022" "date=2013-11-12 01:02:36+01:00" "column=Waters Acquity BEH C18 1.7um x 2.1 x 150 mm" "retention time=364.2" "raw data file=C:\Data\Confirmed Standards\Confirmed std 11Nov13\Myricetin (Vial 118).d" "SPLASH=splash10-014i-0009000000-bdbe61e1aba659fd27d2" "submitter=Aiko Barsch (Bruker)" "MoNA Rating=4.444444444444445"
Num Peaks: 12
151.0044 2.402402
178.9992 3.503504
287.0184 6.306306
315.0136 100.000000
316.0166 13.813814
317.0272 8.008008
318.0310 1.201201
333.0238 1.501502
351.0338 2.002002
631.0364 1.601602
665.0412 2.802803
681.0372 1.401401


Name: Myricetin
Synon: $:00in-source
DB#: MetaboBASE0379
InChIKey: IKMDFBPHZNJCSN-UHFFFAOYSA-N
Spectrum_type: MS2
PrecursorMZ: 315.012
Instrument_type: LC-ESI-TOF
Instrument: impact HD
Ion_mode: N
Collision_energy: 10
Formula: C15H10O8
MW: 318
ExactMass: 318.03756727999996
Comments: "cas number=529-44-2" "SMILES=c1c(cc(c(c1O)O)O)c2c(c(=O)c3c(cc(cc3o2)O)O)O" "InChI=InChI=1S/C15H10O8/c16-6-3-7(17)11-10(4-6)23-15(14(22)13(11)21)5-1-8(18)12(20)9(19)2-5/h1-4,16-20,22H" "computed SMILES=O=C1C(O)=C(OC=2C=C(O)C=C(O)C12)C=3C=C(O)C(O)=C(O)C3" "license=License CC-BY-NC-SA 4.0 International" "author=Plant Biology, The Noble Foundation, Ardmore, OK, US/Dennis Fine, Daniel Wherritt, and Lloyd Sumner" "ionization=ESI" "isolation width=5" "collision gas=Nitrogen" "peak width=0.018" "date=2014-01-11 01:14:31+01:00" "column=Waters Acquity BEH C18 1.7um x 2.1 x 150 mm" "retention time=364.2" "raw data file=C:\Data\Confirmed Standards\14Jan10 Confirmed stds MSMS\Myricetin (Vial 118).d" "SPLASH=splash10-014i-0009000000-35024ff951cd0ca242e4" "submitter=Aiko Barsch (Bruker)" "MoNA Rating=3.125"
Num Peaks: 4
287.0161 17.517518
315.0120 100.000000
316.0151 25.825826
317.0264 49.449449


Name: Myricetin
Synon: $:00in-source
DB#: MetaboBASE0380
InChIKey: IKMDFBPHZNJCSN-UHFFFAOYSA-N
Spectrum_type: MS2
PrecursorMZ: 315.0134
Instrument_type: LC-ESI-TOF
Instrument: impact HD
Ion_mode: N
Collision_energy: 20
Formula: C15H10O8
MW: 318
ExactMass: 318.03756727999996
Comments: "cas number=529-44-2" "SMILES=c1c(cc(c(c1O)O)O)c2c(c(=O)c3c(cc(cc3o2)O)O)O" "InChI=InChI=1S/C15H10O8/c16-6-3-7(17)11-10(4-6)23-15(14(22)13(11)21)5-1-8(18)12(20)9(19)2-5/h1-4,16-20,22H" "computed SMILES=O=C1C(O)=C(OC=2C=C(O)C=C(O)C12)C=3C=C(O)C(O)=C(O)C3" "license=License CC-BY-NC-SA 4.0 International" "author=Plant Biology, The Noble Foundation, Ardmore, OK, US/Dennis Fine, Daniel Wherritt, and Lloyd Sumner" "ionization=ESI" "isolation width=5" "collision gas=Nitrogen" "peak width=0.018" "date=2014-01-11 01:14:31+01:00" "column=Waters Acquity BEH C18 1.7um x 2.1 x 150 mm" "retention time=364.2" "raw data file=C:\Data\Confirmed Standards\14Jan10 Confirmed stds MSMS\Myricetin (Vial 118).d" "SPLASH=splash10-014r-0079000000-b798a1be942ffa6396d2" "submitter=Aiko Barsch (Bruker)" "MoNA Rating=3.125"
Num Peaks: 6
287.0176 100.000000
288.0219 26.726727
315.0134 64.064064
316.0163 15.915916
317.0273 49.949950
318.0326 15.015015


Name: Myricetin
Synon: $:00in-source
DB#: MetaboBASE0381
InChIKey: IKMDFBPHZNJCSN-UHFFFAOYSA-N
Instrument_type: LC-ESI-TOF
Instrument: impact HD
Ion_mode: N
Formula: C15H10O8
MW: 318
ExactMass: 318.03756727999996
Comments: "cas number=529-44-2" "SMILES=c1c(cc(c(c1O)O)O)c2c(c(=O)c3c(cc(cc3o2)O)O)O" "InChI=InChI=1S/C15H10O8/c16-6-3-7(17)11-10(4-6)23-15(14(22)13(11)21)5-1-8(18)12(20)9(19)2-5/h1-4,16-20,22H" "computed SMILES=O=C1C(O)=C(OC=2C=C(O)C=C(O)C12)C=3C=C(O)C(O)=C(O)C3" "license=License CC-BY-NC-SA 4.0 International" "author=Plant Biology, The Noble Foundation, Ardmore, OK, US/Dennis Fine, Daniel Wherritt, and Lloyd Sumner" "ionization=ESI" "collision gas=Nitrogen" "peak width=0.013" "date=2014-01-11 01:14:31+01:00" "column=Waters Acquity BEH C18 1.7um x 2.1 x 150 mm" "retention time=364.2" "raw data file=C:\Data\Confirmed Standards\14Jan10 Confirmed stds MSMS\Myricetin (Vial 118).d" "SPLASH=splash10-014i-0009000000-2499e01afe3b3651b392" "submitter=Aiko Barsch (Bruker)" "MoNA Rating=3.888888888888889"
Num Peaks: 10
315.0132 100.000000
316.0163 12.912913
317.0280 19.519520
318.0309 3.003003
333.0239 3.103103
351.0338 4.204204
631.0319 2.102102
633.0481 4.104104
649.0436 2.202202
666.0238 2.302302


Name: Naringin
Synon: $:00in-source
DB#: MetaboBASE0382
InChIKey: DFPMSGMNTNDNHN-ZPHOTFPESA-N
Instrument_type: LC-ESI-TOF
Instrument: impact HD
Ion_mode: N
Collision_energy: 10
Formula: C27H32O14
MW: 580
ExactMass: 580.179205704
Comments: "cas number=10236-47-2" "SMILES=C[C@H]1[C@@H]([C@H]([C@H]([C@@H](O1)O[C@@H]2[C@H]([C@@H]([C@H](O[C@H]2Oc3cc(c4c(c3)O[C@@H](CC4=O)c5ccc(cc5)O)O)CO)O)O)O)O)O" "InChI=InChI=1S/C27H32O14/c1-10-20(32)22(34)24(36)26(37-10)41-25-23(35)21(33)18(9-28)40-27(25)38-13-6-14(30)19-15(31)8-16(39-17(19)7-13)11-2-4-12(29)5-3-11/h2-7,10,16,18,20-30,32-36H,8-9H2,1H3/t10-,16-,18+,20-,21+,22+,23-,24+,25+,26-,27+/m0/s1" "computed SMILES=O=C1C2=C(O)C=C(OC3OC(CO)C(O)C(O)C3OC4OC(C)C(O)C(O)C4O)C=C2OC(C5=CC=C(O)C=C5)C1" "license=License CC-BY-NC-SA 4.0 International" "author=Plant Biology, The Noble Foundation, Ardmore, OK, US/Dennis Fine, Daniel Wherritt, and Lloyd Sumner" "ionization=ESI" "collision gas=Nitrogen" "peak width=0.017" "date=2013-11-12 19:07:40+01:00" "column=Waters Acquity BEH C18 1.7um x 2.1 x 150 mm" "retention time=393.6" "raw data file=C:\Data\Confirmed Standards\Confirmed std 11Nov13\ZLei_Std_Mix_30_Oct_13_1966.d" "SPLASH=splash10-004i-0100090000-0c16a31fd116a04809ff" "submitter=Aiko Barsch (Bruker)" "MoNA Rating=4.444444444444445"
Num Peaks: 10
579.1730 100.000000
580.1763 25.325325
581.1788 5.005005
647.1602 3.603604
1159.3580 9.409409
1159.8583 1.601602
1160.3617 6.006006
1161.3646 1.701702
1449.9515 1.301301
1450.4536 1.101101


Name: Naringin
Synon: $:00in-source
DB#: MetaboBASE0383
InChIKey: DFPMSGMNTNDNHN-ZPHOTFPESA-N
Precursor_type: [M-H]-
Spectrum_type: MS2
PrecursorMZ: 579.1739
Instrument_type: LC-ESI-TOF
Instrument: impact HD
Ion_mode: N
Collision_energy: 40
Formula: C27H32O14
MW: 580
ExactMass: 580.179205704
Comments: "cas number=10236-47-2" "SMILES=C[C@H]1[C@@H]([C@H]([C@H]([C@@H](O1)O[C@@H]2[C@H]([C@@H]([C@H](O[C@H]2Oc3cc(c4c(c3)O[C@@H](CC4=O)c5ccc(cc5)O)O)CO)O)O)O)O)O" "InChI=InChI=1S/C27H32O14/c1-10-20(32)22(34)24(36)26(37-10)41-25-23(35)21(33)18(9-28)40-27(25)38-13-6-14(30)19-15(31)8-16(39-17(19)7-13)11-2-4-12(29)5-3-11/h2-7,10,16,18,20-30,32-36H,8-9H2,1H3/t10-,16-,18+,20-,21+,22+,23-,24+,25+,26-,27+/m0/s1" "computed SMILES=O=C1C2=C(O)C=C(OC3OC(CO)C(O)C(O)C3OC4OC(C)C(O)C(O)C4O)C=C2OC(C5=CC=C(O)C=C5)C1" "license=License CC-BY-NC-SA 4.0 International" "author=Plant Biology, The Noble Foundation, Ardmore, OK, US/Dennis Fine, Daniel Wherritt, and Lloyd Sumner" "ionization=ESI" "isolation width=5" "collision gas=Nitrogen" "peak width=0.014" "date=2014-08-14 17:27:45+02:00" "column=Waters Acquity BEH C18 1.7um x 2.1 x 150 mm" "retention time=393.6" "raw data file=G:\Sumner Lab Data Management Workspace Jun2013\Projects\NSF-JST Metabolomics Nov2011-Sep2014\UPLC-MS-MSMS\Confirmed standards 24_July_2014\MSMS\Z Lei std 24July2014 new col_1-F,8_01_616.d" "computed mass accuracy=3.401907441066253" "computed mass error=0.001970296000081362" "SPLASH=splash10-00di-0290110000-a72cef11c1816469a269" "submitter=Aiko Barsch (Bruker)" "MoNA Rating=4.583333333333334"
Num Peaks: 73
107.0141 0.200200
117.0351 0.100100
119.0505 2.202202
125.0246 0.900901
145.0294 1.301301
151.0043 23.823824
152.0072 1.201201
164.0123 0.300300
165.0189 0.500501
169.0144 0.200200
175.0037 0.700701
177.0192 1.701702
187.0399 0.100100
193.0143 0.800801
205.0148 0.300300
209.0452 0.100100
217.0148 0.200200
227.0713 0.700701
229.0511 0.100100
235.0249 3.503504
236.0293 0.300300
253.0358 0.600601
270.0535 0.900901
271.0626 100.000000
272.0651 9.409409
273.0669 0.500501
277.0354 0.200200
279.0539 0.100100
285.0765 0.100100
295.0498 1.001001
296.0497 0.100100
296.0642 0.100100
297.0608 0.200200
313.0722 3.503504
314.0756 0.600601
325.0721 0.200200
337.0753 0.100100
339.0719 3.303303
340.0760 0.400400
343.0819 0.200200
355.0851 0.200200
357.0850 0.300300
373.0937 0.700701
374.0963 0.200200
415.1025 0.700701
416.1090 0.100100
417.1189 0.200200
433.1347 0.400400
434.1358 0.100100
441.1069 0.500501
459.1165 20.120120
460.1189 2.702703
461.1226 0.300300
473.1291 0.100100
579.1739 17.217217
579.2422 0.200200
580.1773 3.503504
581.1802 0.400400
1153.4397 0.100100
1175.2788 0.100100
1199.2869 0.100100
1258.2468 0.100100
1296.6453 0.100100
1299.2772 0.100100
1328.5790 0.100100
1339.4436 0.100100
1379.0286 0.100100
1393.4818 0.100100
1445.5968 0.100100
1449.5723 0.100100
1466.5427 0.100100
1477.7020 0.100100
1486.4153 0.100100


Name: Naringin
Synon: $:00in-source
DB#: MetaboBASE0384
InChIKey: DFPMSGMNTNDNHN-ZPHOTFPESA-N
Precursor_type: [M-H]-
Spectrum_type: MS2
PrecursorMZ: 579.1754
Instrument_type: LC-ESI-TOF
Instrument: impact HD
Ion_mode: N
Collision_energy: 10
Formula: C27H32O14
MW: 580
ExactMass: 580.179205704
Comments: "cas number=10236-47-2" "SMILES=C[C@H]1[C@@H]([C@H]([C@H]([C@@H](O1)O[C@@H]2[C@H]([C@@H]([C@H](O[C@H]2Oc3cc(c4c(c3)O[C@@H](CC4=O)c5ccc(cc5)O)O)CO)O)O)O)O)O" "InChI=InChI=1S/C27H32O14/c1-10-20(32)22(34)24(36)26(37-10)41-25-23(35)21(33)18(9-28)40-27(25)38-13-6-14(30)19-15(31)8-16(39-17(19)7-13)11-2-4-12(29)5-3-11/h2-7,10,16,18,20-30,32-36H,8-9H2,1H3/t10-,16-,18+,20-,21+,22+,23-,24+,25+,26-,27+/m0/s1" "computed SMILES=O=C1C2=C(O)C=C(OC3OC(CO)C(O)C(O)C3OC4OC(C)C(O)C(O)C4O)C=C2OC(C5=CC=C(O)C=C5)C1" "license=License CC-BY-NC-SA 4.0 International" "author=Plant Biology, The Noble Foundation, Ardmore, OK, US/Dennis Fine, Daniel Wherritt, and Lloyd Sumner" "ionization=ESI" "isolation width=5" "collision gas=Nitrogen" "peak width=0.011" "date=2014-08-14 17:27:45+02:00" "column=Waters Acquity BEH C18 1.7um x 2.1 x 150 mm" "retention time=393.6" "raw data file=G:\Sumner Lab Data Management Workspace Jun2013\Projects\NSF-JST Metabolomics Nov2011-Sep2014\UPLC-MS-MSMS\Confirmed standards 24_July_2014\MSMS\Z Lei std 24July2014 new col_1-F,8_01_616.d" "computed mass accuracy=5.991787634705983" "computed mass error=0.0034702960000458916" "SPLASH=splash10-004i-0000090000-4498c4e102c3c7d3d514" "submitter=Aiko Barsch (Bruker)" "MoNA Rating=4.545454545454546"
Num Peaks: 5
579.1754 100.000000
579.9358 0.400400
580.1783 18.018018
581.1795 1.701702
582.1794 0.200200


Name: Naringin
Synon: $:00in-source
DB#: MetaboBASE0385
InChIKey: DFPMSGMNTNDNHN-ZPHOTFPESA-N
Precursor_type: [M-H]-
Spectrum_type: MS2
PrecursorMZ: 579.1754
Instrument_type: LC-ESI-TOF
Instrument: impact HD
Ion_mode: N
Collision_energy: 20
Formula: C27H32O14
MW: 580
ExactMass: 580.179205704
Comments: "cas number=10236-47-2" "SMILES=C[C@H]1[C@@H]([C@H]([C@H]([C@@H](O1)O[C@@H]2[C@H]([C@@H]([C@H](O[C@H]2Oc3cc(c4c(c3)O[C@@H](CC4=O)c5ccc(cc5)O)O)CO)O)O)O)O)O" "InChI=InChI=1S/C27H32O14/c1-10-20(32)22(34)24(36)26(37-10)41-25-23(35)21(33)18(9-28)40-27(25)38-13-6-14(30)19-15(31)8-16(39-17(19)7-13)11-2-4-12(29)5-3-11/h2-7,10,16,18,20-30,32-36H,8-9H2,1H3/t10-,16-,18+,20-,21+,22+,23-,24+,25+,26-,27+/m0/s1" "computed SMILES=O=C1C2=C(O)C=C(OC3OC(CO)C(O)C(O)C3OC4OC(C)C(O)C(O)C4O)C=C2OC(C5=CC=C(O)C=C5)C1" "license=License CC-BY-NC-SA 4.0 International" "author=Plant Biology, The Noble Foundation, Ardmore, OK, US/Dennis Fine, Daniel Wherritt, and Lloyd Sumner" "ionization=ESI" "isolation width=5" "collision gas=Nitrogen" "peak width=0.017" "date=2014-08-14 17:27:45+02:00" "column=Waters Acquity BEH C18 1.7um x 2.1 x 150 mm" "retention time=393.6" "raw data file=G:\Sumner Lab Data Management Workspace Jun2013\Projects\NSF-JST Metabolomics Nov2011-Sep2014\UPLC-MS-MSMS\Confirmed standards 24_July_2014\MSMS\Z Lei std 24July2014 new col_1-F,8_01_616.d" "computed mass accuracy=5.991787634705983" "computed mass error=0.0034702960000458916" "SPLASH=splash10-004i-0000090000-d6285c4e4374990ed161" "submitter=Aiko Barsch (Bruker)" "MoNA Rating=4.545454545454546"
Num Peaks: 13
271.0613 1.601602
272.0651 0.100100
313.0711 0.200200
373.0941 0.200200
459.1164 2.802803
460.1222 0.400400
579.1754 100.000000
579.2759 0.100100
579.2943 0.100100
579.9358 0.400400
580.1785 17.517518
581.1799 1.701702
582.1823 0.200200


Name: Naringin
Synon: $:00in-source
DB#: MetaboBASE0386
InChIKey: DFPMSGMNTNDNHN-ZPHOTFPESA-N
Precursor_type: [M-H]-
Spectrum_type: MS2
PrecursorMZ: 579.1752
Instrument_type: LC-ESI-TOF
Instrument: impact HD
Ion_mode: N
Collision_energy: 30
Formula: C27H32O14
MW: 580
ExactMass: 580.179205704
Comments: "cas number=10236-47-2" "SMILES=C[C@H]1[C@@H]([C@H]([C@H]([C@@H](O1)O[C@@H]2[C@H]([C@@H]([C@H](O[C@H]2Oc3cc(c4c(c3)O[C@@H](CC4=O)c5ccc(cc5)O)O)CO)O)O)O)O)O" "InChI=InChI=1S/C27H32O14/c1-10-20(32)22(34)24(36)26(37-10)41-25-23(35)21(33)18(9-28)40-27(25)38-13-6-14(30)19-15(31)8-16(39-17(19)7-13)11-2-4-12(29)5-3-11/h2-7,10,16,18,20-30,32-36H,8-9H2,1H3/t10-,16-,18+,20-,21+,22+,23-,24+,25+,26-,27+/m0/s1" "computed SMILES=O=C1C2=C(O)C=C(OC3OC(CO)C(O)C(O)C3OC4OC(C)C(O)C(O)C4O)C=C2OC(C5=CC=C(O)C=C5)C1" "license=License CC-BY-NC-SA 4.0 International" "author=Plant Biology, The Noble Foundation, Ardmore, OK, US/Dennis Fine, Daniel Wherritt, and Lloyd Sumner" "ionization=ESI" "isolation width=5" "collision gas=Nitrogen" "peak width=0.015" "date=2014-08-14 17:27:45+02:00" "column=Waters Acquity BEH C18 1.7um x 2.1 x 150 mm" "retention time=393.6" "raw data file=G:\Sumner Lab Data Management Workspace Jun2013\Projects\NSF-JST Metabolomics Nov2011-Sep2014\UPLC-MS-MSMS\Confirmed standards 24_July_2014\MSMS\Z Lei std 24July2014 new col_1-F,8_01_616.d" "computed mass accuracy=5.646471050721949" "computed mass error=0.0032702960000960957" "SPLASH=splash10-004i-0030290000-06238e4a98a4daad3265" "submitter=Aiko Barsch (Bruker)" "MoNA Rating=4.545454545454546"
Num Peaks: 46
119.0499 0.100100
145.0295 0.600601
151.0036 2.602603
152.0064 0.200200
177.0205 0.400400
193.0137 0.300300
235.0251 1.601602
236.0267 0.100100
253.0355 0.400400
270.0526 0.100100
271.0624 34.334334
272.0654 3.403403
273.0674 0.200200
277.0372 0.100100
295.0613 0.400400
297.0627 0.100100
313.0727 2.502503
314.0757 0.300300
339.0724 1.301301
340.0763 0.100100
343.0842 0.200200
355.0815 0.100100
357.0862 0.200200
373.0928 1.301301
374.0988 0.200200
397.0935 0.100100
415.1032 0.400400
416.1054 0.100100
417.1212 0.300300
433.1316 0.700701
434.1375 0.100100
441.1028 0.400400
459.1174 29.129129
460.1197 3.903904
461.1219 0.400400
473.1287 0.200200
477.1260 0.100100
561.1574 0.100100
579.1752 100.000000
579.2946 0.200200
580.1780 18.318318
580.2530 0.100100
581.1780 1.801802
582.1780 0.200200
1467.1993 0.100100
1492.4894 0.100100


Name: Naringin
Synon: $:00in-source
DB#: MetaboBASE0387
InChIKey: DFPMSGMNTNDNHN-ZPHOTFPESA-N
Precursor_type: [M-H]-
Spectrum_type: MS2
PrecursorMZ: 579.1715
Instrument_type: LC-ESI-TOF
Instrument: impact HD
Ion_mode: N
Collision_energy: 50
Formula: C27H32O14
MW: 580
ExactMass: 580.179205704
Comments: "cas number=10236-47-2" "SMILES=C[C@H]1[C@@H]([C@H]([C@H]([C@@H](O1)O[C@@H]2[C@H]([C@@H]([C@H](O[C@H]2Oc3cc(c4c(c3)O[C@@H](CC4=O)c5ccc(cc5)O)O)CO)O)O)O)O)O" "InChI=InChI=1S/C27H32O14/c1-10-20(32)22(34)24(36)26(37-10)41-25-23(35)21(33)18(9-28)40-27(25)38-13-6-14(30)19-15(31)8-16(39-17(19)7-13)11-2-4-12(29)5-3-11/h2-7,10,16,18,20-30,32-36H,8-9H2,1H3/t10-,16-,18+,20-,21+,22+,23-,24+,25+,26-,27+/m0/s1" "computed SMILES=O=C1C2=C(O)C=C(OC3OC(CO)C(O)C(O)C3OC4OC(C)C(O)C(O)C4O)C=C2OC(C5=CC=C(O)C=C5)C1" "license=License CC-BY-NC-SA 4.0 International" "author=Plant Biology, The Noble Foundation, Ardmore, OK, US/Dennis Fine, Daniel Wherritt, and Lloyd Sumner" "ionization=ESI" "isolation width=5" "collision gas=Nitrogen" "peak width=0.015" "date=2014-08-14 17:27:45+02:00" "column=Waters Acquity BEH C18 1.7um x 2.1 x 150 mm" "retention time=393.6" "raw data file=G:\Sumner Lab Data Management Workspace Jun2013\Projects\NSF-JST Metabolomics Nov2011-Sep2014\UPLC-MS-MSMS\Confirmed standards 24_July_2014\MSMS\Z Lei std 24July2014 new col_1-F,8_01_616.d" "computed mass accuracy=0.7419287721937682" "computed mass error=-4.2970399988462304E-4" "SPLASH=splash10-0fk9-0690000000-3d8f024f57318d3dbca8" "submitter=Aiko Barsch (Bruker)" "MoNA Rating=4.615384615384616"
Num Peaks: 187
107.0134 1.101101
108.0201 0.100100
117.0336 0.200200
119.0504 10.810811
120.0535 0.700701
121.0279 0.100100
122.0005 0.100100
125.0243 1.801802
135.0092 0.100100
136.0160 0.300300
137.0231 0.100100
143.0495 0.300300
145.0289 1.401401
146.0328 0.200200
149.0243 0.300300
151.0043 56.756757
152.0070 2.802803
153.0115 0.200200
161.0612 0.200200
164.0117 1.301301
165.0195 1.501502
166.0225 0.100100
167.0347 0.100100
169.0139 0.500501
175.0032 1.001001
177.0193 2.902903
178.0214 0.200200
179.0354 0.200200
185.0612 0.300300
187.0395 0.700701
192.0067 0.100100
193.0151 1.101101
196.0019 0.300300
203.0699 0.200200
205.0147 0.300300
217.0139 0.200200
219.0289 0.100100
227.0713 3.003003
228.0753 0.300300
229.0504 0.700701
235.0242 1.301301
236.0287 0.200200
241.0515 0.300300
242.0573 0.400400
253.0498 0.500501
269.0458 0.500501
270.0536 1.401401
271.0624 100.000000
271.1261 0.100100
272.0651 9.809810
273.0661 0.500501
279.0514 0.200200
285.0760 0.200200
295.0505 1.101101
296.0524 0.200200
296.0637 0.200200
313.0720 1.901902
314.0771 0.200200
325.0731 0.200200
339.0734 1.301301
340.0761 0.200200
357.0804 0.100100
373.1008 0.100100
415.1038 0.300300
459.1158 2.602603
460.1179 0.400400
579.1715 1.001001
580.1762 0.300300
782.1291 0.100100
789.9318 0.100100
800.3157 0.100100
850.9770 0.100100
863.2272 0.100100
868.8716 0.100100
871.9965 0.100100
879.6031 0.100100
900.0693 0.100100
913.9376 0.100100
915.4836 0.100100
940.1995 0.100100
941.2250 0.100100
957.1874 0.100100
957.8309 0.100100
958.9014 0.100100
959.3065 0.100100
991.9713 0.100100
994.5385 0.100100
995.6136 0.100100
1002.2197 0.100100
1002.4894 0.100100
1025.4741 0.100100
1025.8416 0.100100
1028.8911 0.100100
1036.8975 0.100100
1044.9510 0.100100
1056.8539 0.100100
1064.8083 0.100100
1071.8682 0.100100
1076.0364 0.100100
1077.1783 0.100100
1084.6963 0.100100
1085.3846 0.100100
1087.6232 0.100100
1103.4268 0.100100
1118.6722 0.100100
1122.6558 0.100100
1124.7528 0.100100
1125.8964 0.100100
1133.1641 0.100100
1139.6268 0.100100
1145.3413 0.100100
1156.5573 0.100100
1160.9348 0.100100
1165.2013 0.100100
1166.0261 0.100100
1175.3248 0.100100
1178.4623 0.100100
1181.7534 0.100100
1194.0723 0.100100
1196.1169 0.100100
1197.3950 0.100100
1199.8365 0.100100
1202.5638 0.100100
1204.6385 0.100100
1228.5358 0.100100
1230.7377 0.100100
1238.5813 0.100100
1240.1929 0.100100
1240.6609 0.100100
1246.9216 0.100100
1247.6505 0.100100
1248.8585 0.100100
1260.4330 0.100100
1277.6045 0.100100
1279.6672 0.100100
1285.2350 0.100100
1293.5518 0.100100
1293.7548 0.100100
1295.7120 0.100100
1305.4977 0.100100
1305.6060 0.100100
1308.8375 0.100100
1310.6285 0.100100
1321.5615 0.100100
1324.5803 0.100100
1325.9583 0.100100
1332.0101 0.100100
1336.9921 0.100100
1349.9620 0.100100
1350.2103 0.100100
1354.2113 0.100100
1356.3584 0.100100
1357.3281 0.100100
1359.5999 0.100100
1367.7003 0.100100
1369.6188 0.100100
1370.0911 0.100100
1374.2357 0.100100
1375.8297 0.100100
1376.7162 0.100100
1384.4718 0.100100
1390.3735 0.100100
1393.6578 0.100100
1400.2952 0.100100
1406.0994 0.100100
1424.2211 0.100100
1424.4563 0.100100
1427.9285 0.100100
1432.7323 0.100100
1434.6759 0.100100
1436.9597 0.100100
1456.5734 0.100100
1458.5674 0.100100
1460.3053 0.100100
1468.4100 0.100100
1472.4905 0.100100
1476.6732 0.100100
1478.8058 0.100100
1481.7429 0.100100
1486.1101 0.100100
1488.2666 0.100100
1497.5360 0.100100
1498.7378 0.100100
1501.3179 0.100100
1501.5648 0.100100
1501.7067 0.100100
1502.5127 0.100100


Name: Quercetin
Synon: $:00in-source
DB#: MetaboBASE0388
InChIKey: REFJWTPEDVJJIY-UHFFFAOYSA-N
Spectrum_type: MS2
PrecursorMZ: 271.0616
Instrument_type: LC-ESI-TOF
Instrument: impact HD
Ion_mode: N
Collision_energy: 10
Formula: C15H10O7
MW: 302
ExactMass: 302.04265266
Comments: "cas number=117-39-5" "SMILES=c1cc(c(cc1c2c(c(=O)c3c(cc(cc3o2)O)O)O)O)O" "InChI=InChI=1S/C15H10O7/c16-7-4-10(19)12-11(5-7)22-15(14(21)13(12)20)6-1-2-8(17)9(18)3-6/h1-5,16-19,21H" "computed SMILES=O=C1C(O)=C(OC=2C=C(O)C=C(O)C12)C=3C=CC(O)=C(O)C3" "license=License CC-BY-NC-SA 4.0 International" "author=Plant Biology, The Noble Foundation, Ardmore, OK, US/Dennis Fine, Daniel Wherritt, and Lloyd Sumner" "ionization=ESI" "isolation width=5" "collision gas=Nitrogen" "peak width=0.0095" "date=2014-01-10 01:46:02+01:00" "column=Waters Acquity BEH C18 1.7um x 2.1 x 150 mm" "retention time=483.6" "raw data file=C:\Data\Confirmed Standards\14Jan9 Confirmed stds MSMS\Quercetin (vial 6).d" "SPLASH=splash10-00di-0090000000-6e7d9bd766aeac1e8423" "submitter=Aiko Barsch (Bruker)" "MoNA Rating=2.7777777777777777"
Num Peaks: 2
271.0616 100.000000
272.0646 9.109109


Name: Quercetin
Synon: $:00in-source
DB#: MetaboBASE0389
InChIKey: REFJWTPEDVJJIY-UHFFFAOYSA-N
Instrument_type: LC-ESI-TOF
Instrument: impact HD
Ion_mode: N
Formula: C15H10O7
MW: 302
ExactMass: 302.04265266
Comments: "cas number=117-39-5" "SMILES=c1cc(c(cc1c2c(c(=O)c3c(cc(cc3o2)O)O)O)O)O" "InChI=InChI=1S/C15H10O7/c16-7-4-10(19)12-11(5-7)22-15(14(21)13(12)20)6-1-2-8(17)9(18)3-6/h1-5,16-19,21H" "computed SMILES=O=C1C(O)=C(OC=2C=C(O)C=C(O)C12)C=3C=CC(O)=C(O)C3" "license=License CC-BY-NC-SA 4.0 International" "author=Plant Biology, The Noble Foundation, Ardmore, OK, US/Dennis Fine, Daniel Wherritt, and Lloyd Sumner" "ionization=ESI" "collision gas=Nitrogen" "peak width=0.016" "date=2014-08-14 17:27:45+02:00" "column=Waters Acquity BEH C18 1.7um x 2.1 x 150 mm" "retention time=483.6" "raw data file=C:\Data\Confirmed standards 24_July_2014\MSMS\Z Lei std 24July2014 new col_1-F,8_01_616.d" "SPLASH=splash10-0udi-0039008002-9df3edfb34deb15f8474" "submitter=Aiko Barsch (Bruker)" "MoNA Rating=3.888888888888889"
Num Peaks: 71
116.9285 1.701702
178.9985 1.101101
299.0211 50.550551
300.0252 9.109109
301.0373 100.000000
302.0405 17.017017
303.0418 3.103103
317.0314 9.309309
318.0346 1.401401
369.0250 1.601602
399.9559 1.801802
400.9596 2.602603
418.9722 2.002002
430.9932 1.401401
440.9489 1.101101
445.9615 3.703704
446.9684 1.001001
452.9773 1.501502
481.0403 1.101101
556.0021 3.203203
601.0651 13.113113
602.0694 4.904905
603.0815 25.025025
604.0843 18.018018
605.0864 4.804805
617.0546 1.201201
619.0745 5.305305
620.0822 2.202202
621.0292 1.301301
623.0482 6.206206
624.0521 2.402402
625.0631 6.506507
626.0657 2.502503
639.0469 1.701702
641.0599 2.902903
642.0523 1.201201
647.0474 3.403403
648.0454 1.301301
653.9902 1.301301
655.9924 8.308308
656.9927 4.004004
657.9975 1.401401
659.0012 1.401401
663.0401 1.901902
666.0195 1.001001
671.9865 1.501502
685.0079 1.401401
687.0321 2.802803
709.0212 1.801802
723.9817 1.301301
724.9838 1.201201
901.0911 1.501502
903.1074 3.703704
904.1117 2.102102
905.1219 3.703704
906.1228 2.002002
927.1039 2.902903
928.1108 1.601602
943.0666 1.801802
956.0245 1.501502
957.0294 1.401401
958.0315 2.602603
959.0318 2.102102
965.0518 1.201201
980.0185 2.202202
981.0213 1.801802
1205.1515 2.202202
1259.0746 1.001001
1260.0762 2.202202
1261.0764 1.401401
1273.1045 1.601602


Name: Quercetin
Synon: $:00in-source
DB#: MetaboBASE0390
InChIKey: REFJWTPEDVJJIY-UHFFFAOYSA-N
Instrument_type: LC-ESI-TOF
Instrument: impact HD
Ion_mode: N
Collision_energy: 10
Formula: C15H10O7
MW: 302
ExactMass: 302.04265266
Comments: "cas number=117-39-5" "SMILES=c1cc(c(cc1c2c(c(=O)c3c(cc(cc3o2)O)O)O)O)O" "InChI=InChI=1S/C15H10O7/c16-7-4-10(19)12-11(5-7)22-15(14(21)13(12)20)6-1-2-8(17)9(18)3-6/h1-5,16-19,21H" "computed SMILES=O=C1C(O)=C(OC=2C=C(O)C=C(O)C12)C=3C=CC(O)=C(O)C3" "license=License CC-BY-NC-SA 4.0 International" "author=Plant Biology, The Noble Foundation, Ardmore, OK, US/Dennis Fine, Daniel Wherritt, and Lloyd Sumner" "ionization=ESI" "collision gas=Nitrogen" "peak width=0.017" "date=2013-11-12 19:07:40+01:00" "column=Waters Acquity BEH C18 1.7um x 2.1 x 150 mm" "retention time=484.2" "raw data file=C:\Data\Confirmed Standards\Confirmed std 11Nov13\ZLei_Std_Mix_30_Oct_13_1966.d" "SPLASH=splash10-0f6t-0095000000-263e67f066235717bced" "submitter=Aiko Barsch (Bruker)" "MoNA Rating=4.444444444444445"
Num Peaks: 9
151.0038 1.301301
178.9989 2.402402
271.0259 3.903904
299.0216 100.000000
300.0249 14.314314
301.0367 36.136136
302.0399 4.504505
317.0321 3.503504
601.0639 1.201201


Name: Quercetin
Synon: $:00in-source
DB#: MetaboBASE0391
InChIKey: REFJWTPEDVJJIY-UHFFFAOYSA-N
Precursor_type: [M-H]-
Spectrum_type: MS2
PrecursorMZ: 301.035
Instrument_type: LC-ESI-TOF
Instrument: impact HD
Ion_mode: N
Collision_energy: 20
Formula: C15H10O7
MW: 302
ExactMass: 302.04265266
Comments: "cas number=117-39-5" "SMILES=c1cc(c(cc1c2c(c(=O)c3c(cc(cc3o2)O)O)O)O)O" "InChI=InChI=1S/C15H10O7/c16-7-4-10(19)12-11(5-7)22-15(14(21)13(12)20)6-1-2-8(17)9(18)3-6/h1-5,16-19,21H" "computed SMILES=O=C1C(O)=C(OC=2C=C(O)C=C(O)C12)C=3C=CC(O)=C(O)C3" "license=License CC-BY-NC-SA 4.0 International" "author=Plant Biology, The Noble Foundation, Ardmore, OK, US/Dennis Fine, Daniel Wherritt, and Lloyd Sumner" "ionization=ESI" "isolation width=5" "collision gas=Nitrogen" "peak width=0.015" "date=2014-01-10 00:24:33+01:00" "column=Waters Acquity BEH C18 1.7um x 2.1 x 150 mm" "retention time=483.6" "raw data file=C:\Data\Confirmed Standards\14Jan9 Confirmed stds MSMS\ZLei_Std_Mix_30_Oct_13_2485.d" "computed mass accuracy=1.2512166358468684" "computed mass error=-3.7665999997216204E-4" "SPLASH=splash10-0uka-0193000000-3325ca1a080730a9c0bf" "submitter=Aiko Barsch (Bruker)" "MoNA Rating=4.583333333333334"
Num Peaks: 14
121.0304 7.507508
151.0033 27.327327
178.9986 8.908909
227.0364 3.003003
229.0477 3.103103
243.0303 5.705706
257.0417 2.602603
271.0250 100.000000
272.0283 15.715716
273.0391 6.606607
299.0200 80.380380
300.0219 11.811812
301.0350 72.872873
302.0385 10.210210


Name: Quercetin
Synon: $:00in-source
DB#: MetaboBASE0392
InChIKey: REFJWTPEDVJJIY-UHFFFAOYSA-N
Spectrum_type: MS2
PrecursorMZ: 299.0205
Instrument_type: LC-ESI-TOF
Instrument: impact HD
Ion_mode: N
Collision_energy: 30
Formula: C15H10O7
MW: 302
ExactMass: 302.04265266
Comments: "cas number=117-39-5" "SMILES=c1cc(c(cc1c2c(c(=O)c3c(cc(cc3o2)O)O)O)O)O" "InChI=InChI=1S/C15H10O7/c16-7-4-10(19)12-11(5-7)22-15(14(21)13(12)20)6-1-2-8(17)9(18)3-6/h1-5,16-19,21H" "computed SMILES=O=C1C(O)=C(OC=2C=C(O)C=C(O)C12)C=3C=CC(O)=C(O)C3" "license=License CC-BY-NC-SA 4.0 International" "author=Plant Biology, The Noble Foundation, Ardmore, OK, US/Dennis Fine, Daniel Wherritt, and Lloyd Sumner" "ionization=ESI" "isolation width=5" "collision gas=Nitrogen" "peak width=0.015" "date=2014-01-10 00:24:33+01:00" "column=Waters Acquity BEH C18 1.7um x 2.1 x 150 mm" "retention time=483.6" "raw data file=C:\Data\Confirmed Standards\14Jan9 Confirmed stds MSMS\ZLei_Std_Mix_30_Oct_13_2485.d" "SPLASH=splash10-00di-0690000000-fc73e696aa7dda4ed068" "submitter=Aiko Barsch (Bruker)" "MoNA Rating=3.125"
Num Peaks: 22
107.0147 6.206206
109.0311 5.405405
121.0303 26.026026
149.0274 4.304304
151.0036 62.462462
152.0076 4.904905
171.0456 5.705706
178.9987 12.812813
187.0390 3.903904
199.0415 8.508509
215.0352 6.406406
226.0292 7.107107
227.0342 15.515516
229.0453 5.905906
242.0234 5.005005
243.0310 15.915916
245.0469 5.205205
271.0249 100.000000
272.0288 19.119119
273.0355 5.405405
299.0205 7.507508
301.0353 3.703704


Name: Quercetin
Synon: $:00in-source
DB#: MetaboBASE0393
InChIKey: REFJWTPEDVJJIY-UHFFFAOYSA-N
Spectrum_type: MS2
PrecursorMZ: 271.0612
Instrument_type: LC-ESI-TOF
Instrument: impact HD
Ion_mode: N
Collision_energy: 20
Formula: C15H10O7
MW: 302
ExactMass: 302.04265266
Comments: "cas number=117-39-5" "SMILES=c1cc(c(cc1c2c(c(=O)c3c(cc(cc3o2)O)O)O)O)O" "InChI=InChI=1S/C15H10O7/c16-7-4-10(19)12-11(5-7)22-15(14(21)13(12)20)6-1-2-8(17)9(18)3-6/h1-5,16-19,21H" "computed SMILES=O=C1C(O)=C(OC=2C=C(O)C=C(O)C12)C=3C=CC(O)=C(O)C3" "license=License CC-BY-NC-SA 4.0 International" "author=Plant Biology, The Noble Foundation, Ardmore, OK, US/Dennis Fine, Daniel Wherritt, and Lloyd Sumner" "ionization=ESI" "isolation width=5" "collision gas=Nitrogen" "peak width=0.013" "date=2014-01-10 01:46:02+01:00" "column=Waters Acquity BEH C18 1.7um x 2.1 x 150 mm" "retention time=483.6" "raw data file=C:\Data\Confirmed Standards\14Jan9 Confirmed stds MSMS\Quercetin (vial 6).d" "SPLASH=splash10-0uk9-0930000000-363b1bf4e9a6499fb535" "submitter=Aiko Barsch (Bruker)" "MoNA Rating=3.125"
Num Peaks: 9
107.0138 2.302302
119.0503 42.842843
120.0540 4.304304
151.0039 100.000000
152.0070 4.004004
165.0196 2.802803
177.0197 7.107107
271.0612 53.953954
272.0654 6.106106


Name: Quercetin
Synon: $:00in-source
DB#: MetaboBASE0394
InChIKey: REFJWTPEDVJJIY-UHFFFAOYSA-N
Spectrum_type: MS2
PrecursorMZ: 271.1
Instrument_type: LC-ESI-TOF
Instrument: impact HD
Ion_mode: N
Collision_energy: 40
Formula: C15H10O7
MW: 302
ExactMass: 302.04265266
Comments: "cas number=117-39-5" "SMILES=c1cc(c(cc1c2c(c(=O)c3c(cc(cc3o2)O)O)O)O)O" "InChI=InChI=1S/C15H10O7/c16-7-4-10(19)12-11(5-7)22-15(14(21)13(12)20)6-1-2-8(17)9(18)3-6/h1-5,16-19,21H" "computed SMILES=O=C1C(O)=C(OC=2C=C(O)C=C(O)C12)C=3C=CC(O)=C(O)C3" "license=License CC-BY-NC-SA 4.0 International" "author=Plant Biology, The Noble Foundation, Ardmore, OK, US/Dennis Fine, Daniel Wherritt, and Lloyd Sumner" "ionization=ESI" "isolation width=5" "collision gas=Nitrogen" "peak width=0.017" "date=2014-01-10 01:46:02+01:00" "column=Waters Acquity BEH C18 1.7um x 2.1 x 150 mm" "retention time=483.6" "raw data file=C:\Data\Confirmed Standards\14Jan9 Confirmed stds MSMS\Quercetin (vial 6).d" "SPLASH=splash10-014i-0900000000-845f3e731d2cccac16f9" "submitter=Aiko Barsch (Bruker)" "MoNA Rating=3.125"
Num Peaks: 6
107.0136 5.205205
117.0344 3.003003
119.0501 100.000000
120.0538 6.306306
151.0040 5.705706
187.0410 2.402402


Name: Quercetin
Synon: $:00in-source
DB#: MetaboBASE0395
InChIKey: REFJWTPEDVJJIY-UHFFFAOYSA-N
Spectrum_type: MS2
PrecursorMZ: 271.1
Instrument_type: LC-ESI-TOF
Instrument: impact HD
Ion_mode: N
Collision_energy: 50
Formula: C15H10O7
MW: 302
ExactMass: 302.04265266
Comments: "cas number=117-39-5" "SMILES=c1cc(c(cc1c2c(c(=O)c3c(cc(cc3o2)O)O)O)O)O" "InChI=InChI=1S/C15H10O7/c16-7-4-10(19)12-11(5-7)22-15(14(21)13(12)20)6-1-2-8(17)9(18)3-6/h1-5,16-19,21H" "computed SMILES=O=C1C(O)=C(OC=2C=C(O)C=C(O)C12)C=3C=CC(O)=C(O)C3" "license=License CC-BY-NC-SA 4.0 International" "author=Plant Biology, The Noble Foundation, Ardmore, OK, US/Dennis Fine, Daniel Wherritt, and Lloyd Sumner" "ionization=ESI" "isolation width=5" "collision gas=Nitrogen" "peak width=0.015" "date=2014-01-10 01:46:02+01:00" "column=Waters Acquity BEH C18 1.7um x 2.1 x 150 mm" "retention time=483.6" "raw data file=C:\Data\Confirmed Standards\14Jan9 Confirmed stds MSMS\Quercetin (vial 6).d" "SPLASH=splash10-014i-0900000000-9b75e80bd57dc444dda7" "submitter=Aiko Barsch (Bruker)" "MoNA Rating=3.125"
Num Peaks: 6
115.0558 3.303303
117.0342 10.010010
119.0502 100.000000
120.0530 6.806807
143.0504 4.204204
145.0349 3.803804


Name: Quercetin
Synon: $:00in-source
DB#: MetaboBASE0396
InChIKey: REFJWTPEDVJJIY-UHFFFAOYSA-N
Spectrum_type: MS2
PrecursorMZ: 271.1
Instrument_type: LC-ESI-TOF
Instrument: impact HD
Ion_mode: N
Collision_energy: 30
Formula: C15H10O7
MW: 302
ExactMass: 302.04265266
Comments: "cas number=117-39-5" "SMILES=c1cc(c(cc1c2c(c(=O)c3c(cc(cc3o2)O)O)O)O)O" "InChI=InChI=1S/C15H10O7/c16-7-4-10(19)12-11(5-7)22-15(14(21)13(12)20)6-1-2-8(17)9(18)3-6/h1-5,16-19,21H" "computed SMILES=O=C1C(O)=C(OC=2C=C(O)C=C(O)C12)C=3C=CC(O)=C(O)C3" "license=License CC-BY-NC-SA 4.0 International" "author=Plant Biology, The Noble Foundation, Ardmore, OK, US/Dennis Fine, Daniel Wherritt, and Lloyd Sumner" "ionization=ESI" "isolation width=5" "collision gas=Nitrogen" "peak width=0.016" "date=2014-01-10 01:46:02+01:00" "column=Waters Acquity BEH C18 1.7um x 2.1 x 150 mm" "retention time=483.6" "raw data file=C:\Data\Confirmed Standards\14Jan9 Confirmed stds MSMS\Quercetin (vial 6).d" "SPLASH=splash10-014i-0900000000-3d57664b65937f1fdbe8" "submitter=Aiko Barsch (Bruker)" "MoNA Rating=3.125"
Num Peaks: 7
107.0137 6.206206
119.0503 100.000000
120.0536 6.206206
151.0039 26.626627
152.0070 2.302302
165.0178 2.702703
187.0401 2.602603


Name: Quercetin
Synon: $:00in-source
DB#: MetaboBASE0397
InChIKey: REFJWTPEDVJJIY-UHFFFAOYSA-N
Precursor_type: [M-H]-
Spectrum_type: MS2
PrecursorMZ: 301.0356
Instrument_type: LC-ESI-TOF
Instrument: impact HD
Ion_mode: N
Collision_energy: 10
Formula: C15H10O7
MW: 302
ExactMass: 302.04265266
Comments: "cas number=117-39-5" "SMILES=c1cc(c(cc1c2c(c(=O)c3c(cc(cc3o2)O)O)O)O)O" "InChI=InChI=1S/C15H10O7/c16-7-4-10(19)12-11(5-7)22-15(14(21)13(12)20)6-1-2-8(17)9(18)3-6/h1-5,16-19,21H" "computed SMILES=O=C1C(O)=C(OC=2C=C(O)C=C(O)C12)C=3C=CC(O)=C(O)C3" "license=License CC-BY-NC-SA 4.0 International" "author=Plant Biology, The Noble Foundation, Ardmore, OK, US/Dennis Fine, Daniel Wherritt, and Lloyd Sumner" "ionization=ESI" "isolation width=5" "collision gas=Nitrogen" "peak width=0.012" "date=2014-01-10 00:24:33+01:00" "column=Waters Acquity BEH C18 1.7um x 2.1 x 150 mm" "retention time=483.6" "raw data file=C:\Data\Confirmed Standards\14Jan9 Confirmed stds MSMS\ZLei_Std_Mix_30_Oct_13_2485.d" "computed mass accuracy=0.7419056084759161" "computed mass error=2.2333999999091247E-4" "SPLASH=splash10-0udj-0059000000-4569f9771af75819d4ff" "submitter=Aiko Barsch (Bruker)" "MoNA Rating=4.615384615384616"
Num Peaks: 5
271.0246 2.202202
299.0200 71.971972
300.0234 8.908909
301.0356 100.000000
302.0386 9.609610


Name: Quercetin
Synon: $:00in-source
DB#: MetaboBASE0398
InChIKey: REFJWTPEDVJJIY-UHFFFAOYSA-N
Instrument_type: LC-ESI-TOF
Instrument: impact HD
Ion_mode: N
Formula: C15H10O7
MW: 302
ExactMass: 302.04265266
Comments: "cas number=117-39-5" "SMILES=c1cc(c(cc1c2c(c(=O)c3c(cc(cc3o2)O)O)O)O)O" "InChI=InChI=1S/C15H10O7/c16-7-4-10(19)12-11(5-7)22-15(14(21)13(12)20)6-1-2-8(17)9(18)3-6/h1-5,16-19,21H" "computed SMILES=O=C1C(O)=C(OC=2C=C(O)C=C(O)C12)C=3C=CC(O)=C(O)C3" "license=License CC-BY-NC-SA 4.0 International" "author=Plant Biology, The Noble Foundation, Ardmore, OK, US/Dennis Fine, Daniel Wherritt, and Lloyd Sumner" "ionization=ESI" "collision gas=Nitrogen" "peak width=0.01" "date=2014-01-10 00:24:33+01:00" "column=Waters Acquity BEH C18 1.7um x 2.1 x 150 mm" "retention time=483.6" "raw data file=C:\Data\Confirmed Standards\14Jan9 Confirmed stds MSMS\ZLei_Std_Mix_30_Oct_13_2485.d" "SPLASH=splash10-0f6t-0096000000-8e3b5b434e0a7ac4a6f2" "submitter=Aiko Barsch (Bruker)" "MoNA Rating=3.888888888888889"
Num Peaks: 7
299.0205 100.000000
300.0235 11.311311
301.0356 44.644645
302.0388 4.904905
317.0309 12.012012
601.0627 3.303303
603.0780 3.903904


Name: Quercetin
Synon: $:00in-source
DB#: MetaboBASE0399
InChIKey: REFJWTPEDVJJIY-UHFFFAOYSA-N
Precursor_type: [M-H]-
Spectrum_type: MS2
PrecursorMZ: 301
Instrument_type: LC-ESI-TOF
Instrument: impact HD
Ion_mode: N
Collision_energy: 40
Formula: C15H10O7
MW: 302
ExactMass: 302.04265266
Comments: "cas number=117-39-5" "SMILES=c1cc(c(cc1c2c(c(=O)c3c(cc(cc3o2)O)O)O)O)O" "InChI=InChI=1S/C15H10O7/c16-7-4-10(19)12-11(5-7)22-15(14(21)13(12)20)6-1-2-8(17)9(18)3-6/h1-5,16-19,21H" "computed SMILES=O=C1C(O)=C(OC=2C=C(O)C=C(O)C12)C=3C=CC(O)=C(O)C3" "license=License CC-BY-NC-SA 4.0 International" "author=Plant Biology, The Noble Foundation, Ardmore, OK, US/Dennis Fine, Daniel Wherritt, and Lloyd Sumner" "ionization=ESI" "isolation width=5" "collision gas=Nitrogen" "peak width=0.014" "date=2014-01-10 00:24:33+01:00" "column=Waters Acquity BEH C18 1.7um x 2.1 x 150 mm" "retention time=483.6" "raw data file=C:\Data\Confirmed Standards\14Jan9 Confirmed stds MSMS\ZLei_Std_Mix_30_Oct_13_2485.d" "computed mass accuracy=117.53043189367831" "computed mass error=-0.03537665999999717" "SPLASH=splash10-0kmi-0920000000-2cd49ad40f2f08fee3ab" "submitter=Aiko Barsch (Bruker)" "MoNA Rating=4.545454545454546"
Num Peaks: 16
107.0146 28.828829
109.0299 71.471471
121.0298 99.799800
133.0303 73.673674
135.0101 29.129129
143.0502 21.421421
145.0308 28.428428
151.0036 100.000000
171.0477 30.330330
175.0408 24.524525
199.0406 44.544545
215.0371 25.225225
226.0284 27.727728
227.0345 22.222222
243.0304 29.329329
271.0239 63.463463


Name: Umbelliferone
Synon: $:00in-source
DB#: MetaboBASE0400
InChIKey: ORHBXUUXSCNDEV-UHFFFAOYSA-N
Instrument_type: LC-ESI-TOF
Instrument: impact HD
Ion_mode: N
Collision_energy: 10
Formula: C9H6O3
MW: 162
ExactMass: 162.03169405199998
Comments: "cas number=93-35-6" "SMILES=c1cc(cc2c1ccc(=O)o2)O" "InChI=InChI=1S/C9H6O3/c10-7-3-1-6-2-4-9(11)12-8(6)5-7/h1-5,10H" "computed SMILES=O=C1OC=2C=C(O)C=CC2C=C1" "license=License CC-BY-NC-SA 4.0 International" "author=Plant Biology, The Noble Foundation, Ardmore, OK, US/Dennis Fine, Daniel Wherritt, and Lloyd Sumner" "ionization=ESI" "collision gas=Nitrogen" "peak width=0.017" "date=2013-11-12 19:07:40+01:00" "column=Waters Acquity BEH C18 1.7um x 2.1 x 150 mm" "retention time=236.4" "raw data file=C:\Data\Confirmed Standards\Confirmed std 11Nov13\ZLei_Std_Mix_30_Oct_13_1966.d" "SPLASH=splash10-03di-0900000000-1c416a1d92a90a4424ff" "submitter=Aiko Barsch (Bruker)" "MoNA Rating=4.444444444444445"
Num Peaks: 5
133.0296 1.801802
161.0246 100.000000
162.0276 7.207207
700.0316 3.503504
701.0350 1.301301


Name: Umbelliferone
Synon: $:00in-source
DB#: MetaboBASE0401
InChIKey: ORHBXUUXSCNDEV-UHFFFAOYSA-N
Precursor_type: [M-H]-
Spectrum_type: MS2
PrecursorMZ: 161.0247
Instrument_type: LC-ESI-TOF
Instrument: impact HD
Ion_mode: N
Collision_energy: 20
Formula: C9H6O3
MW: 162
ExactMass: 162.03169405199998
Comments: "cas number=93-35-6" "SMILES=c1cc(cc2c1ccc(=O)o2)O" "InChI=InChI=1S/C9H6O3/c10-7-3-1-6-2-4-9(11)12-8(6)5-7/h1-5,10H" "computed SMILES=O=C1OC=2C=C(O)C=CC2C=C1" "license=License CC-BY-NC-SA 4.0 International" "author=Plant Biology, The Noble Foundation, Ardmore, OK, US/Dennis Fine, Daniel Wherritt, and Lloyd Sumner" "ionization=ESI" "isolation width=5" "collision gas=Nitrogen" "peak width=0.012" "date=2014-01-10 00:24:33+01:00" "column=Waters Acquity BEH C18 1.7um x 2.1 x 150 mm" "retention time=235.8" "raw data file=C:\Data\Confirmed Standards\14Jan9 Confirmed stds MSMS\ZLei_Std_Mix_30_Oct_13_2485.d" "computed mass accuracy=1.750961187994572" "computed mass error=2.8194800000846953E-4" "SPLASH=splash10-03e9-0900000000-ceab22ae6ab894db98ee" "submitter=Aiko Barsch (Bruker)" "MoNA Rating=4.583333333333334"
Num Peaks: 5
117.0350 8.508509
133.0297 60.760761
134.0324 3.103103
161.0247 100.000000
162.0279 5.705706


Name: Umbelliferone
Synon: $:00in-source
DB#: MetaboBASE0402
InChIKey: ORHBXUUXSCNDEV-UHFFFAOYSA-N
Precursor_type: [M-H]-
Spectrum_type: MS2
PrecursorMZ: 161.0244
Instrument_type: LC-ESI-TOF
Instrument: impact HD
Ion_mode: N
Collision_energy: 30
Formula: C9H6O3
MW: 162
ExactMass: 162.03169405199998
Comments: "cas number=93-35-6" "SMILES=c1cc(cc2c1ccc(=O)o2)O" "InChI=InChI=1S/C9H6O3/c10-7-3-1-6-2-4-9(11)12-8(6)5-7/h1-5,10H" "computed SMILES=O=C1OC=2C=C(O)C=CC2C=C1" "license=License CC-BY-NC-SA 4.0 International" "author=Plant Biology, The Noble Foundation, Ardmore, OK, US/Dennis Fine, Daniel Wherritt, and Lloyd Sumner" "ionization=ESI" "isolation width=5" "collision gas=Nitrogen" "peak width=0.015" "date=2014-01-10 00:24:33+01:00" "column=Waters Acquity BEH C18 1.7um x 2.1 x 150 mm" "retention time=235.8" "raw data file=C:\Data\Confirmed Standards\14Jan9 Confirmed stds MSMS\ZLei_Std_Mix_30_Oct_13_2485.d" "computed mass accuracy=0.11210723327065787" "computed mass error=-1.8051999973067723E-5" "SPLASH=splash10-001i-0900000000-9f3b0c63320b7a16d26f" "submitter=Aiko Barsch (Bruker)" "MoNA Rating=4.615384615384616"
Num Peaks: 9
105.0350 29.329329
106.0412 5.105105
117.0346 52.352352
118.0322 6.006006
123.0441 12.412412
133.0298 100.000000
134.0324 21.721722
161.0244 54.054054
162.0268 5.205205


Name: Umbelliferone
Synon: $:00in-source
DB#: MetaboBASE0403
InChIKey: ORHBXUUXSCNDEV-UHFFFAOYSA-N
Instrument_type: LC-ESI-TOF
Instrument: impact HD
Ion_mode: N
Formula: C9H6O3
MW: 162
ExactMass: 162.03169405199998
Comments: "cas number=93-35-6" "SMILES=c1cc(cc2c1ccc(=O)o2)O" "InChI=InChI=1S/C9H6O3/c10-7-3-1-6-2-4-9(11)12-8(6)5-7/h1-5,10H" "computed SMILES=O=C1OC=2C=C(O)C=CC2C=C1" "license=License CC-BY-NC-SA 4.0 International" "author=Plant Biology, The Noble Foundation, Ardmore, OK, US/Dennis Fine, Daniel Wherritt, and Lloyd Sumner" "ionization=ESI" "collision gas=Nitrogen" "peak width=0.011" "date=2014-01-10 00:24:33+01:00" "column=Waters Acquity BEH C18 1.7um x 2.1 x 150 mm" "retention time=235.8" "raw data file=C:\Data\Confirmed Standards\14Jan9 Confirmed stds MSMS\ZLei_Std_Mix_30_Oct_13_2485.d" "SPLASH=splash10-03di-0900000000-26b715dfa168a96a7f79" "submitter=Aiko Barsch (Bruker)" "MoNA Rating=3.888888888888889"
Num Peaks: 3
161.0249 100.000000
162.0282 7.907908
700.0318 3.303303


Name: Umbelliferone
Synon: $:00in-source
DB#: MetaboBASE0404
InChIKey: ORHBXUUXSCNDEV-UHFFFAOYSA-N
Precursor_type: [M-H]-
Spectrum_type: MS2
PrecursorMZ: 161.0248
Instrument_type: LC-ESI-TOF
Instrument: impact HD
Ion_mode: N
Collision_energy: 10
Formula: C9H6O3
MW: 162
ExactMass: 162.03169405199998
Comments: "cas number=93-35-6" "SMILES=c1cc(cc2c1ccc(=O)o2)O" "InChI=InChI=1S/C9H6O3/c10-7-3-1-6-2-4-9(11)12-8(6)5-7/h1-5,10H" "computed SMILES=O=C1OC=2C=C(O)C=CC2C=C1" "license=License CC-BY-NC-SA 4.0 International" "author=Plant Biology, The Noble Foundation, Ardmore, OK, US/Dennis Fine, Daniel Wherritt, and Lloyd Sumner" "ionization=ESI" "isolation width=5" "collision gas=Nitrogen" "peak width=0.01" "date=2014-01-10 00:24:33+01:00" "column=Waters Acquity BEH C18 1.7um x 2.1 x 150 mm" "retention time=235.8" "raw data file=C:\Data\Confirmed Standards\14Jan9 Confirmed stds MSMS\ZLei_Std_Mix_30_Oct_13_2485.d" "computed mass accuracy=2.37198245246564" "computed mass error=3.819480000117892E-4" "SPLASH=splash10-03di-0900000000-1349a86992b0b49b6c46" "submitter=Aiko Barsch (Bruker)" "MoNA Rating=3.9285714285714284"
Num Peaks: 2
161.0248 100.000000
162.0279 6.306306


Name: 3-Rha-Ara-GlcUA-Soyasapogenol B
Synon: $:00in-source
DB#: MetaboBASE0405
InChIKey: IBZLICPLPYSFNZ-NKWBMYJBSA-N
Precursor_type: [M-H]-
Spectrum_type: MS2
PrecursorMZ: 911.4589
Instrument_type: LC-ESI-TOF
Instrument: impact HD
Ion_mode: N
Collision_energy: 10
Formula: C47H76O17
MW: 912
ExactMass: 912.5082509719999
Comments: "computed SMILES=O=C(O)C1OC(OC2CCC3(C)C(CCC4(C)C3CC=C5C6CC(C)(C)CC(O)C6(C)CCC54C)C2(C)CO)C(OC7OCC(O)C(O)C7OC8OC(C)C(O)C(O)C8O)C(O)C1O" "computed InChI=InChI=1S/C47H76O17/c1-21-29(51)31(53)34(56)39(60-21)63-36-30(52)24(49)19-59-40(36)64-37-33(55)32(54)35(38(57)58)62-41(37)61-28-12-13-44(5)25(45(28,6)20-48)11-14-47(8)26(44)10-9-22-23-17-42(2,3)18-27(50)43(23,4)15-16-46(22,47)7/h9,21,23-37,39-41,48-56H,10-20H2,1-8H3,(H,57,58)/t21-,23+,24-,25-,26-,27-,28+,29-,30-,31+,32-,33-,34+,35-,36+,37+,39+,40-,41?,43-,44+,45-,46-,47-/m1/s1" "license=License CC-BY-NC-SA 4.0 International" "author=Plant Biology, The Noble Foundation, Ardmore, OK, US/Dennis Fine, Daniel Wherritt, and Lloyd Sumner" "ionization=ESI" "isolation width=5" "collision gas=Nitrogen" "peak width=0.014" "date=2014-08-07 02:53:36+02:00" "column=Waters Acquity BEH C18 1.7um x 2.1 x 150 mm" "retention time=1072.8" "raw data file=C:\Data\Confirmed standards 24_July_2014\MSMS\Z Lei std 28 May 2014_1-F,8_01_562.d" "computed mass accuracy=46.16222629447076" "computed mass error=-0.042074971999909394" "SPLASH=splash10-03di-0000000009-48c6f5c1bcf4a1be664b" "submitter=Aiko Barsch (Bruker)" "MoNA Rating=4.545454545454546"
Num Peaks: 46
173.2183 0.300300
173.3645 0.300300
174.2975 0.300300
175.0747 0.300300
263.5935 0.300300
263.7436 0.400400
263.8865 0.300300
264.1020 0.300300
264.2893 0.300300
264.4034 0.300300
264.4630 0.300300
265.0218 0.300300
265.0906 0.300300
265.2266 0.300300
265.2473 0.300300
265.4396 0.300300
265.6395 0.300300
265.8390 0.300300
265.9072 0.300300
265.9704 0.300300
266.1695 0.300300
266.4389 0.300300
266.5048 0.300300
266.5928 0.300300
266.6689 0.300300
266.6841 0.400400
266.7307 0.300300
266.7529 0.300300
266.8272 0.300300
266.9436 0.300300
267.1221 0.300300
267.1613 0.300300
267.5586 0.300300
267.6909 0.300300
267.8787 0.300300
267.9507 0.300300
267.9680 0.300300
268.9316 0.400400
268.9461 0.300300
911.4589 100.000000
911.6402 0.500501
912.4621 17.117117
912.5673 0.300300
912.5940 0.300300
913.4630 5.505506
914.4573 1.001001


Name: 3-Rha-Ara-GlcUA-Soyasapogenol B
Synon: $:00in-source
DB#: MetaboBASE0406
InChIKey: IBZLICPLPYSFNZ-NKWBMYJBSA-N
Precursor_type: [M-H]-
Spectrum_type: MS2
PrecursorMZ: 911.459
Instrument_type: LC-ESI-TOF
Instrument: impact HD
Ion_mode: N
Collision_energy: 20
Formula: C47H76O17
MW: 912
ExactMass: 912.5082509719999
Comments: "computed SMILES=O=C(O)C1OC(OC2CCC3(C)C(CCC4(C)C3CC=C5C6CC(C)(C)CC(O)C6(C)CCC54C)C2(C)CO)C(OC7OCC(O)C(O)C7OC8OC(C)C(O)C(O)C8O)C(O)C1O" "computed InChI=InChI=1S/C47H76O17/c1-21-29(51)31(53)34(56)39(60-21)63-36-30(52)24(49)19-59-40(36)64-37-33(55)32(54)35(38(57)58)62-41(37)61-28-12-13-44(5)25(45(28,6)20-48)11-14-47(8)26(44)10-9-22-23-17-42(2,3)18-27(50)43(23,4)15-16-46(22,47)7/h9,21,23-37,39-41,48-56H,10-20H2,1-8H3,(H,57,58)/t21-,23+,24-,25-,26-,27-,28+,29-,30-,31+,32-,33-,34+,35-,36+,37+,39+,40-,41?,43-,44+,45-,46-,47-/m1/s1" "license=License CC-BY-NC-SA 4.0 International" "author=Plant Biology, The Noble Foundation, Ardmore, OK, US/Dennis Fine, Daniel Wherritt, and Lloyd Sumner" "ionization=ESI" "isolation width=5" "collision gas=Nitrogen" "peak width=0.014" "date=2014-08-07 02:53:36+02:00" "column=Waters Acquity BEH C18 1.7um x 2.1 x 150 mm" "retention time=1072.8" "raw data file=C:\Data\Confirmed standards 24_July_2014\MSMS\Z Lei std 28 May 2014_1-F,8_01_562.d" "computed mass accuracy=46.05250702438014" "computed mass error=-0.041974971999934496" "SPLASH=splash10-03di-0000000009-d4ff5be32d1ffb61a7b7" "submitter=Aiko Barsch (Bruker)" "MoNA Rating=4.545454545454546"
Num Peaks: 47
174.0992 0.200200
183.1969 0.200200
261.2075 0.300300
262.9281 0.200200
263.7710 0.300300
263.9779 0.300300
264.4612 0.300300
264.5335 0.300300
264.6816 0.300300
264.8288 0.300300
264.8580 0.300300
265.0017 0.300300
265.1185 0.300300
265.1752 0.300300
265.2894 0.300300
265.3240 0.300300
265.3553 0.300300
265.5745 0.300300
265.7277 0.300300
266.0213 0.300300
266.0685 0.300300
266.1053 0.300300
266.3133 0.300300
266.4260 0.200200
266.4453 0.300300
266.4874 0.300300
266.5057 0.300300
266.5214 0.300300
266.9382 0.300300
267.0933 0.300300
267.1382 0.400400
267.1548 0.300300
267.2473 0.300300
267.2619 0.200200
267.4133 0.300300
268.4771 0.300300
269.6117 0.300300
269.8752 0.300300
270.0138 0.200200
911.4590 100.000000
911.5922 0.600601
911.6198 0.500501
911.6537 0.400400
911.6982 0.300300
912.4623 18.918919
913.4644 5.305305
914.4680 1.001001


Name: 3-Rha-Ara-GlcUA-Soyasapogenol B
Synon: $:00in-source
DB#: MetaboBASE0407
InChIKey: IBZLICPLPYSFNZ-NKWBMYJBSA-N
Precursor_type: [M-H]-
Spectrum_type: MS2
PrecursorMZ: 911.459
Instrument_type: LC-ESI-TOF
Instrument: impact HD
Ion_mode: N
Collision_energy: 30
Formula: C47H76O17
MW: 912
ExactMass: 912.5082509719999
Comments: "computed SMILES=O=C(O)C1OC(OC2CCC3(C)C(CCC4(C)C3CC=C5C6CC(C)(C)CC(O)C6(C)CCC54C)C2(C)CO)C(OC7OCC(O)C(O)C7OC8OC(C)C(O)C(O)C8O)C(O)C1O" "computed InChI=InChI=1S/C47H76O17/c1-21-29(51)31(53)34(56)39(60-21)63-36-30(52)24(49)19-59-40(36)64-37-33(55)32(54)35(38(57)58)62-41(37)61-28-12-13-44(5)25(45(28,6)20-48)11-14-47(8)26(44)10-9-22-23-17-42(2,3)18-27(50)43(23,4)15-16-46(22,47)7/h9,21,23-37,39-41,48-56H,10-20H2,1-8H3,(H,57,58)/t21-,23+,24-,25-,26-,27-,28+,29-,30-,31+,32-,33-,34+,35-,36+,37+,39+,40-,41?,43-,44+,45-,46-,47-/m1/s1" "license=License CC-BY-NC-SA 4.0 International" "author=Plant Biology, The Noble Foundation, Ardmore, OK, US/Dennis Fine, Daniel Wherritt, and Lloyd Sumner" "ionization=ESI" "isolation width=5" "collision gas=Nitrogen" "peak width=0.014" "date=2014-08-07 02:53:36+02:00" "column=Waters Acquity BEH C18 1.7um x 2.1 x 150 mm" "retention time=1072.8" "raw data file=C:\Data\Confirmed standards 24_July_2014\MSMS\Z Lei std 28 May 2014_1-F,8_01_562.d" "computed mass accuracy=46.05250702438014" "computed mass error=-0.041974971999934496" "SPLASH=splash10-03di-0000000009-65be7561ce3da79792ca" "submitter=Aiko Barsch (Bruker)" "MoNA Rating=4.545454545454546"
Num Peaks: 42
175.0362 0.300300
176.0339 0.300300
176.6397 0.200200
262.9946 0.300300
263.3254 0.200200
263.5439 0.300300
263.5938 0.300300
264.2788 0.200200
264.3708 0.300300
264.9035 0.300300
264.9870 0.300300
265.2722 0.300300
265.3759 0.200200
265.4829 0.400400
265.5031 0.200200
265.5227 0.300300
265.6982 0.300300
266.0452 0.300300
266.2691 0.300300
266.3074 0.300300
266.3416 0.400400
266.7149 0.300300
266.7689 0.300300
266.7870 0.300300
267.4096 0.300300
267.5460 0.300300
267.7686 0.300300
267.9288 0.300300
268.0262 0.300300
268.1008 0.300300
268.1839 0.300300
268.4444 0.200200
269.8566 0.300300
270.0224 0.300300
911.2836 0.200200
911.4590 100.000000
911.6125 0.300300
911.6436 0.300300
911.6860 0.400400
912.4586 18.418418
913.4644 5.005005
914.4641 0.900901


Name: 3-Rha-Ara-GlcUA-Soyasapogenol B
Synon: $:00in-source
DB#: MetaboBASE0408
InChIKey: IBZLICPLPYSFNZ-NKWBMYJBSA-N
Precursor_type: [M-H]-
Spectrum_type: MS2
PrecursorMZ: 911.4587
Instrument_type: LC-ESI-TOF
Instrument: impact HD
Ion_mode: N
Collision_energy: 40
Formula: C47H76O17
MW: 912
ExactMass: 912.5082509719999
Comments: "computed SMILES=O=C(O)C1OC(OC2CCC3(C)C(CCC4(C)C3CC=C5C6CC(C)(C)CC(O)C6(C)CCC54C)C2(C)CO)C(OC7OCC(O)C(O)C7OC8OC(C)C(O)C(O)C8O)C(O)C1O" "computed InChI=InChI=1S/C47H76O17/c1-21-29(51)31(53)34(56)39(60-21)63-36-30(52)24(49)19-59-40(36)64-37-33(55)32(54)35(38(57)58)62-41(37)61-28-12-13-44(5)25(45(28,6)20-48)11-14-47(8)26(44)10-9-22-23-17-42(2,3)18-27(50)43(23,4)15-16-46(22,47)7/h9,21,23-37,39-41,48-56H,10-20H2,1-8H3,(H,57,58)/t21-,23+,24-,25-,26-,27-,28+,29-,30-,31+,32-,33-,34+,35-,36+,37+,39+,40-,41?,43-,44+,45-,46-,47-/m1/s1" "license=License CC-BY-NC-SA 4.0 International" "author=Plant Biology, The Noble Foundation, Ardmore, OK, US/Dennis Fine, Daniel Wherritt, and Lloyd Sumner" "ionization=ESI" "isolation width=5" "collision gas=Nitrogen" "peak width=0.015" "date=2014-08-07 02:53:36+02:00" "column=Waters Acquity BEH C18 1.7um x 2.1 x 150 mm" "retention time=1072.8" "raw data file=C:\Data\Confirmed standards 24_July_2014\MSMS\Z Lei std 28 May 2014_1-F,8_01_562.d" "computed mass accuracy=46.381664906878605" "computed mass error=-0.04227497199985919" "SPLASH=splash10-03di-0010000009-aa33318b238be6f86ff1" "submitter=Aiko Barsch (Bruker)" "MoNA Rating=4.545454545454546"
Num Peaks: 70
174.4037 0.200200
174.6699 0.200200
174.8906 0.200200
177.2133 0.300300
261.5456 0.300300
262.8890 0.300300
263.4693 0.300300
263.6386 0.200200
263.7154 0.300300
263.7485 0.200200
263.8427 0.300300
263.8793 0.300300
263.9083 0.200200
263.9323 0.200200
264.0468 0.300300
264.0869 0.500501
264.2304 0.200200
264.3367 0.300300
264.6031 0.200200
264.7043 0.400400
264.7368 0.400400
264.8020 0.200200
264.9219 0.300300
264.9847 0.300300
265.0393 0.200200
265.0701 0.300300
265.1415 0.200200
265.2921 0.300300
265.4004 0.300300
265.4910 0.300300
265.7893 0.300300
265.8571 0.300300
266.1201 0.300300
266.2426 0.200200
266.5307 0.300300
266.5469 0.300300
266.5792 0.500501
266.6491 0.300300
266.6938 0.300300
266.7235 0.300300
266.7761 0.200200
266.8030 0.300300
266.9692 0.300300
267.0638 0.300300
267.1093 0.200200
267.1922 0.400400
267.3993 0.200200
267.5020 0.200200
267.5716 0.200200
267.6566 0.200200
267.7711 0.200200
267.8159 0.300300
267.8387 0.300300
268.0191 0.400400
268.1190 0.300300
268.1827 0.200200
268.4658 0.200200
268.8233 0.200200
269.3781 0.300300
269.9630 0.200200
615.3681 0.200200
893.4535 0.400400
911.3248 0.400400
911.4587 100.000000
911.6039 0.400400
911.6926 0.200200
912.4637 16.616617
912.5760 0.200200
913.4646 5.305305
914.4650 0.900901


Name: 3-Rha-Ara-GlcUA-Soyasapogenol B
Synon: $:00in-source
DB#: MetaboBASE0409
InChIKey: IBZLICPLPYSFNZ-NKWBMYJBSA-N
Precursor_type: [M-H]-
Spectrum_type: MS2
PrecursorMZ: 911.4591
Instrument_type: LC-ESI-TOF
Instrument: impact HD
Ion_mode: N
Collision_energy: 50
Formula: C47H76O17
MW: 912
ExactMass: 912.5082509719999
Comments: "computed SMILES=O=C(O)C1OC(OC2CCC3(C)C(CCC4(C)C3CC=C5C6CC(C)(C)CC(O)C6(C)CCC54C)C2(C)CO)C(OC7OCC(O)C(O)C7OC8OC(C)C(O)C(O)C8O)C(O)C1O" "computed InChI=InChI=1S/C47H76O17/c1-21-29(51)31(53)34(56)39(60-21)63-36-30(52)24(49)19-59-40(36)64-37-33(55)32(54)35(38(57)58)62-41(37)61-28-12-13-44(5)25(45(28,6)20-48)11-14-47(8)26(44)10-9-22-23-17-42(2,3)18-27(50)43(23,4)15-16-46(22,47)7/h9,21,23-37,39-41,48-56H,10-20H2,1-8H3,(H,57,58)/t21-,23+,24-,25-,26-,27-,28+,29-,30-,31+,32-,33-,34+,35-,36+,37+,39+,40-,41?,43-,44+,45-,46-,47-/m1/s1" "license=License CC-BY-NC-SA 4.0 International" "author=Plant Biology, The Noble Foundation, Ardmore, OK, US/Dennis Fine, Daniel Wherritt, and Lloyd Sumner" "ionization=ESI" "isolation width=5" "collision gas=Nitrogen" "peak width=0.015" "date=2014-08-07 02:53:36+02:00" "column=Waters Acquity BEH C18 1.7um x 2.1 x 150 mm" "retention time=1072.8" "raw data file=C:\Data\Confirmed standards 24_July_2014\MSMS\Z Lei std 28 May 2014_1-F,8_01_562.d" "computed mass accuracy=45.94278777824031" "computed mass error=-0.04187497199984591" "SPLASH=splash10-03di-0010000009-8f2e196b9b1c150c96f8" "submitter=Aiko Barsch (Bruker)" "MoNA Rating=4.545454545454546"
Num Peaks: 66
113.0197 0.500501
131.0271 0.400400
143.0282 0.300300
157.0052 0.300300
163.0549 0.300300
175.7070 0.200200
205.0613 1.301301
247.0676 0.600601
262.0012 0.300300
262.9191 0.300300
262.9910 0.300300
263.1171 0.300300
263.6127 0.300300
263.9332 0.300300
264.2148 0.300300
264.3081 0.300300
264.4071 0.300300
264.6395 0.300300
264.6632 0.400400
264.7210 0.300300
265.1795 0.300300
265.2202 0.300300
265.3936 0.300300
265.4456 0.300300
265.6057 0.300300
265.6877 0.300300
265.7758 0.300300
265.8707 0.400400
265.9411 0.300300
266.3273 0.400400
266.4143 0.300300
266.7727 0.300300
266.8371 0.300300
266.9291 0.300300
267.0302 0.300300
267.2493 0.400400
267.4643 0.300300
267.9254 0.400400
268.0032 0.300300
268.4171 0.300300
268.4915 0.400400
268.8284 0.300300
269.2806 0.300300
269.6016 0.300300
270.2095 0.300300
270.2938 0.300300
270.4369 0.300300
270.4887 0.400400
457.3433 0.400400
571.3729 0.200200
615.3602 1.501502
616.3693 0.300300
703.4041 0.700701
721.4170 0.300300
849.4589 0.800801
893.4421 1.801802
894.4559 0.300300
911.2216 0.300300
911.3214 0.300300
911.3499 0.600601
911.4591 100.000000
911.6513 0.500501
911.6768 0.300300
912.4588 19.219219
913.4623 5.205205
914.4642 0.900901


Name: 3-Rha-Ara-GlcUA-Soyasapogenol B
Synon: $:00in-source
DB#: MetaboBASE0410
InChIKey: IBZLICPLPYSFNZ-NKWBMYJBSA-N
Instrument_type: LC-ESI-TOF
Instrument: impact HD
Ion_mode: N
Collision_energy: 10
Formula: C47H76O17
MW: 912
ExactMass: 912.5082509719999
Comments: "computed SMILES=O=C(O)C1OC(OC2CCC3(C)C(CCC4(C)C3CC=C5C6CC(C)(C)CC(O)C6(C)CCC54C)C2(C)CO)C(OC7OCC(O)C(O)C7OC8OC(C)C(O)C(O)C8O)C(O)C1O" "computed InChI=InChI=1S/C47H76O17/c1-21-29(51)31(53)34(56)39(60-21)63-36-30(52)24(49)19-59-40(36)64-37-33(55)32(54)35(38(57)58)62-41(37)61-28-12-13-44(5)25(45(28,6)20-48)11-14-47(8)26(44)10-9-22-23-17-42(2,3)18-27(50)43(23,4)15-16-46(22,47)7/h9,21,23-37,39-41,48-56H,10-20H2,1-8H3,(H,57,58)/t21-,23+,24-,25-,26-,27-,28+,29-,30-,31+,32-,33-,34+,35-,36+,37+,39+,40-,41?,43-,44+,45-,46-,47-/m1/s1" "license=License CC-BY-NC-SA 4.0 International" "author=Plant Biology, The Noble Foundation, Ardmore, OK, US/Dennis Fine, Daniel Wherritt, and Lloyd Sumner" "ionization=ESI" "collision gas=Nitrogen" "peak width=0.02" "date=2013-11-12 19:07:40+01:00" "column=Waters Acquity BEH C18 1.7um x 2.1 x 150 mm" "retention time=1072.8" "raw data file=C:\Data\Confirmed Standards\Confirmed std 11Nov13\ZLei_Std_Mix_30_Oct_13_1966.d" "SPLASH=splash10-03di-0000000009-654b00119b192ad99f90" "submitter=Aiko Barsch (Bruker)" "MoNA Rating=4.444444444444445"
Num Peaks: 20
795.4560 5.505506
796.4564 2.302302
911.5051 100.000000
912.5084 47.147147
913.5118 12.912913
914.5159 2.302302
957.5124 16.316316
958.5159 7.707708
959.5184 2.002002
979.4966 6.906907
980.5000 3.203203
981.4982 1.001001
1029.4434 1.901902
1047.4814 1.401401
1367.7645 1.301301
1368.2668 1.901902
1368.7649 1.601602
1824.0352 1.901902
1825.0358 2.702703
1826.0411 1.201201


Name: 3-Glc-Gal-GlcUA-Soyasapogenol B
Synon: $:00in-source
DB#: MetaboBASE0411
InChIKey: WFRQIKSNAYYUJZ-BOZPSLMNSA-N
Precursor_type: [M-H]-
Spectrum_type: MS2
PrecursorMZ: 957.5247
Instrument_type: LC-ESI-TOF
Instrument: impact HD
Ion_mode: N
Collision_energy: 40
Formula: C48H78O19
MW: 958
ExactMass: 958.5137302759999
Comments: "computed SMILES=O=C(O)C1OC(OC2CCC3(C)C(CCC4(C)C3CC=C5C6CC(C)(C)CC(O)C6(C)CCC54C)C2(C)CO)C(OC7OC(CO)C(O)C(O)C7OC8OC(CO)C(O)C(O)C8O)C(O)C1O" "computed InChI=InChI=1S/C48H78O19/c1-43(2)16-22-21-8-9-26-45(4)12-11-28(46(5,20-51)25(45)10-13-48(26,7)47(21,6)15-14-44(22,3)27(52)17-43)64-42-38(34(58)33(57)36(65-42)39(60)61)67-41-37(32(56)30(54)24(19-50)63-41)66-40-35(59)31(55)29(53)23(18-49)62-40/h8,22-38,40-42,49-59H,9-20H2,1-7H3,(H,60,61)/t22-,23-,24-,25+,26+,27+,28-,29-,30+,31+,32+,33+,34+,35-,36+,37-,38-,40+,41+,42?,44+,45-,46+,47+,48+/m0/s1" "license=License CC-BY-NC-SA 4.0 International" "author=Plant Biology, The Noble Foundation, Ardmore, OK, US/Dennis Fine, Daniel Wherritt, and Lloyd Sumner" "ionization=ESI" "isolation width=5" "collision gas=Nitrogen" "peak width=0.016" "date=2014-08-07 02:53:36+02:00" "column=Waters Acquity BEH C18 1.7um x 2.1 x 150 mm" "retention time=1014.6" "raw data file=C:\Data\Confirmed standards 24_July_2014\MSMS\Z Lei std 28 May 2014_1-F,8_01_562.d" "computed mass accuracy=19.055094871356086" "computed mass error=0.018245724000166774" "SPLASH=splash10-0a4i-0000000009-3f0cac4c5ae60385b0e8" "submitter=Aiko Barsch (Bruker)" "MoNA Rating=4.545454545454546"
Num Peaks: 3
957.5247 100.000000
958.5271 19.619620
959.5382 6.306306


Name: 3-Glc-Gal-GlcUA-Soyasapogenol B
Synon: $:00in-source
DB#: MetaboBASE0412
InChIKey: WFRQIKSNAYYUJZ-BOZPSLMNSA-N
Precursor_type: [M-H]-
Spectrum_type: MS2
PrecursorMZ: 957.526
Instrument_type: LC-ESI-TOF
Instrument: impact HD
Ion_mode: N
Collision_energy: 20
Formula: C48H78O19
MW: 958
ExactMass: 958.5137302759999
Comments: "computed SMILES=O=C(O)C1OC(OC2CCC3(C)C(CCC4(C)C3CC=C5C6CC(C)(C)CC(O)C6(C)CCC54C)C2(C)CO)C(OC7OC(CO)C(O)C(O)C7OC8OC(CO)C(O)C(O)C8O)C(O)C1O" "computed InChI=InChI=1S/C48H78O19/c1-43(2)16-22-21-8-9-26-45(4)12-11-28(46(5,20-51)25(45)10-13-48(26,7)47(21,6)15-14-44(22,3)27(52)17-43)64-42-38(34(58)33(57)36(65-42)39(60)61)67-41-37(32(56)30(54)24(19-50)63-41)66-40-35(59)31(55)29(53)23(18-49)62-40/h8,22-38,40-42,49-59H,9-20H2,1-7H3,(H,60,61)/t22-,23-,24-,25+,26+,27+,28-,29-,30+,31+,32+,33+,34+,35-,36+,37-,38-,40+,41+,42?,44+,45-,46+,47+,48+/m0/s1" "license=License CC-BY-NC-SA 4.0 International" "author=Plant Biology, The Noble Foundation, Ardmore, OK, US/Dennis Fine, Daniel Wherritt, and Lloyd Sumner" "ionization=ESI" "isolation width=5" "collision gas=Nitrogen" "peak width=0.017" "date=2014-08-07 02:53:36+02:00" "column=Waters Acquity BEH C18 1.7um x 2.1 x 150 mm" "retention time=1014.6" "raw data file=C:\Data\Confirmed standards 24_July_2014\MSMS\Z Lei std 28 May 2014_1-F,8_01_562.d" "computed mass accuracy=20.412734484565245" "computed mass error=0.01954572400006782" "SPLASH=splash10-0a4i-0000000009-3e584ba3e2e183b47c8d" "submitter=Aiko Barsch (Bruker)" "MoNA Rating=4.545454545454546"
Num Peaks: 3
957.5260 100.000000
958.5274 15.615616
959.5250 5.805806


Name: 3-Glc-Gal-GlcUA-Soyasapogenol B
Synon: $:00in-source
DB#: MetaboBASE0413
InChIKey: WFRQIKSNAYYUJZ-BOZPSLMNSA-N
Precursor_type: [M-H]-
Spectrum_type: MS2
PrecursorMZ: 957.5214
Instrument_type: LC-ESI-TOF
Instrument: impact HD
Ion_mode: N
Collision_energy: 10
Formula: C48H78O19
MW: 958
ExactMass: 958.513730276
Comments: "computed SMILES=O=C(O)C1OC(OC2CCC3(C)C(CCC4(C)C3CC=C5C6CC(C)(C)CC(O)C6(C)CCC54C)C2(C)CO)C(OC7OC(CO)C(O)C(O)C7OC8OC(CO)C(O)C(O)C8O)C(O)C1O" "computed InChI=InChI=1S/C48H78O19/c1-43(2)16-22-21-8-9-26-45(4)12-11-28(46(5,20-51)25(45)10-13-48(26,7)47(21,6)15-14-44(22,3)27(52)17-43)64-42-38(34(58)33(57)36(65-42)39(60)61)67-41-37(32(56)30(54)24(19-50)63-41)66-40-35(59)31(55)29(53)23(18-49)62-40/h8,22-38,40-42,49-59H,9-20H2,1-7H3,(H,60,61)/t22-,23-,24-,25+,26+,27+,28-,29-,30+,31+,32+,33+,34+,35-,36+,37-,38-,40+,41+,42?,44+,45-,46+,47+,48+/m0/s1" "license=License CC-BY-NC-SA 4.0 International" "author=Plant Biology, The Noble Foundation, Ardmore, OK, US/Dennis Fine, Daniel Wherritt, and Lloyd Sumner" "ionization=ESI" "isolation width=5" "collision gas=Nitrogen" "peak width=0.012" "date=2014-08-07 02:53:36+02:00" "column=Waters Acquity BEH C18 1.7um x 2.1 x 150 mm" "retention time=1014.6" "raw data file=C:\Data\Confirmed standards 24_July_2014\MSMS\Z Lei std 28 May 2014_1-F,8_01_562.d" "computed mass accuracy=15.608762373323417" "computed mass error=0.01494572399997196" "SPLASH=splash10-0a4i-0000000009-d697103f5c2a096c651f" "submitter=Aiko Barsch (Bruker)" "MoNA Rating=4.545454545454546"
Num Peaks: 4
271.6497 3.103103
957.5214 100.000000
958.5185 17.117117
959.5242 6.906907


Name: 3-Glc-Gal-GlcUA-Soyasapogenol B
Synon: $:00in-source
DB#: MetaboBASE0414
InChIKey: WFRQIKSNAYYUJZ-BOZPSLMNSA-N
Precursor_type: [M-H]-
Spectrum_type: MS2
PrecursorMZ: 957.526
Instrument_type: LC-ESI-TOF
Instrument: impact HD
Ion_mode: N
Collision_energy: 50
Formula: C48H78O19
MW: 958
ExactMass: 958.5137302759999
Comments: "computed SMILES=O=C(O)C1OC(OC2CCC3(C)C(CCC4(C)C3CC=C5C6CC(C)(C)CC(O)C6(C)CCC54C)C2(C)CO)C(OC7OC(CO)C(O)C(O)C7OC8OC(CO)C(O)C(O)C8O)C(O)C1O" "computed InChI=InChI=1S/C48H78O19/c1-43(2)16-22-21-8-9-26-45(4)12-11-28(46(5,20-51)25(45)10-13-48(26,7)47(21,6)15-14-44(22,3)27(52)17-43)64-42-38(34(58)33(57)36(65-42)39(60)61)67-41-37(32(56)30(54)24(19-50)63-41)66-40-35(59)31(55)29(53)23(18-49)62-40/h8,22-38,40-42,49-59H,9-20H2,1-7H3,(H,60,61)/t22-,23-,24-,25+,26+,27+,28-,29-,30+,31+,32+,33+,34+,35-,36+,37-,38-,40+,41+,42?,44+,45-,46+,47+,48+/m0/s1" "license=License CC-BY-NC-SA 4.0 International" "author=Plant Biology, The Noble Foundation, Ardmore, OK, US/Dennis Fine, Daniel Wherritt, and Lloyd Sumner" "ionization=ESI" "isolation width=5" "collision gas=Nitrogen" "peak width=0.011" "date=2014-08-07 02:53:36+02:00" "column=Waters Acquity BEH C18 1.7um x 2.1 x 150 mm" "retention time=1014.6" "raw data file=C:\Data\Confirmed standards 24_July_2014\MSMS\Z Lei std 28 May 2014_1-F,8_01_562.d" "computed mass accuracy=20.412734484565245" "computed mass error=0.01954572400006782" "SPLASH=splash10-0a4i-0000000009-6921718b4dc0a5c292f2" "submitter=Aiko Barsch (Bruker)" "MoNA Rating=4.545454545454546"
Num Peaks: 11
221.0667 2.802803
263.0827 3.003003
597.3940 1.601602
615.4045 2.102102
895.5238 1.801802
939.5112 4.204204
939.5490 1.601602
957.5260 100.000000
957.6309 1.801802
958.5259 19.519520
959.5276 5.105105


Name: 3-Glc-Gal-GlcUA-Soyasapogenol B
Synon: $:00in-source
DB#: MetaboBASE0415
InChIKey: WFRQIKSNAYYUJZ-BOZPSLMNSA-N
Precursor_type: [M-H]-
Spectrum_type: MS2
PrecursorMZ: 957.5275
Instrument_type: LC-ESI-TOF
Instrument: impact HD
Ion_mode: N
Collision_energy: 30
Formula: C48H78O19
MW: 958
ExactMass: 958.513730276
Comments: "computed SMILES=O=C(O)C1OC(OC2CCC3(C)C(CCC4(C)C3CC=C5C6CC(C)(C)CC(O)C6(C)CCC54C)C2(C)CO)C(OC7OC(CO)C(O)C(O)C7OC8OC(CO)C(O)C(O)C8O)C(O)C1O" "computed InChI=InChI=1S/C48H78O19/c1-43(2)16-22-21-8-9-26-45(4)12-11-28(46(5,20-51)25(45)10-13-48(26,7)47(21,6)15-14-44(22,3)27(52)17-43)64-42-38(34(58)33(57)36(65-42)39(60)61)67-41-37(32(56)30(54)24(19-50)63-41)66-40-35(59)31(55)29(53)23(18-49)62-40/h8,22-38,40-42,49-59H,9-20H2,1-7H3,(H,60,61)/t22-,23-,24-,25+,26+,27+,28-,29-,30+,31+,32+,33+,34+,35-,36+,37-,38-,40+,41+,42?,44+,45-,46+,47+,48+/m0/s1" "license=License CC-BY-NC-SA 4.0 International" "author=Plant Biology, The Noble Foundation, Ardmore, OK, US/Dennis Fine, Daniel Wherritt, and Lloyd Sumner" "ionization=ESI" "isolation width=5" "collision gas=Nitrogen" "peak width=0.015" "date=2014-08-07 02:53:36+02:00" "column=Waters Acquity BEH C18 1.7um x 2.1 x 150 mm" "retention time=1014.6" "raw data file=C:\Data\Confirmed standards 24_July_2014\MSMS\Z Lei std 28 May 2014_1-F,8_01_562.d" "computed mass accuracy=21.979237149880657" "computed mass error=0.02104572400003235" "SPLASH=splash10-0a4i-0000000009-ce00665416cb89bdbda6" "submitter=Aiko Barsch (Bruker)" "MoNA Rating=4.545454545454546"
Num Peaks: 5
280.9576 1.901902
957.5275 100.000000
957.6210 2.902903
958.5288 19.119119
959.5230 3.903904


Name: 3-Glc-Gal-GlcUA-Soyasapogenol B
Synon: $:00in-source
DB#: MetaboBASE0416
InChIKey: WFRQIKSNAYYUJZ-BOZPSLMNSA-N
Instrument_type: LC-ESI-TOF
Instrument: impact HD
Ion_mode: N
Collision_energy: 10
Formula: C48H78O19
MW: 958
ExactMass: 958.5137302759999
Comments: "computed SMILES=O=C(O)C1OC(OC2CCC3(C)C(CCC4(C)C3CC=C5C6CC(C)(C)CC(O)C6(C)CCC54C)C2(C)CO)C(OC7OC(CO)C(O)C(O)C7OC8OC(CO)C(O)C(O)C8O)C(O)C1O" "computed InChI=InChI=1S/C48H78O19/c1-43(2)16-22-21-8-9-26-45(4)12-11-28(46(5,20-51)25(45)10-13-48(26,7)47(21,6)15-14-44(22,3)27(52)17-43)64-42-38(34(58)33(57)36(65-42)39(60)61)67-41-37(32(56)30(54)24(19-50)63-41)66-40-35(59)31(55)29(53)23(18-49)62-40/h8,22-38,40-42,49-59H,9-20H2,1-7H3,(H,60,61)/t22-,23-,24-,25+,26+,27+,28-,29-,30+,31+,32+,33+,34+,35-,36+,37-,38-,40+,41+,42?,44+,45-,46+,47+,48+/m0/s1" "license=License CC-BY-NC-SA 4.0 International" "author=Plant Biology, The Noble Foundation, Ardmore, OK, US/Dennis Fine, Daniel Wherritt, and Lloyd Sumner" "ionization=ESI" "collision gas=Nitrogen" "peak width=0.018" "date=2013-11-12 19:07:40+01:00" "column=Waters Acquity BEH C18 1.7um x 2.1 x 150 mm" "retention time=1014.6" "raw data file=C:\Data\Confirmed Standards\Confirmed std 11Nov13\ZLei_Std_Mix_30_Oct_13_1966.d" "SPLASH=splash10-0a4i-1000000009-192eaa910b1a8c271730" "submitter=Aiko Barsch (Bruker)" "MoNA Rating=4.444444444444445"
Num Peaks: 17
112.9873 1.101101
128.0096 1.601602
957.5091 100.000000
958.5128 48.748749
959.5167 13.213213
960.5146 2.802803
1003.5127 4.304304
1004.5212 1.901902
1025.4950 10.410410
1026.4978 5.605606
1027.4973 1.601602
1075.4413 2.102102
1076.4427 1.701702
1093.4812 2.502503
1094.4878 1.601602
1161.4707 1.701702
1229.4550 1.201201


Name: 7-Hydroxy-2'-methoxyflavone
Synon: $:00in-source
DB#: MetaboBASE0417
InChIKey: PFEQKIBOPJQNBI-UHFFFAOYSA-N
Instrument_type: LC-ESI-TOF
Instrument: impact HD
Ion_mode: N
Formula: C16H12O4
MW: 268
ExactMass: 268.073558864
Comments: "cas number=77298-65-8" "SMILES=COc1ccccc1c2cc(=O)c3ccc(cc3o2)O" "InChI=InChI=1S/C16H12O4/c1-19-14-5-3-2-4-12(14)16-9-13(18)11-7-6-10(17)8-15(11)20-16/h2-9,17H,1H3" "computed SMILES=O=C1C=C(OC2=CC(O)=CC=C12)C=3C=CC=CC3OC" "license=License CC-BY-NC-SA 4.0 International" "author=Plant Biology, The Noble Foundation, Ardmore, OK, US/Dennis Fine, Daniel Wherritt, and Lloyd Sumner" "ionization=ESI" "collision gas=Nitrogen" "peak width=0.019" "date=2014-07-26 10:43:56+02:00" "column=Waters Acquity BEH C18 1.7um x 2.1 x 150 mm" "retention time=713.4" "raw data file=C:\Data\Confirmed standards 24_July_2014\MSMS\7Hydroxy2'methoxyflavon v120_1-C,1_01_498.d" "SPLASH=splash10-014i-0090000000-a6fdf66b8b1e69410065" "submitter=Aiko Barsch (Bruker)" "MoNA Rating=3.888888888888889"
Num Peaks: 11
224.0429 0.100100
251.0302 0.300300
252.0376 1.601602
253.0414 0.300300
267.0408 0.300300
267.0626 100.000000
267.0913 0.300300
267.5786 0.400400
268.0657 14.414414
269.0673 1.701702
270.0695 0.200200


Name: 7-Hydroxy-2'-methoxyflavone
Synon: $:00in-source
DB#: MetaboBASE0418
InChIKey: PFEQKIBOPJQNBI-UHFFFAOYSA-N
Precursor_type: [M-H]-
Spectrum_type: MS2
PrecursorMZ: 267.0624
Instrument_type: LC-ESI-TOF
Instrument: impact HD
Ion_mode: N
Collision_energy: 10
Formula: C16H12O4
MW: 268
ExactMass: 268.073558864
Comments: "cas number=77298-65-8" "SMILES=COc1ccccc1c2cc(=O)c3ccc(cc3o2)O" "InChI=InChI=1S/C16H12O4/c1-19-14-5-3-2-4-12(14)16-9-13(18)11-7-6-10(17)8-15(11)20-16/h2-9,17H,1H3" "computed SMILES=O=C1C=C(OC2=CC(O)=CC=C12)C=3C=CC=CC3OC" "license=License CC-BY-NC-SA 4.0 International" "author=Plant Biology, The Noble Foundation, Ardmore, OK, US/Dennis Fine, Daniel Wherritt, and Lloyd Sumner" "ionization=ESI" "isolation width=5" "collision gas=Nitrogen" "peak width=0.011" "date=2014-07-26 10:43:56+02:00" "column=Waters Acquity BEH C18 1.7um x 2.1 x 150 mm" "retention time=713.4" "raw data file=C:\Data\Confirmed standards 24_July_2014\MSMS\7Hydroxy2'methoxyflavon v120_1-C,1_01_498.d" "computed mass accuracy=14.53916388076571" "computed mass error=-0.0038828639999906045" "SPLASH=splash10-014i-0090000000-e3b9eed2b66f66a937b5" "submitter=Aiko Barsch (Bruker)" "MoNA Rating=4.545454545454546"
Num Peaks: 8
224.0428 0.400400
251.0303 1.701702
252.0383 4.804805
253.0410 0.400400
267.0624 100.000000
267.5787 0.200200
268.0653 11.311311
269.0672 0.700701


Name: 7-Hydroxy-2'-methoxyflavone
Synon: $:00in-source
DB#: MetaboBASE0419
InChIKey: PFEQKIBOPJQNBI-UHFFFAOYSA-N
Instrument_type: LC-ESI-TOF
Instrument: impact HD
Ion_mode: N
Collision_energy: 10
Formula: C16H12O4
MW: 268
ExactMass: 268.073558864
Comments: "cas number=77298-65-8" "SMILES=COc1ccccc1c2cc(=O)c3ccc(cc3o2)O" "InChI=InChI=1S/C16H12O4/c1-19-14-5-3-2-4-12(14)16-9-13(18)11-7-6-10(17)8-15(11)20-16/h2-9,17H,1H3" "computed SMILES=O=C1C=C(OC2=CC(O)=CC=C12)C=3C=CC=CC3OC" "license=License CC-BY-NC-SA 4.0 International" "author=Plant Biology, The Noble Foundation, Ardmore, OK, US/Dennis Fine, Daniel Wherritt, and Lloyd Sumner" "ionization=ESI" "collision gas=Nitrogen" "peak width=0.014" "date=2013-11-19 08:25:02+01:00" "column=Waters Acquity BEH C18 1.7um x 2.1 x 150 mm" "retention time=713.4" "raw data file=C:\Data\Confirmed Standards\Confirmed stds MSMS 14Nov13\7Hydroxy2'methoxyflavone v120.d" "SPLASH=splash10-014i-0090000000-2e699c362b240d06ae69" "submitter=Aiko Barsch (Bruker)" "MoNA Rating=4.444444444444445"
Num Peaks: 5
251.0343 1.501502
252.0421 5.505506
267.0661 100.000000
268.0691 16.116116
269.0713 1.601602


Name: 7-Hydroxy-2'-methoxyflavone
Synon: $:00in-source
DB#: MetaboBASE0420
InChIKey: PFEQKIBOPJQNBI-UHFFFAOYSA-N
Precursor_type: [M-H]-
Spectrum_type: MS2
PrecursorMZ: 267.0611
Instrument_type: LC-ESI-TOF
Instrument: impact HD
Ion_mode: N
Collision_energy: 30
Formula: C16H12O4
MW: 268
ExactMass: 268.073558864
Comments: "cas number=77298-65-8" "SMILES=COc1ccccc1c2cc(=O)c3ccc(cc3o2)O" "InChI=InChI=1S/C16H12O4/c1-19-14-5-3-2-4-12(14)16-9-13(18)11-7-6-10(17)8-15(11)20-16/h2-9,17H,1H3" "computed SMILES=O=C1C=C(OC2=CC(O)=CC=C12)C=3C=CC=CC3OC" "license=License CC-BY-NC-SA 4.0 International" "author=Plant Biology, The Noble Foundation, Ardmore, OK, US/Dennis Fine, Daniel Wherritt, and Lloyd Sumner" "ionization=ESI" "isolation width=5" "collision gas=Nitrogen" "peak width=0.012" "date=2014-07-26 10:43:56+02:00" "column=Waters Acquity BEH C18 1.7um x 2.1 x 150 mm" "retention time=713.4" "raw data file=C:\Data\Confirmed standards 24_July_2014\MSMS\7Hydroxy2'methoxyflavon v120_1-C,1_01_498.d" "computed mass accuracy=19.40703457001165" "computed mass error=-0.005182864000005338" "SPLASH=splash10-0udi-0190000000-dc7d5c4f1b0396ecafc1" "submitter=Aiko Barsch (Bruker)" "MoNA Rating=4.545454545454546"
Num Peaks: 212
116.0270 0.100100
117.0344 2.902903
118.0365 0.200200
131.0491 0.700701
132.0205 3.803804
133.0283 2.602603
134.0314 0.200200
135.0075 0.700701
147.0412 0.100100
152.0602 0.200200
154.0397 0.900901
167.0467 0.300300
168.0550 0.200200
179.0467 1.101101
180.0546 5.605606
181.0580 0.500501
183.0414 0.500501
195.0412 3.203203
196.0487 4.104104
197.0531 0.400400
207.0410 1.001001
208.0486 6.706707
209.0518 0.900901
211.0360 1.601602
212.0380 0.100100
213.0488 0.100100
222.0260 0.200200
223.0354 11.111111
223.0698 0.100100
224.0437 44.144144
225.0466 5.005005
226.0481 0.300300
235.0358 0.500501
250.0227 0.500501
251.0309 100.000000
252.0372 39.939940
253.0406 4.504505
254.0440 0.300300
267.0611 7.007007
268.0651 1.101101
839.1794 0.100100
859.4079 0.100100
859.9354 0.100100
871.2224 0.100100
881.2956 0.100100
901.7333 0.100100
925.3580 0.100100
930.3935 0.100100
934.4387 0.100100
942.5375 0.100100
947.0218 0.100100
950.9128 0.100100
955.9245 0.100100
957.4324 0.100100
965.6786 0.100100
974.8699 0.100100
975.1443 0.100100
980.4233 0.100100
996.8054 0.100100
1001.1179 0.100100
1004.2946 0.100100
1005.1982 0.100100
1014.0180 0.100100
1016.0433 0.100100
1017.2419 0.100100
1025.7722 0.100100
1026.6991 0.100100
1027.2559 0.100100
1049.1266 0.100100
1054.9706 0.100100
1063.6102 0.100100
1063.9460 0.100100
1067.6545 0.100100
1071.0144 0.100100
1080.1855 0.100100
1080.2521 0.100100
1089.7151 0.100100
1094.3671 0.100100
1102.2183 0.100100
1109.6125 0.100100
1118.0464 0.100100
1118.9567 0.100100
1121.4923 0.100100
1123.4043 0.100100
1127.0601 0.100100
1127.6868 0.100100
1140.8840 0.100100
1145.0319 0.100100
1145.2617 0.100100
1147.3624 0.100100
1148.7925 0.100100
1149.3597 0.100100
1152.7063 0.100100
1160.5132 0.100100
1162.1633 0.100100
1174.9056 0.100100
1175.7629 0.100100
1176.6467 0.100100
1179.5198 0.100100
1180.1072 0.100100
1180.8370 0.100100
1183.4459 0.100100
1185.4363 0.100100
1188.1285 0.100100
1188.8331 0.100100
1193.2975 0.100100
1197.8401 0.100100
1202.2659 0.100100
1204.8478 0.100100
1219.8806 0.100100
1227.4402 0.100100
1228.5201 0.100100
1231.1158 0.100100
1232.9302 0.100100
1233.4520 0.100100
1240.8981 0.100100
1244.2798 0.100100
1256.9952 0.100100
1262.0941 0.100100
1264.2216 0.100100
1269.2722 0.100100
1270.7310 0.100100
1271.4912 0.100100
1275.5507 0.100100
1275.6278 0.100100
1279.7622 0.100100
1283.2797 0.100100
1283.9393 0.100100
1285.5063 0.100100
1288.0662 0.100100
1288.3571 0.100100
1290.2062 0.100100
1291.1143 0.100100
1293.6619 0.100100
1295.1211 0.100100
1297.1466 0.100100
1297.7262 0.100100
1300.9430 0.100100
1304.0339 0.100100
1304.8812 0.100100
1309.2611 0.100100
1309.8184 0.100100
1309.9946 0.100100
1310.7504 0.100100
1313.3561 0.100100
1314.0721 0.100100
1315.3411 0.100100
1315.8477 0.100100
1318.1489 0.100100
1322.2419 0.100100
1328.4473 0.100100
1330.5192 0.100100
1332.0161 0.100100
1332.7515 0.100100
1334.8918 0.100100
1337.9576 0.100100
1338.0630 0.100100
1338.2351 0.100100
1338.7710 0.100100
1342.1722 0.100100
1346.1722 0.100100
1353.6022 0.100100
1357.1960 0.100100
1362.9592 0.100100
1370.8147 0.100100
1371.9929 0.100100
1372.4037 0.100100
1373.5074 0.100100
1379.6194 0.100100
1379.9991 0.100100
1380.2644 0.100100
1380.2821 0.100100
1380.3291 0.100100
1385.1931 0.100100
1388.6240 0.100100
1389.8773 0.100100
1391.3208 0.100100
1395.9720 0.100100
1402.2109 0.100100
1403.9017 0.100100
1407.3627 0.100100
1418.0032 0.100100
1421.0337 0.100100
1424.2990 0.100100
1431.2582 0.100100
1433.9510 0.100100
1434.4825 0.100100
1437.4711 0.100100
1437.8525 0.100100
1441.0527 0.100100
1442.1847 0.100100
1444.9489 0.100100
1448.7366 0.100100
1457.2273 0.100100
1459.0577 0.100100
1460.6000 0.100100
1461.0393 0.100100
1468.0459 0.100100
1468.1163 0.100100
1468.3698 0.100100
1472.2511 0.100100
1476.7352 0.100100
1479.7960 0.100100
1482.8978 0.100100
1489.2013 0.100100
1493.9519 0.100100
1497.8888 0.100100
1498.0104 0.100100
1498.2223 0.100100
1500.4777 0.100100
1504.3110 0.100100
1504.8405 0.100100


Name: 7-Hydroxy-2'-methoxyflavone
Synon: $:00in-source
DB#: MetaboBASE0421
InChIKey: PFEQKIBOPJQNBI-UHFFFAOYSA-N
Precursor_type: [M-H]-
Spectrum_type: MS2
PrecursorMZ: 267.0623
Instrument_type: LC-ESI-TOF
Instrument: impact HD
Ion_mode: N
Collision_energy: 20
Formula: C16H12O4
MW: 268
ExactMass: 268.073558864
Comments: "cas number=77298-65-8" "SMILES=COc1ccccc1c2cc(=O)c3ccc(cc3o2)O" "InChI=InChI=1S/C16H12O4/c1-19-14-5-3-2-4-12(14)16-9-13(18)11-7-6-10(17)8-15(11)20-16/h2-9,17H,1H3" "computed SMILES=O=C1C=C(OC2=CC(O)=CC=C12)C=3C=CC=CC3OC" "license=License CC-BY-NC-SA 4.0 International" "author=Plant Biology, The Noble Foundation, Ardmore, OK, US/Dennis Fine, Daniel Wherritt, and Lloyd Sumner" "ionization=ESI" "isolation width=5" "collision gas=Nitrogen" "peak width=0.013" "date=2014-07-26 10:43:56+02:00" "column=Waters Acquity BEH C18 1.7um x 2.1 x 150 mm" "retention time=713.4" "raw data file=C:\Data\Confirmed standards 24_July_2014\MSMS\7Hydroxy2'methoxyflavon v120_1-C,1_01_498.d" "computed mass accuracy=14.913613789824868" "computed mass error=-0.003982864000022346" "SPLASH=splash10-0uxr-0090000000-90f66cdd8cd892da9209" "submitter=Aiko Barsch (Bruker)" "MoNA Rating=4.545454545454546"
Num Peaks: 124
117.0333 0.100100
131.0494 0.300300
132.0204 0.400400
133.0278 0.100100
135.0070 0.200200
154.0408 0.100100
180.0547 1.001001
183.0423 0.100100
195.0409 0.500501
196.0488 0.500501
197.0548 0.100100
207.0417 0.100100
208.0485 2.502503
209.0534 0.300300
211.0355 0.400400
223.0353 2.202202
223.0710 0.200200
224.0434 13.113113
225.0467 1.701702
235.0353 0.100100
251.0309 41.741742
252.0385 88.188188
253.0415 9.009009
254.0440 0.600601
267.0623 100.000000
268.0651 12.712713
269.0672 0.800801
911.2343 0.100100
959.6270 0.100100
978.1511 0.100100
994.6824 0.100100
1007.0812 0.100100
1013.3096 0.100100
1077.9021 0.100100
1097.8723 0.100100
1099.0066 0.100100
1125.5154 0.100100
1135.9399 0.100100
1156.4038 0.100100
1163.5453 0.100100
1165.4517 0.100100
1172.5790 0.100100
1176.3112 0.100100
1178.9849 0.100100
1185.2083 0.100100
1191.3187 0.100100
1192.4047 0.100100
1196.9674 0.100100
1200.9812 0.100100
1208.0709 0.100100
1210.7059 0.100100
1218.3585 0.100100
1234.1226 0.100100
1237.3964 0.100100
1237.6426 0.100100
1243.0089 0.100100
1244.0206 0.100100
1246.2531 0.100100
1248.7623 0.100100
1251.1320 0.100100
1251.4479 0.100100
1269.3555 0.100100
1272.9681 0.100100
1276.1095 0.100100
1276.6730 0.100100
1279.1218 0.100100
1288.4652 0.100100
1311.3188 0.100100
1314.2140 0.100100
1315.5474 0.100100
1315.6871 0.100100
1316.9716 0.100100
1322.7451 0.100100
1324.7474 0.100100
1325.3890 0.100100
1343.3007 0.100100
1344.0546 0.100100
1359.8885 0.100100
1362.8657 0.100100
1366.4607 0.100100
1366.6561 0.100100
1367.2219 0.100100
1368.6276 0.100100
1373.7714 0.100100
1376.2584 0.100100
1377.3796 0.100100
1380.2626 0.100100
1385.0413 0.100100
1388.4204 0.100100
1388.6016 0.100100
1390.3708 0.100100
1390.8749 0.100100
1398.4923 0.100100
1402.3591 0.100100
1404.5642 0.100100
1404.6017 0.100100
1408.5618 0.100100
1419.8602 0.100100
1423.0789 0.100100
1424.2499 0.100100
1427.0945 0.100100
1427.1331 0.100100
1428.6740 0.100100
1436.6422 0.100100
1439.9500 0.100100
1443.4133 0.100100
1444.5527 0.100100
1444.7990 0.100100
1445.3640 0.100100
1451.9147 0.100100
1454.3287 0.100100
1455.2269 0.100100
1458.5123 0.100100
1459.0718 0.100100
1460.6980 0.100100
1461.7761 0.100100
1475.1257 0.100100
1475.2390 0.100100
1477.3560 0.100100
1480.9602 0.100100
1482.8928 0.100100
1485.6346 0.100100
1501.6052 0.100100
1504.8433 0.100100


Name: 7-Hydroxy-2'-methoxyflavone
Synon: $:00in-source
DB#: MetaboBASE0422
InChIKey: PFEQKIBOPJQNBI-UHFFFAOYSA-N
Precursor_type: [M-H]-
Spectrum_type: MS2
PrecursorMZ: 267.07
Instrument_type: LC-ESI-TOF
Instrument: impact HD
Ion_mode: N
Collision_energy: 50
Formula: C16H12O4
MW: 268
ExactMass: 268.073558864
Comments: "cas number=77298-65-8" "SMILES=COc1ccccc1c2cc(=O)c3ccc(cc3o2)O" "InChI=InChI=1S/C16H12O4/c1-19-14-5-3-2-4-12(14)16-9-13(18)11-7-6-10(17)8-15(11)20-16/h2-9,17H,1H3" "computed SMILES=O=C1C=C(OC2=CC(O)=CC=C12)C=3C=CC=CC3OC" "license=License CC-BY-NC-SA 4.0 International" "author=Plant Biology, The Noble Foundation, Ardmore, OK, US/Dennis Fine, Daniel Wherritt, and Lloyd Sumner" "ionization=ESI" "isolation width=5" "collision gas=Nitrogen" "peak width=0.016" "date=2014-07-26 10:43:56+02:00" "column=Waters Acquity BEH C18 1.7um x 2.1 x 150 mm" "retention time=713.4" "raw data file=C:\Data\Confirmed standards 24_July_2014\MSMS\7Hydroxy2'methoxyflavon v120_1-C,1_01_498.d" "computed mass accuracy=13.91820870924279" "computed mass error=0.0037171359999774722" "SPLASH=splash10-0159-0940000000-72152c8fb80364e0ac30" "submitter=Aiko Barsch (Bruker)" "MoNA Rating=4.545454545454546"
Num Peaks: 223
116.0267 4.804805
117.0346 100.000000
118.0375 6.906907
125.0398 0.600601
129.0308 0.500501
131.0496 0.700701
132.0202 10.010010
133.0283 57.557558
133.0538 0.400400
134.0313 3.003003
135.0076 6.206206
139.0526 2.102102
141.0316 1.101101
142.0399 0.400400
151.0527 2.402402
152.0610 0.900901
153.0159 0.600601
153.0331 0.900901
154.0396 4.004004
155.0470 0.700701
157.0261 3.303303
163.0530 0.700701
166.0363 0.500501
167.0471 17.917918
168.0521 2.102102
169.0272 0.600601
169.0625 1.701702
170.0346 0.900901
178.0368 0.600601
179.0468 12.212212
180.0533 6.506507
181.0272 1.601602
181.0568 0.900901
182.0322 1.001001
183.0399 2.502503
184.0447 0.400400
194.0322 1.501502
195.0412 58.058058
196.0448 7.407407
197.0527 1.601602
198.0259 0.500501
207.0407 13.113113
208.0448 2.002002
210.0277 0.800801
211.0345 2.202202
212.0401 0.400400
213.0512 1.601602
222.0266 7.407407
223.0355 43.543544
224.0406 12.012012
225.0443 1.501502
235.0346 0.900901
250.0208 3.803804
251.0294 49.549550
252.0333 7.207207
253.0371 0.400400
517.9139 0.400400
570.3834 0.400400
584.4887 0.400400
621.6893 0.400400
645.6729 0.400400
653.3762 0.400400
663.8096 0.400400
667.8667 0.400400
687.6558 0.400400
687.6978 0.400400
699.3137 0.400400
707.2681 0.500501
718.3127 0.400400
720.6013 0.400400
729.6812 0.500501
755.8416 0.400400
760.3795 0.400400
770.4621 0.400400
782.8719 0.500501
790.7099 0.400400
805.9337 0.400400
810.8883 0.400400
819.4595 0.400400
822.8437 0.400400
824.9603 0.400400
825.9137 0.400400
828.5339 0.400400
829.9807 0.400400
835.5868 0.400400
843.8919 0.500501
855.1295 0.400400
855.5860 0.400400
855.9316 0.400400
856.5804 0.400400
858.2732 0.400400
858.3793 0.500501
875.9131 0.400400
880.9900 0.400400
881.1258 0.500501
886.0839 0.400400
886.5542 0.400400
890.8741 0.400400
891.9380 0.400400
898.5721 0.400400
907.1357 0.400400
917.3269 0.400400
923.0427 0.500501
935.5390 0.400400
935.8361 0.400400
937.0460 0.500501
940.3275 0.400400
940.9098 0.400400
944.7036 0.400400
946.1636 0.500501
947.2673 0.400400
948.5817 0.400400
948.6746 0.400400
962.1614 0.400400
964.4797 0.400400
968.1426 0.500501
968.1757 0.400400
973.5612 0.400400
982.5846 0.400400
983.2847 0.400400
987.1746 0.400400
987.8151 0.400400
989.3218 0.400400
992.9241 0.500501
997.5727 0.400400
1000.2711 0.400400
1000.9930 0.400400
1005.8481 0.400400
1014.7887 0.400400
1019.3598 0.500501
1023.3987 0.400400
1045.8112 0.500501
1048.7711 0.400400
1053.4335 0.400400
1054.4011 0.400400
1067.9451 0.400400
1071.9899 0.400400
1072.7087 0.400400
1091.1886 0.400400
1102.5560 0.400400
1102.8571 0.400400
1110.9552 0.400400
1119.6588 0.400400
1120.4192 0.400400
1126.8843 0.400400
1137.7748 0.400400
1137.9657 0.400400
1154.0765 0.400400
1155.6904 0.400400
1161.4441 0.400400
1162.1246 0.500501
1164.0486 0.400400
1164.0968 0.400400
1166.8448 0.400400
1183.0500 0.400400
1190.8778 0.400400
1191.0186 0.400400
1192.5266 0.400400
1194.8269 0.400400
1202.4473 0.400400
1211.0099 0.500501
1213.4221 0.600601
1215.9104 0.400400
1216.6519 0.500501
1216.7040 0.400400
1216.9063 0.400400
1220.1039 0.400400
1221.6188 0.400400
1242.8397 0.400400
1248.4631 0.400400
1251.0483 0.400400
1255.3876 0.400400
1256.5313 0.400400
1261.8346 0.400400
1268.5863 0.600601
1271.7858 0.400400
1274.7408 0.500501
1277.9596 0.400400
1278.0732 0.400400
1280.8092 0.400400
1302.1522 0.400400
1318.6575 0.400400
1318.7688 0.400400
1323.7794 0.500501
1326.6350 0.400400
1329.3514 0.400400
1329.5416 0.400400
1336.8387 0.400400
1341.7686 0.500501
1344.3182 0.400400
1349.8945 0.400400
1350.3959 0.400400
1356.4744 0.400400
1360.9546 0.400400
1372.8574 0.400400
1375.0641 0.400400
1375.6141 0.500501
1375.9904 0.400400
1376.0314 0.500501
1376.9465 0.400400
1377.0371 0.400400
1400.8738 0.400400
1401.1852 0.400400
1407.1990 0.400400
1407.3613 0.400400
1411.6433 0.400400
1416.5638 0.400400
1417.3984 0.400400
1422.6975 0.400400
1431.2861 0.400400
1442.2795 0.400400
1453.2234 0.400400
1458.2314 0.400400
1459.7640 0.400400
1462.8693 0.400400
1464.4050 0.400400
1468.6792 0.400400
1470.1437 0.400400
1477.6160 0.400400
1480.2805 0.400400
1483.2451 0.600601
1486.5471 0.400400
1494.9934 0.400400


Name: 7-Hydroxy-2'-methoxyflavone
Synon: $:00in-source
DB#: MetaboBASE0423
InChIKey: PFEQKIBOPJQNBI-UHFFFAOYSA-N
Precursor_type: [M-H]-
Spectrum_type: MS2
PrecursorMZ: 267.0609
Instrument_type: LC-ESI-TOF
Instrument: impact HD
Ion_mode: N
Collision_energy: 40
Formula: C16H12O4
MW: 268
ExactMass: 268.073558864
Comments: "cas number=77298-65-8" "SMILES=COc1ccccc1c2cc(=O)c3ccc(cc3o2)O" "InChI=InChI=1S/C16H12O4/c1-19-14-5-3-2-4-12(14)16-9-13(18)11-7-6-10(17)8-15(11)20-16/h2-9,17H,1H3" "computed SMILES=O=C1C=C(OC2=CC(O)=CC=C12)C=3C=CC=CC3OC" "license=License CC-BY-NC-SA 4.0 International" "author=Plant Biology, The Noble Foundation, Ardmore, OK, US/Dennis Fine, Daniel Wherritt, and Lloyd Sumner" "ionization=ESI" "isolation width=5" "collision gas=Nitrogen" "peak width=0.0094" "date=2014-07-26 10:43:56+02:00" "column=Waters Acquity BEH C18 1.7um x 2.1 x 150 mm" "retention time=713.4" "raw data file=C:\Data\Confirmed standards 24_July_2014\MSMS\7Hydroxy2'methoxyflavon v120_1-C,1_01_498.d" "computed mass accuracy=20.15594195935076" "computed mass error=-0.005382864000011978" "SPLASH=splash10-0uk9-0590000000-f2228554aaa348555ac5" "submitter=Aiko Barsch (Bruker)" "MoNA Rating=4.545454545454546"
Num Peaks: 215
108.0201 0.200200
116.0261 1.601602
117.0345 31.531532
118.0374 1.801802
130.0420 0.200200
131.0482 0.600601
132.0206 8.408408
133.0283 21.921922
134.0311 1.501502
135.0074 3.303303
139.0531 0.200200
144.0182 0.200200
151.0528 0.400400
152.0609 0.500501
153.0173 0.300300
154.0402 2.502503
155.0466 0.300300
157.0271 0.500501
167.0464 2.902903
168.0537 0.800801
169.0635 0.400400
175.0016 0.200200
179.0462 5.205205
180.0544 8.908909
181.0244 0.200200
181.0580 1.101101
182.0338 0.300300
183.0405 1.201201
195.0411 18.018018
196.0475 5.405405
197.0534 1.101101
207.0402 7.007007
208.0479 4.404404
209.0505 0.400400
211.0350 2.102102
212.0410 0.300300
213.0511 0.900901
222.0266 2.002002
223.0354 34.034034
224.0427 34.534535
225.0460 4.204204
226.0510 0.200200
235.0359 1.001001
250.0220 2.302302
251.0304 100.000000
252.0341 14.614615
253.0385 1.001001
267.0609 0.300300
606.9432 0.200200
668.6517 0.200200
715.0040 0.200200
744.4117 0.200200
776.9324 0.200200
789.7531 0.200200
805.5304 0.200200
814.1066 0.200200
815.6989 0.200200
828.1281 0.200200
833.6837 0.200200
847.3333 0.200200
853.4257 0.200200
877.8350 0.200200
888.0694 0.200200
888.8052 0.200200
897.8492 0.200200
900.2422 0.200200
900.2889 0.200200
902.5063 0.200200
904.9904 0.200200
914.6520 0.200200
916.6518 0.200200
921.1230 0.200200
922.9326 0.200200
932.6395 0.200200
934.0787 0.200200
942.1517 0.200200
945.6973 0.200200
949.7003 0.200200
953.8773 0.200200
958.5643 0.200200
959.8881 0.200200
965.6452 0.200200
1001.5060 0.200200
1007.0829 0.200200
1009.9351 0.200200
1011.0645 0.200200
1011.5398 0.200200
1012.0757 0.200200
1012.6646 0.200200
1013.7510 0.200200
1014.3435 0.200200
1014.9883 0.200200
1015.0303 0.200200
1022.6649 0.200200
1026.7859 0.200200
1028.4165 0.200200
1028.5940 0.200200
1030.0575 0.200200
1031.4344 0.200200
1035.5157 0.200200
1038.1957 0.200200
1039.6566 0.200200
1041.1552 0.200200
1042.0188 0.200200
1042.5895 0.200200
1055.1364 0.200200
1056.2491 0.200200
1057.8107 0.200200
1060.1866 0.200200
1067.8461 0.200200
1069.8207 0.200200
1070.1763 0.200200
1072.6196 0.200200
1094.5087 0.200200
1094.8210 0.200200
1095.2828 0.200200
1098.5482 0.200200
1100.7505 0.200200
1101.0469 0.200200
1103.8927 0.200200
1114.9977 0.200200
1116.3254 0.200200
1119.5474 0.200200
1122.9198 0.200200
1123.8208 0.200200
1129.6820 0.200200
1134.7839 0.200200
1146.0653 0.200200
1149.4980 0.200200
1157.4309 0.200200
1157.6548 0.200200
1166.9727 0.200200
1171.8459 0.200200
1177.6934 0.200200
1180.4753 0.200200
1182.5099 0.200200
1185.4242 0.200200
1191.9603 0.200200
1193.1847 0.200200
1201.3715 0.200200
1201.7347 0.200200
1202.6913 0.200200
1206.2159 0.200200
1207.6243 0.200200
1208.2323 0.200200
1212.6108 0.200200
1214.8073 0.200200
1218.0906 0.200200
1222.6133 0.200200
1232.9214 0.200200
1236.0704 0.200200
1246.3352 0.200200
1250.0479 0.200200
1250.2817 0.200200
1259.1489 0.200200
1259.9081 0.200200
1263.3800 0.200200
1264.2809 0.200200
1275.1833 0.200200
1278.5677 0.200200
1295.4655 0.200200
1301.8781 0.200200
1310.3395 0.200200
1315.0004 0.200200
1317.1434 0.200200
1324.3872 0.200200
1325.6677 0.200200
1335.7251 0.200200
1336.9188 0.200200
1342.2991 0.200200
1345.7402 0.200200
1346.0712 0.200200
1347.8237 0.200200
1351.0323 0.200200
1355.3936 0.200200
1366.6691 0.200200
1368.2516 0.200200
1376.1775 0.200200
1379.3444 0.200200
1383.3427 0.200200
1383.9222 0.300300
1385.4316 0.200200
1385.5996 0.200200
1386.5887 0.200200
1397.2401 0.200200
1407.1235 0.200200
1410.2302 0.200200
1420.2648 0.200200
1421.6187 0.200200
1426.4457 0.200200
1428.3815 0.200200
1435.7804 0.200200
1438.0443 0.200200
1438.5399 0.200200
1440.6497 0.200200
1441.6080 0.200200
1442.0258 0.200200
1442.6155 0.200200
1446.1329 0.200200
1446.2550 0.200200
1452.6666 0.200200
1453.6680 0.200200
1456.7418 0.200200
1457.8042 0.200200
1458.7598 0.200200
1461.4233 0.200200
1470.5262 0.200200
1470.6332 0.200200
1475.5905 0.200200
1479.7308 0.200200
1481.3237 0.200200
1490.6505 0.200200
1495.0826 0.200200
1497.5596 0.200200
1504.0233 0.200200


Name: Epicatechin
Synon: $:00in-source
DB#: MetaboBASE0424
InChIKey: PFTAWBLQPZVEMU-UKRRQHHQSA-N
Instrument_type: LC-ESI-TOF
Instrument: impact HD
Ion_mode: N
Formula: C15H14O6
MW: 290
ExactMass: 290.079038168
Comments: "cas number=2545-08-6" "SMILES=c1cc(c(cc1[C@@H]2[C@@H](Cc3c(cc(cc3O2)O)O)O)O)O" "InChI=InChI=1S/C15H14O6/c16-8-4-11(18)9-6-13(20)15(21-14(9)5-8)7-1-2-10(17)12(19)3-7/h1-5,13,15-20H,6H2/t13-,15-/m1/s1" "computed SMILES=OC=1C=C(O)C2=C(OC(C3=CC=C(O)C(O)=C3)C(O)C2)C1" "computed InChI=InChI=1S/C15H14O6/c16-8-4-11(18)9-6-13(20)15(21-14(9)5-8)7-1-2-10(17)12(19)3-7/h1-5,13,15-20H,6H2" "synonym=(-) Epicatechin" "license=License CC-BY-NC-SA 4.0 International" "author=Plant Biology, The Noble Foundation, Ardmore, OK, US/Dennis Fine, Daniel Wherritt, and Lloyd Sumner" "ionization=ESI" "collision gas=Nitrogen" "peak width=0.012" "date=2014-01-11 03:57:32+01:00" "column=Waters Acquity BEH C18 1.7um x 2.1 x 150 mm" "retention time=175.2" "raw data file=C:\Data\Confirmed Standards\14Jan10 Confirmed stds MSMS\Epicatechin (vial 249).d" "SPLASH=splash10-002r-0090060010-fa16cfeadd4bc0a05e53" "submitter=Aiko Barsch (Bruker)" "MoNA Rating=3.888888888888889"
Num Peaks: 15
287.0566 28.628629
288.0599 2.902903
289.0723 100.000000
290.0756 12.112112
575.1199 2.302302
577.1359 26.126126
578.1394 5.805806
579.1517 52.052052
580.1554 13.713714
581.1573 2.302302
867.2140 9.109109
868.2178 4.004004
869.2288 7.407407
870.2328 3.303303
1157.2916 2.102102


Name: Epicatechin
Synon: $:00in-source
DB#: MetaboBASE0425
InChIKey: PFTAWBLQPZVEMU-UKRRQHHQSA-N
Precursor_type: [M-H]-
Spectrum_type: MS2
PrecursorMZ: 289.0722
Instrument_type: LC-ESI-TOF
Instrument: impact HD
Ion_mode: N
Collision_energy: 20
Formula: C15H14O6
MW: 290
ExactMass: 290.079038168
Comments: "cas number=2545-08-6" "SMILES=c1cc(c(cc1[C@@H]2[C@@H](Cc3c(cc(cc3O2)O)O)O)O)O" "InChI=InChI=1S/C15H14O6/c16-8-4-11(18)9-6-13(20)15(21-14(9)5-8)7-1-2-10(17)12(19)3-7/h1-5,13,15-20H,6H2/t13-,15-/m1/s1" "computed SMILES=OC=1C=C(O)C2=C(OC(C3=CC=C(O)C(O)=C3)C(O)C2)C1" "computed InChI=InChI=1S/C15H14O6/c16-8-4-11(18)9-6-13(20)15(21-14(9)5-8)7-1-2-10(17)12(19)3-7/h1-5,13,15-20H,6H2" "synonym=(-) Epicatechin" "license=License CC-BY-NC-SA 4.0 International" "author=Plant Biology, The Noble Foundation, Ardmore, OK, US/Dennis Fine, Daniel Wherritt, and Lloyd Sumner" "ionization=ESI" "isolation width=5" "collision gas=Nitrogen" "peak width=0.016" "date=2014-01-11 03:57:32+01:00" "column=Waters Acquity BEH C18 1.7um x 2.1 x 150 mm" "retention time=175.2" "raw data file=C:\Data\Confirmed Standards\14Jan10 Confirmed stds MSMS\Epicatechin (vial 249).d" "computed mass accuracy=1.5146112285743927" "computed mass error=4.378319999887026E-4" "SPLASH=splash10-05bk-0950000000-741428eb8454f83974a0" "submitter=Aiko Barsch (Bruker)" "MoNA Rating=4.583333333333334"
Num Peaks: 17
109.0295 86.886887
121.0293 15.515516
123.0462 39.539540
125.0249 78.678679
137.0247 48.748749
149.0256 34.534535
151.0419 40.340340
165.0244 15.615616
167.0349 18.718719
179.0367 16.516517
188.0493 17.617618
203.0683 22.722723
221.0848 31.231231
227.0683 34.734735
230.0553 15.715716
245.0800 100.000000
289.0722 61.561562


Name: Epicatechin
Synon: $:00in-source
DB#: MetaboBASE0426
InChIKey: PFTAWBLQPZVEMU-UKRRQHHQSA-N
Instrument_type: LC-ESI-TOF
Instrument: impact HD
Ion_mode: N
Collision_energy: 10
Formula: C15H14O6
MW: 290
ExactMass: 290.07903816799995
Comments: "cas number=2545-08-6" "SMILES=c1cc(c(cc1[C@@H]2[C@@H](Cc3c(cc(cc3O2)O)O)O)O)O" "InChI=InChI=1S/C15H14O6/c16-8-4-11(18)9-6-13(20)15(21-14(9)5-8)7-1-2-10(17)12(19)3-7/h1-5,13,15-20H,6H2/t13-,15-/m1/s1" "computed SMILES=OC=1C=C(O)C2=C(OC(C3=CC=C(O)C(O)=C3)C(O)C2)C1" "computed InChI=InChI=1S/C15H14O6/c16-8-4-11(18)9-6-13(20)15(21-14(9)5-8)7-1-2-10(17)12(19)3-7/h1-5,13,15-20H,6H2" "synonym=(-) Epicatechin" "license=License CC-BY-NC-SA 4.0 International" "author=Plant Biology, The Noble Foundation, Ardmore, OK, US/Dennis Fine, Daniel Wherritt, and Lloyd Sumner" "ionization=ESI" "collision gas=Nitrogen" "peak width=0.017" "date=2013-11-21 06:26:02+01:00" "column=Waters Acquity BEH C18 1.7um x 2.1 x 150 mm" "retention time=176.4" "raw data file=C:\Data\Confirmed Standards\Confirmed Stds 19Nov13\Epicatechin (vial 249) 3 uL.d" "SPLASH=splash10-000i-0090000000-6531ef6ba99afaf52425" "submitter=Aiko Barsch (Bruker)" "MoNA Rating=4.444444444444445"
Num Peaks: 15
137.0238 2.302302
243.0673 3.703704
245.0821 17.317317
246.0872 3.703704
259.0621 7.007007
287.0562 17.017017
288.0625 3.703704
289.0726 100.000000
290.0765 12.212212
291.0805 2.802803
303.0512 3.303303
311.0551 3.803804
373.0229 2.902903
433.9962 2.902903
556.0024 5.605606


Name: Epicatechin
Synon: $:00in-source
DB#: MetaboBASE0427
InChIKey: PFTAWBLQPZVEMU-UKRRQHHQSA-N
Precursor_type: [M-H]-
Spectrum_type: MS2
PrecursorMZ: 289.0721
Instrument_type: LC-ESI-TOF
Instrument: impact HD
Ion_mode: N
Collision_energy: 10
Formula: C15H14O6
MW: 290
ExactMass: 290.079038168
Comments: "cas number=2545-08-6" "SMILES=c1cc(c(cc1[C@@H]2[C@@H](Cc3c(cc(cc3O2)O)O)O)O)O" "InChI=InChI=1S/C15H14O6/c16-8-4-11(18)9-6-13(20)15(21-14(9)5-8)7-1-2-10(17)12(19)3-7/h1-5,13,15-20H,6H2/t13-,15-/m1/s1" "computed SMILES=OC=1C=C(O)C2=C(OC(C3=CC=C(O)C(O)=C3)C(O)C2)C1" "computed InChI=InChI=1S/C15H14O6/c16-8-4-11(18)9-6-13(20)15(21-14(9)5-8)7-1-2-10(17)12(19)3-7/h1-5,13,15-20H,6H2" "synonym=(-) Epicatechin" "license=License CC-BY-NC-SA 4.0 International" "author=Plant Biology, The Noble Foundation, Ardmore, OK, US/Dennis Fine, Daniel Wherritt, and Lloyd Sumner" "ionization=ESI" "isolation width=5" "collision gas=Nitrogen" "peak width=0.014" "date=2014-01-11 03:57:32+01:00" "column=Waters Acquity BEH C18 1.7um x 2.1 x 150 mm" "retention time=175.2" "raw data file=C:\Data\Confirmed Standards\14Jan10 Confirmed stds MSMS\Epicatechin (vial 249).d" "computed mass accuracy=1.1686772952386661" "computed mass error=3.378319999569612E-4" "SPLASH=splash10-000i-0090000000-556ed7e0a7c3d19ecd86" "submitter=Aiko Barsch (Bruker)" "MoNA Rating=4.583333333333334"
Num Peaks: 6
243.0642 2.002002
245.0806 11.711712
259.0613 5.305305
287.0552 8.008008
289.0721 100.000000
290.0748 13.313313


Name: Epicatechin
Synon: $:00in-source
DB#: MetaboBASE0428
InChIKey: PFTAWBLQPZVEMU-UKRRQHHQSA-N
Instrument_type: LC-ESI-TOF
Instrument: impact HD
Ion_mode: N
Formula: C15H14O6
MW: 290
ExactMass: 290.07903816799995
Comments: "cas number=2545-08-6" "SMILES=c1cc(c(cc1[C@@H]2[C@@H](Cc3c(cc(cc3O2)O)O)O)O)O" "InChI=InChI=1S/C15H14O6/c16-8-4-11(18)9-6-13(20)15(21-14(9)5-8)7-1-2-10(17)12(19)3-7/h1-5,13,15-20H,6H2/t13-,15-/m1/s1" "computed SMILES=OC=1C=C(O)C2=C(OC(C3=CC=C(O)C(O)=C3)C(O)C2)C1" "computed InChI=InChI=1S/C15H14O6/c16-8-4-11(18)9-6-13(20)15(21-14(9)5-8)7-1-2-10(17)12(19)3-7/h1-5,13,15-20H,6H2" "synonym=(-) Epicatechin" "license=License CC-BY-NC-SA 4.0 International" "author=Plant Biology, The Noble Foundation, Ardmore, OK, US/Dennis Fine, Daniel Wherritt, and Lloyd Sumner" "ionization=ESI" "collision gas=Nitrogen" "peak width=0.014" "date=2014-08-05 23:12:13+02:00" "column=Waters Acquity BEH C18 1.7um x 2.1 x 150 mm" "retention time=175.2" "raw data file=C:\Data\Confirmed standards 24_July_2014\MSMS\Sissotin vial 87 dil 50%MeOH_1-F,6_01_542.d" "SPLASH=splash10-001l-0071900002-461eb0f7b0e90ba28a37" "submitter=Aiko Barsch (Bruker)" "MoNA Rating=3.888888888888889"
Num Peaks: 250
112.9862 0.500501
116.9288 1.001001
187.1339 0.200200
255.1206 0.700701
268.0379 0.300300
283.0623 100.000000
284.0652 15.915916
285.0665 2.402402
286.0705 0.200200
304.9127 0.200200
317.0913 0.400400
325.0718 1.601602
326.0746 0.300300
355.0843 0.200200
367.0825 0.400400
445.1163 25.725726
446.1187 5.905906
447.1217 1.301301
448.1226 0.300300
481.0917 2.502503
482.0942 0.700701
483.0895 0.900901
484.0931 0.300300
491.1222 79.479479
492.1253 19.919920
493.1268 3.703704
494.1273 0.700701
495.1279 0.200200
513.1025 1.601602
514.1041 0.500501
521.1309 0.400400
533.1321 0.400400
534.1318 0.200200
535.1464 0.800801
536.1510 0.300300
543.0908 0.200200
547.0421 0.300300
556.0020 1.601602
557.0065 0.200200
559.1084 0.400400
563.0504 0.600601
564.0495 0.300300
565.1127 0.200200
575.0698 0.700701
576.0789 0.200200
581.0887 1.401401
582.0920 0.400400
583.0986 0.200200
585.0316 0.200200
588.0461 0.200200
590.0365 1.101101
591.0393 0.400400
633.2549 2.802803
634.2594 1.101101
635.2599 0.400400
640.0180 0.300300
643.0598 0.500501
644.0627 0.200200
649.0741 0.200200
649.0817 0.200200
655.9966 0.200200
658.0225 0.300300
659.0336 0.200200
661.0332 0.200200
661.2513 0.400400
662.2546 0.200200
666.0209 0.900901
667.0219 0.200200
701.2508 0.200200
708.0086 0.200200
711.0460 0.300300
723.2246 0.200200
729.1864 1.801802
730.1885 0.800801
731.1937 0.300300
823.8533 0.200200
836.0686 0.200200
840.7912 0.200200
855.9097 0.200200
857.7187 0.200200
865.2261 0.200200
884.8824 0.200200
891.2405 5.905906
891.3250 0.200200
892.2427 3.103103
893.2443 1.001001
893.7655 0.200200
894.2539 0.400400
895.2749 0.200200
899.3347 0.200200
913.2244 0.300300
914.2367 0.200200
927.2161 0.700701
927.2913 0.200200
928.2240 0.400400
929.2134 0.300300
930.2189 0.300300
932.4312 0.200200
935.8685 0.200200
937.2467 16.916917
938.2484 8.608609
939.2521 3.203203
940.2552 0.900901
941.2572 0.300300
942.0488 0.200200
943.2629 0.200200
944.1545 0.400400
944.2686 0.200200
945.1564 0.300300
948.2780 0.200200
958.6356 0.200200
959.2267 2.502503
960.2299 1.301301
961.2347 0.500501
962.2344 0.200200
971.2228 0.200200
973.5800 0.200200
975.1946 0.600601
975.2538 0.200200
976.2053 0.400400
977.1951 0.200200
979.2403 0.200200
979.7072 0.200200
980.2534 0.200200
981.2101 0.300300
981.2685 0.200200
982.2081 0.200200
983.2130 0.200200
989.1867 0.200200
990.1589 0.300300
991.1679 0.300300
991.2037 0.200200
993.1434 0.300300
994.1577 0.200200
995.1603 0.200200
996.1619 0.200200
997.1819 0.200200
1003.2536 0.200200
1003.2811 0.200200
1004.0159 0.200200
1005.2097 0.200200
1007.1756 0.200200
1009.1783 0.300300
1010.1748 0.200200
1010.2215 0.200200
1012.1595 0.200200
1021.1969 0.300300
1022.1990 0.200200
1023.1864 0.200200
1027.2262 0.300300
1028.1965 0.200200
1029.2064 0.200200
1029.4130 0.200200
1031.1594 0.200200
1032.1603 0.200200
1033.1571 0.200200
1034.2814 0.200200
1036.1250 0.200200
1040.1451 0.200200
1041.1302 0.200200
1043.1786 0.400400
1044.1859 0.300300
1045.1864 0.200200
1049.1906 0.300300
1050.1937 0.200200
1050.6738 0.200200
1054.2771 0.200200
1058.1577 0.300300
1059.1401 0.200200
1060.1577 0.200200
1061.1536 0.200200
1063.8586 0.200200
1068.2489 0.200200
1071.3231 0.200200
1075.0812 0.200200
1075.1127 0.200200
1079.3854 0.500501
1080.1274 0.200200
1080.3816 0.400400
1081.3982 0.200200
1092.9387 0.200200
1101.0763 0.200200
1101.3706 0.200200
1103.3524 0.200200
1107.1912 0.200200
1107.3854 0.200200
1109.4905 0.200200
1111.1536 0.200200
1112.1648 0.200200
1113.1635 0.200200
1114.2423 0.200200
1114.9203 0.200200
1120.6617 0.200200
1125.8713 0.200200
1130.1021 0.200200
1132.6705 0.200200
1133.2866 0.200200
1134.1078 0.200200
1134.8181 0.200200
1136.6575 0.200200
1161.2571 0.200200
1165.3918 0.200200
1170.7145 0.200200
1179.1544 0.200200
1181.7922 0.200200
1191.2651 0.200200
1200.2644 0.200200
1214.4940 0.200200
1233.0597 0.200200
1235.9570 0.200200
1237.7148 0.200200
1252.4552 0.200200
1260.4205 0.200200
1282.1492 0.200200
1337.3684 4.004004
1338.3687 3.003003
1339.3739 1.401401
1340.3702 0.500501
1340.9800 0.200200
1341.3800 0.200200
1359.3593 0.200200
1359.4117 0.200200
1360.3610 0.200200
1382.3706 0.200200
1383.3694 2.002002
1384.3760 1.501502
1385.3868 0.700701
1386.3824 0.400400
1387.3928 0.200200
1390.1798 0.200200
1390.2814 0.300300
1391.2906 0.300300
1392.2706 0.300300
1405.3535 1.201201
1406.3568 0.900901
1407.3533 0.500501
1408.3481 0.300300
1408.3892 0.200200
1421.3132 0.300300
1422.3251 0.300300
1423.2985 0.200200
1423.3217 0.200200
1427.3335 0.300300
1428.3319 0.300300
1428.3558 0.300300
1443.2958 0.300300
1444.3000 0.300300
1449.3656 0.200200
1467.3312 0.300300
1468.3271 0.200200


Name: 3,7,3',4',5'-Pentahydroxyflavone
Synon: Robinetin
Synon: $:00in-source
DB#: MetaboBASE0429
InChIKey: SOEDEYVDCDYMMH-UHFFFAOYSA-N
Instrument_type: LC-ESI-TOF
Instrument: impact HD
Ion_mode: N
Collision_energy: 10
Formula: C15H10O7
MW: 302
ExactMass: 302.04265266
Comments: "cas number=490-31-3" "SMILES=c1cc2c(cc1O)oc(c(c2=O)O)c3cc(c(c(c3)O)O)O" "InChI=InChI=1S/C15H10O7/c16-7-1-2-8-11(5-7)22-15(14(21)12(8)19)6-3-9(17)13(20)10(18)4-6/h1-5,16-18,20-21H" "computed SMILES=O=C1C(O)=C(OC2=CC(O)=CC=C12)C=3C=C(O)C(O)=C(O)C3" "license=License CC-BY-NC-SA 4.0 International" "author=Plant Biology, The Noble Foundation, Ardmore, OK, US/Dennis Fine, Daniel Wherritt, and Lloyd Sumner" "ionization=ESI" "collision gas=Nitrogen" "peak width=0.016" "date=2013-11-21 05:04:30+01:00" "column=Waters Acquity BEH C18 1.7um x 2.1 x 150 mm" "retention time=279" "raw data file=C:\Data\Confirmed Standards\Confirmed Stds 19Nov13\373'4'5'Pentahydroxyflavo dil.d" "SPLASH=splash10-0udj-0059013000-1aa6841ce3e79e4dc6db" "submitter=Aiko Barsch (Bruker)" "MoNA Rating=4.444444444444445"
Num Peaks: 32
135.0056 1.501502
162.9996 1.801802
271.0213 8.208208
272.0246 1.201201
285.0372 1.701702
299.0164 71.471471
300.0202 10.710711
301.0320 100.000000
302.0352 13.713714
303.0368 1.801802
317.0268 7.107107
318.0291 1.201201
335.0371 3.403403
569.0302 1.401401
573.0617 5.705706
574.0651 1.501502
599.0416 16.516517
600.0452 4.404404
601.0563 4.604605
602.0604 1.301301
603.0725 3.903904
604.0754 1.001001
615.0375 1.901902
617.0525 19.819820
618.0557 5.505506
619.0601 1.601602
633.0478 5.605606
634.0514 1.501502
651.0573 1.601602
901.0739 1.001001
919.0861 3.903904
920.0897 1.701702


Name: 3,7,3',4',5'-Pentahydroxyflavone
Synon: Robinetin
Synon: $:00in-source
DB#: MetaboBASE0430
InChIKey: SOEDEYVDCDYMMH-UHFFFAOYSA-N
Instrument_type: LC-ESI-TOF
Instrument: impact HD
Ion_mode: N
Formula: C15H10O7
MW: 302
ExactMass: 302.04265266
Comments: "cas number=490-31-3" "SMILES=c1cc2c(cc1O)oc(c(c2=O)O)c3cc(c(c(c3)O)O)O" "InChI=InChI=1S/C15H10O7/c16-7-1-2-8-11(5-7)22-15(14(21)12(8)19)6-3-9(17)13(20)10(18)4-6/h1-5,16-18,20-21H" "computed SMILES=O=C1C(O)=C(OC2=CC(O)=CC=C12)C=3C=C(O)C(O)=C(O)C3" "license=License CC-BY-NC-SA 4.0 International" "author=Plant Biology, The Noble Foundation, Ardmore, OK, US/Dennis Fine, Daniel Wherritt, and Lloyd Sumner" "ionization=ESI" "collision gas=Nitrogen" "peak width=0.015" "date=2013-11-23 03:26:37+01:00" "column=Waters Acquity BEH C18 1.7um x 2.1 x 150 mm" "retention time=279" "raw data file=C:\Data\Confirmed Standards\Confirmed stds MSMS 22Nov13\373'4'5'Pentahydroxyfla MSMS.d" "SPLASH=splash10-0udi-0029006001-480f903efcd18c022648" "submitter=Aiko Barsch (Bruker)" "MoNA Rating=3.888888888888889"
Num Peaks: 26
299.0214 40.640641
300.0258 6.106106
301.0371 100.000000
302.0405 12.012012
303.0417 1.701702
317.0320 4.604605
335.0428 5.505506
599.0497 6.906907
600.0535 1.801802
601.0658 13.113113
602.0702 3.803804
603.0822 26.126126
604.0849 6.806807
615.0438 2.102102
617.0616 25.425425
618.0649 6.506507
619.0720 2.902903
633.0561 5.805806
634.0585 1.801802
637.0868 2.402402
651.0648 1.701702
905.1292 3.703704
917.0956 1.601602
919.1105 12.412412
920.1140 5.205205
935.1028 2.402402


Name: 3,7,3',4',5'-Pentahydroxyflavone
Synon: Robinetin
Synon: $:00in-source
DB#: MetaboBASE0431
InChIKey: SOEDEYVDCDYMMH-UHFFFAOYSA-N
Precursor_type: [M-H]-
Spectrum_type: MS2
PrecursorMZ: 301.0371
Instrument_type: LC-ESI-TOF
Instrument: impact HD
Ion_mode: N
Collision_energy: 10
Formula: C15H10O7
MW: 302
ExactMass: 302.04265266
Comments: "cas number=490-31-3" "SMILES=c1cc2c(cc1O)oc(c(c2=O)O)c3cc(c(c(c3)O)O)O" "InChI=InChI=1S/C15H10O7/c16-7-1-2-8-11(5-7)22-15(14(21)12(8)19)6-3-9(17)13(20)10(18)4-6/h1-5,16-18,20-21H" "computed SMILES=O=C1C(O)=C(OC2=CC(O)=CC=C12)C=3C=C(O)C(O)=C(O)C3" "license=License CC-BY-NC-SA 4.0 International" "author=Plant Biology, The Noble Foundation, Ardmore, OK, US/Dennis Fine, Daniel Wherritt, and Lloyd Sumner" "ionization=ESI" "isolation width=5" "collision gas=Nitrogen" "peak width=0.013" "date=2013-11-23 03:26:37+01:00" "column=Waters Acquity BEH C18 1.7um x 2.1 x 150 mm" "retention time=279" "raw data file=C:\Data\Confirmed Standards\Confirmed stds MSMS 22Nov13\373'4'5'Pentahydroxyfla MSMS.d" "computed mass accuracy=5.72467646018476" "computed mass error=0.0017233400000122856" "SPLASH=splash10-0udi-0009000000-c4b0dc838ed3aa17e251" "submitter=Aiko Barsch (Bruker)" "MoNA Rating=4.545454545454546"
Num Peaks: 7
271.0260 2.102102
272.0289 0.500501
299.0215 9.809810
300.0257 1.401401
301.0371 100.000000
302.0405 10.710711
303.0431 1.701702


Name: 3,7,3',4',5'-Pentahydroxyflavone
Synon: Robinetin
Synon: $:00in-source
DB#: MetaboBASE0432
InChIKey: SOEDEYVDCDYMMH-UHFFFAOYSA-N
Precursor_type: [M-H]-
Spectrum_type: MS2
PrecursorMZ: 301.03
Instrument_type: LC-ESI-TOF
Instrument: impact HD
Ion_mode: N
Collision_energy: 40
Formula: C15H10O7
MW: 302
ExactMass: 302.04265266
Comments: "cas number=490-31-3" "SMILES=c1cc2c(cc1O)oc(c(c2=O)O)c3cc(c(c(c3)O)O)O" "InChI=InChI=1S/C15H10O7/c16-7-1-2-8-11(5-7)22-15(14(21)12(8)19)6-3-9(17)13(20)10(18)4-6/h1-5,16-18,20-21H" "computed SMILES=O=C1C(O)=C(OC2=CC(O)=CC=C12)C=3C=C(O)C(O)=C(O)C3" "license=License CC-BY-NC-SA 4.0 International" "author=Plant Biology, The Noble Foundation, Ardmore, OK, US/Dennis Fine, Daniel Wherritt, and Lloyd Sumner" "ionization=ESI" "isolation width=5" "collision gas=Nitrogen" "peak width=0.019" "date=2013-11-23 03:26:37+01:00" "column=Waters Acquity BEH C18 1.7um x 2.1 x 150 mm" "retention time=279" "raw data file=C:\Data\Confirmed Standards\Confirmed stds MSMS 22Nov13\373'4'5'Pentahydroxyfla MSMS.d" "computed mass accuracy=17.860877653471277" "computed mass error=-0.005376660000024458" "SPLASH=splash10-052r-0900000000-e36f433c6906dd19856f" "submitter=Aiko Barsch (Bruker)" "MoNA Rating=4.545454545454546"
Num Peaks: 13
109.0302 100.000000
110.0342 5.305305
119.0132 6.506507
135.0094 42.542543
137.0250 70.770771
138.0291 6.006006
163.0053 5.205205
165.0210 6.206206
187.0421 5.605606
197.0254 8.408408
226.0280 7.907908
227.0374 4.104104
271.0266 4.204204


Name: 3,7,3',4',5'-Pentahydroxyflavone
Synon: Robinetin
Synon: $:00in-source
DB#: MetaboBASE0433
InChIKey: SOEDEYVDCDYMMH-UHFFFAOYSA-N
Precursor_type: [M-H]-
Spectrum_type: MS2
PrecursorMZ: 301.0373
Instrument_type: LC-ESI-TOF
Instrument: impact HD
Ion_mode: N
Collision_energy: 20
Formula: C15H10O7
MW: 302
ExactMass: 302.04265266
Comments: "cas number=490-31-3" "SMILES=c1cc2c(cc1O)oc(c(c2=O)O)c3cc(c(c(c3)O)O)O" "InChI=InChI=1S/C15H10O7/c16-7-1-2-8-11(5-7)22-15(14(21)12(8)19)6-3-9(17)13(20)10(18)4-6/h1-5,16-18,20-21H" "computed SMILES=O=C1C(O)=C(OC2=CC(O)=CC=C12)C=3C=C(O)C(O)=C(O)C3" "license=License CC-BY-NC-SA 4.0 International" "author=Plant Biology, The Noble Foundation, Ardmore, OK, US/Dennis Fine, Daniel Wherritt, and Lloyd Sumner" "ionization=ESI" "isolation width=5" "collision gas=Nitrogen" "peak width=0.016" "date=2013-11-23 03:26:37+01:00" "column=Waters Acquity BEH C18 1.7um x 2.1 x 150 mm" "retention time=279" "raw data file=C:\Data\Confirmed Standards\Confirmed stds MSMS 22Nov13\373'4'5'Pentahydroxyfla MSMS.d" "computed mass accuracy=6.389042155304093" "computed mass error=0.001923340000018925" "SPLASH=splash10-0udr-0937000000-df43ffab8bf753269b1d" "submitter=Aiko Barsch (Bruker)" "MoNA Rating=4.545454545454546"
Num Peaks: 15
109.0309 5.405405
135.0094 38.338338
137.0248 29.829830
153.0195 6.506507
163.0040 44.344344
164.0079 3.903904
165.0198 8.908909
243.0310 3.803804
255.0314 3.703704
271.0265 36.136136
272.0293 4.304304
273.0451 3.703704
299.0209 5.605606
301.0373 100.000000
302.0410 13.213213


Name: 3,7,3',4',5'-Pentahydroxyflavone
Synon: Robinetin
Synon: $:00in-source
DB#: MetaboBASE0434
InChIKey: SOEDEYVDCDYMMH-UHFFFAOYSA-N
Precursor_type: [M-H]-
Spectrum_type: MS2
PrecursorMZ: 301.03
Instrument_type: LC-ESI-TOF
Instrument: impact HD
Ion_mode: N
Collision_energy: 30
Formula: C15H10O7
MW: 302
ExactMass: 302.04265266
Comments: "cas number=490-31-3" "SMILES=c1cc2c(cc1O)oc(c(c2=O)O)c3cc(c(c(c3)O)O)O" "InChI=InChI=1S/C15H10O7/c16-7-1-2-8-11(5-7)22-15(14(21)12(8)19)6-3-9(17)13(20)10(18)4-6/h1-5,16-18,20-21H" "computed SMILES=O=C1C(O)=C(OC2=CC(O)=CC=C12)C=3C=C(O)C(O)=C(O)C3" "license=License CC-BY-NC-SA 4.0 International" "author=Plant Biology, The Noble Foundation, Ardmore, OK, US/Dennis Fine, Daniel Wherritt, and Lloyd Sumner" "ionization=ESI" "isolation width=5" "collision gas=Nitrogen" "peak width=0.019" "date=2013-11-23 03:26:37+01:00" "column=Waters Acquity BEH C18 1.7um x 2.1 x 150 mm" "retention time=279" "raw data file=C:\Data\Confirmed Standards\Confirmed stds MSMS 22Nov13\373'4'5'Pentahydroxyfla MSMS.d" "computed mass accuracy=17.860877653471277" "computed mass error=-0.005376660000024458" "SPLASH=splash10-000i-0910000000-3ff5d21b9031e1d11aa2" "submitter=Aiko Barsch (Bruker)" "MoNA Rating=4.545454545454546"
Num Peaks: 11
109.0306 53.553554
135.0089 78.878879
136.0128 10.110110
137.0253 100.000000
138.0286 9.909910
153.0209 10.910911
163.0043 15.615616
165.0195 22.122122
226.0300 7.707708
243.0305 12.112112
271.0262 19.819820


Name: 6,4'-Dimethoxyisoflavone-7-glucoside
Synon: Wistin
Synon: $:00in-source
DB#: MetaboBASE0435
InChIKey: YLYJXNTZVUEFJZ-DODNOZFWSA-N
Spectrum_type: MS2
PrecursorMZ: 297
Instrument_type: LC-ESI-TOF
Instrument: impact HD
Ion_mode: N
Collision_energy: 50
Formula: C23H24O10
MW: 460
ExactMass: 460.13694696799996
Comments: "cas number=19046-26-5" "SMILES=COC1=CC=C(C=C1)C2=COC3=CC(=C(C=C3C2=O)OC)O[C@H]4[C@@H]([C@H]([C@@H]([C@H](O4)CO)O)O)O" "InChI=InChI=1S/C23H24O10/c1-29-12-5-3-11(4-6-12)14-10-31-15-8-17(16(30-2)7-13(15)19(14)25)32-23-22(28)21(27)20(26)18(9-24)33-23/h3-8,10,18,20-24,26-28H,9H2,1-2H3/t18-,20-,21+,22-,23-/m1/s1" "computed SMILES=O=C1C(=COC=2C=C(OC3OC(CO)C(O)C(O)C3O)C(OC)=CC12)C=4C=CC(OC)=CC4" "license=License CC-BY-NC-SA 4.0 International" "author=Plant Biology, The Noble Foundation, Ardmore, OK, US/Dennis Fine, Daniel Wherritt, and Lloyd Sumner" "ionization=ESI" "isolation width=5" "collision gas=Nitrogen" "peak width=0.02" "date=2014-07-26 11:24:51+02:00" "column=Waters Acquity BEH C18 1.7um x 2.1 x 150 mm" "retention time=505.8" "raw data file=C:\Data\Confirmed standards 24_July_2014\MSMS\64Dimethoxyisovalone7Glu_1-C,2_01_499.d" "SPLASH=splash10-07cj-0950000000-d2df8e44e05ee32f5619" "submitter=Aiko Barsch (Bruker)" "MoNA Rating=3.125"
Num Peaks: 48
115.0554 1.301301
117.0361 11.211211
118.0389 0.800801
119.0155 1.701702
127.0569 4.904905
129.0358 3.603604
132.0231 10.710711
133.0275 1.201201
139.0562 6.406406
141.0358 23.323323
142.0396 2.602603
143.0510 18.018018
144.0544 1.801802
145.0299 2.502503
145.0679 1.401401
147.0091 1.401401
153.0342 1.401401
154.0431 12.512513
155.0507 72.472472
156.0538 6.906907
165.0348 1.501502
166.0414 1.301301
167.0500 74.374374
168.0533 8.208208
169.0294 2.602603
171.0437 2.702703
173.0600 3.303303
182.0357 19.019019
183.0435 47.647648
184.0465 5.605606
186.0302 1.001001
195.0428 100.000000
196.0459 13.613614
197.0219 2.002002
210.0290 19.719720
211.0365 66.566567
212.0401 9.709710
223.0361 7.407407
224.0393 1.101101
225.0520 1.701702
238.0228 36.436436
239.0302 95.895896
240.0339 12.712713
241.0355 0.900901
253.0451 1.201201
254.0523 3.403403
266.0179 4.904905
267.0240 2.002002


Name: 6,4'-Dimethoxyisoflavone-7-glucoside
Synon: Wistin
Synon: $:00in-source
DB#: MetaboBASE0436
InChIKey: YLYJXNTZVUEFJZ-DODNOZFWSA-N
Spectrum_type: MS2
PrecursorMZ: 297
Instrument_type: LC-ESI-TOF
Instrument: impact HD
Ion_mode: N
Collision_energy: 40
Formula: C23H24O10
MW: 460
ExactMass: 460.13694696799996
Comments: "cas number=19046-26-5" "SMILES=COC1=CC=C(C=C1)C2=COC3=CC(=C(C=C3C2=O)OC)O[C@H]4[C@@H]([C@H]([C@@H]([C@H](O4)CO)O)O)O" "InChI=InChI=1S/C23H24O10/c1-29-12-5-3-11(4-6-12)14-10-31-15-8-17(16(30-2)7-13(15)19(14)25)32-23-22(28)21(27)20(26)18(9-24)33-23/h3-8,10,18,20-24,26-28H,9H2,1-2H3/t18-,20-,21+,22-,23-/m1/s1" "computed SMILES=O=C1C(=COC=2C=C(OC3OC(CO)C(O)C(O)C3O)C(OC)=CC12)C=4C=CC(OC)=CC4" "license=License CC-BY-NC-SA 4.0 International" "author=Plant Biology, The Noble Foundation, Ardmore, OK, US/Dennis Fine, Daniel Wherritt, and Lloyd Sumner" "ionization=ESI" "isolation width=5" "collision gas=Nitrogen" "peak width=0.02" "date=2014-07-26 11:24:51+02:00" "column=Waters Acquity BEH C18 1.7um x 2.1 x 150 mm" "retention time=505.8" "raw data file=C:\Data\Confirmed standards 24_July_2014\MSMS\64Dimethoxyisovalone7Glu_1-C,2_01_499.d" "SPLASH=splash10-000i-0290000000-374a02fdb5ffb56a664c" "submitter=Aiko Barsch (Bruker)" "MoNA Rating=3.125"
Num Peaks: 49
117.0360 0.600601
119.0155 0.300300
127.0570 0.300300
129.0359 0.200200
132.0229 1.501502
139.0566 0.300300
141.0351 1.301301
143.0512 2.202202
147.0097 0.200200
154.0426 0.500501
155.0506 6.206206
156.0537 0.700701
167.0498 6.106106
168.0527 0.600601
169.0279 0.200200
171.0443 0.400400
173.0608 0.400400
182.0354 1.301301
183.0437 9.609610
184.0468 1.101101
186.0307 0.300300
195.0429 23.123123
196.0461 3.103103
197.0224 0.500501
198.0654 0.400400
199.0369 0.200200
201.0518 0.200200
210.0286 2.402402
210.0650 0.600601
211.0369 21.621622
212.0400 2.902903
215.0300 0.200200
223.0360 4.704705
224.0388 0.700701
225.0520 1.501502
226.0566 0.400400
238.0228 6.506507
239.0311 100.000000
240.0340 14.214214
241.0364 0.900901
253.0465 1.501502
254.0538 15.315315
255.0573 2.602603
266.0179 2.802803
267.0252 6.606607
268.0283 1.001001
281.0417 0.800801
282.0490 5.205205
283.0533 0.900901


Name: 6,4'-Dimethoxyisoflavone-7-glucoside
Synon: Wistin
Synon: $:00in-source
DB#: MetaboBASE0437
InChIKey: YLYJXNTZVUEFJZ-DODNOZFWSA-N
Precursor_type: [M+FA-H]-
Spectrum_type: MS2
PrecursorMZ: 505.1404
Instrument_type: LC-ESI-TOF
Instrument: impact HD
Ion_mode: N
Collision_energy: 10
Formula: C23H24O10
MW: 460
ExactMass: 460.13694696799996
Comments: "cas number=19046-26-5" "SMILES=COC1=CC=C(C=C1)C2=COC3=CC(=C(C=C3C2=O)OC)O[C@H]4[C@@H]([C@H]([C@@H]([C@H](O4)CO)O)O)O" "InChI=InChI=1S/C23H24O10/c1-29-12-5-3-11(4-6-12)14-10-31-15-8-17(16(30-2)7-13(15)19(14)25)32-23-22(28)21(27)20(26)18(9-24)33-23/h3-8,10,18,20-24,26-28H,9H2,1-2H3/t18-,20-,21+,22-,23-/m1/s1" "computed SMILES=O=C1C(=COC=2C=C(OC3OC(CO)C(O)C(O)C3O)C(OC)=CC12)C=4C=CC(OC)=CC4" "license=License CC-BY-NC-SA 4.0 International" "author=Plant Biology, The Noble Foundation, Ardmore, OK, US/Dennis Fine, Daniel Wherritt, and Lloyd Sumner" "ionization=ESI" "isolation width=5" "collision gas=Nitrogen" "peak width=0.017" "date=2014-08-06 22:48:21+02:00" "column=Waters Acquity BEH C18 1.7um x 2.1 x 150 mm" "retention time=505.8" "raw data file=C:\Data\Confirmed standards 24_July_2014\MSMS\64Dimethoxyisovalone7Glu_1-C,2_01_556.d" "computed mass accuracy=10.397172746515588" "computed mass error=0.005252032000043982" "SPLASH=splash10-0002-0090030000-879b5e0ed195210bcf38" "submitter=Aiko Barsch (Bruker)" "MoNA Rating=4.545454545454546"
Num Peaks: 11
207.0518 0.700701
282.0549 0.900901
283.0565 0.100100
297.0799 100.000000
298.0823 11.911912
299.0847 0.700701
459.1335 1.601602
460.1373 0.300300
505.1404 31.431431
506.1429 6.306306
507.1452 0.600601


Name: 6,4'-Dimethoxyisoflavone-7-glucoside
Synon: Wistin
Synon: $:00in-source
DB#: MetaboBASE0438
InChIKey: YLYJXNTZVUEFJZ-DODNOZFWSA-N
Spectrum_type: MS2
PrecursorMZ: 297.0742
Instrument_type: LC-ESI-TOF
Instrument: impact HD
Ion_mode: N
Collision_energy: 20
Formula: C23H24O10
MW: 460
ExactMass: 460.13694696799996
Comments: "cas number=19046-26-5" "SMILES=COC1=CC=C(C=C1)C2=COC3=CC(=C(C=C3C2=O)OC)O[C@H]4[C@@H]([C@H]([C@@H]([C@H](O4)CO)O)O)O" "InChI=InChI=1S/C23H24O10/c1-29-12-5-3-11(4-6-12)14-10-31-15-8-17(16(30-2)7-13(15)19(14)25)32-23-22(28)21(27)20(26)18(9-24)33-23/h3-8,10,18,20-24,26-28H,9H2,1-2H3/t18-,20-,21+,22-,23-/m1/s1" "computed SMILES=O=C1C(=COC=2C=C(OC3OC(CO)C(O)C(O)C3O)C(OC)=CC12)C=4C=CC(OC)=CC4" "license=License CC-BY-NC-SA 4.0 International" "author=Plant Biology, The Noble Foundation, Ardmore, OK, US/Dennis Fine, Daniel Wherritt, and Lloyd Sumner" "ionization=ESI" "isolation width=5" "collision gas=Nitrogen" "peak width=0.018" "date=2014-07-26 11:24:51+02:00" "column=Waters Acquity BEH C18 1.7um x 2.1 x 150 mm" "retention time=505.8" "raw data file=C:\Data\Confirmed standards 24_July_2014\MSMS\64Dimethoxyisovalone7Glu_1-C,2_01_499.d" "SPLASH=splash10-001i-0090000000-0462d6c36d80063e34c5" "submitter=Aiko Barsch (Bruker)" "MoNA Rating=3.125"
Num Peaks: 19
195.0420 0.100100
211.0369 0.100100
223.0361 0.200200
238.0233 0.200200
239.0308 6.906907
240.0340 0.800801
253.0453 0.100100
254.0542 9.309309
255.0573 1.201201
266.0177 0.100100
267.0257 4.404404
268.0292 0.500501
281.0414 0.300300
282.0506 100.000000
283.0532 15.515516
284.0554 1.001001
297.0742 21.321321
298.0771 4.304304
299.0790 0.200200


Name: 6,4'-Dimethoxyisoflavone-7-glucoside
Synon: Wistin
Synon: $:00in-source
DB#: MetaboBASE0439
InChIKey: YLYJXNTZVUEFJZ-DODNOZFWSA-N
Spectrum_type: MS2
PrecursorMZ: 297.073
Instrument_type: LC-ESI-TOF
Instrument: impact HD
Ion_mode: N
Collision_energy: 30
Formula: C23H24O10
MW: 460
ExactMass: 460.13694696799996
Comments: "cas number=19046-26-5" "SMILES=COC1=CC=C(C=C1)C2=COC3=CC(=C(C=C3C2=O)OC)O[C@H]4[C@@H]([C@H]([C@@H]([C@H](O4)CO)O)O)O" "InChI=InChI=1S/C23H24O10/c1-29-12-5-3-11(4-6-12)14-10-31-15-8-17(16(30-2)7-13(15)19(14)25)32-23-22(28)21(27)20(26)18(9-24)33-23/h3-8,10,18,20-24,26-28H,9H2,1-2H3/t18-,20-,21+,22-,23-/m1/s1" "computed SMILES=O=C1C(=COC=2C=C(OC3OC(CO)C(O)C(O)C3O)C(OC)=CC12)C=4C=CC(OC)=CC4" "license=License CC-BY-NC-SA 4.0 International" "author=Plant Biology, The Noble Foundation, Ardmore, OK, US/Dennis Fine, Daniel Wherritt, and Lloyd Sumner" "ionization=ESI" "isolation width=5" "collision gas=Nitrogen" "peak width=0.019" "date=2014-07-26 11:24:51+02:00" "column=Waters Acquity BEH C18 1.7um x 2.1 x 150 mm" "retention time=505.8" "raw data file=C:\Data\Confirmed standards 24_July_2014\MSMS\64Dimethoxyisovalone7Glu_1-C,2_01_499.d" "SPLASH=splash10-0f80-0090000000-f133767cb28051f9f9d9" "submitter=Aiko Barsch (Bruker)" "MoNA Rating=3.125"
Num Peaks: 37
132.0235 0.200200
143.0518 0.200200
147.0103 0.200200
155.0505 0.400400
167.0495 0.600601
183.0433 1.201201
195.0429 5.705706
196.0451 0.700701
198.0655 0.200200
210.0297 0.300300
210.0650 0.900901
211.0367 4.904905
211.0689 0.100100
212.0406 0.500501
215.0302 0.200200
223.0360 3.903904
224.0394 0.500501
225.0515 1.801802
226.0583 0.600601
238.0231 1.701702
239.0313 100.000000
240.0341 13.213213
241.0364 0.800801
253.0458 1.501502
254.0545 60.660661
255.0573 9.809810
256.0594 0.500501
266.0177 1.701702
267.0257 26.126126
268.0290 4.104104
269.0322 0.200200
281.0412 2.502503
282.0500 82.382382
283.0527 14.314314
284.0542 0.900901
297.0730 1.001001
298.0764 0.200200


Name: 6,4'-Dimethoxyisoflavone-7-glucoside
Synon: Wistin
Synon: $:00in-source
DB#: MetaboBASE0440
InChIKey: YLYJXNTZVUEFJZ-DODNOZFWSA-N
Precursor_type: [M+FA-H]-
Spectrum_type: MS2
PrecursorMZ: 505.14
Instrument_type: LC-ESI-TOF
Instrument: impact HD
Ion_mode: N
Collision_energy: 50
Formula: C23H24O10
MW: 460
ExactMass: 460.13694696799996
Comments: "cas number=19046-26-5" "SMILES=COC1=CC=C(C=C1)C2=COC3=CC(=C(C=C3C2=O)OC)O[C@H]4[C@@H]([C@H]([C@@H]([C@H](O4)CO)O)O)O" "InChI=InChI=1S/C23H24O10/c1-29-12-5-3-11(4-6-12)14-10-31-15-8-17(16(30-2)7-13(15)19(14)25)32-23-22(28)21(27)20(26)18(9-24)33-23/h3-8,10,18,20-24,26-28H,9H2,1-2H3/t18-,20-,21+,22-,23-/m1/s1" "computed SMILES=O=C1C(=COC=2C=C(OC3OC(CO)C(O)C(O)C3O)C(OC)=CC12)C=4C=CC(OC)=CC4" "license=License CC-BY-NC-SA 4.0 International" "author=Plant Biology, The Noble Foundation, Ardmore, OK, US/Dennis Fine, Daniel Wherritt, and Lloyd Sumner" "ionization=ESI" "isolation width=5" "collision gas=Nitrogen" "peak width=0.016" "date=2014-08-06 22:48:21+02:00" "column=Waters Acquity BEH C18 1.7um x 2.1 x 150 mm" "retention time=505.8" "raw data file=C:\Data\Confirmed standards 24_July_2014\MSMS\64Dimethoxyisovalone7Glu_1-C,2_01_556.d" "computed mass accuracy=9.605321297126942" "computed mass error=0.004852032000030704" "SPLASH=splash10-001i-0090000000-c27b52785102196f5be5" "submitter=Aiko Barsch (Bruker)" "MoNA Rating=4.545454545454546"
Num Peaks: 23
195.0459 0.500501
211.0394 0.400400
223.0413 0.700701
225.0561 0.200200
226.0627 0.200200
238.0297 0.400400
239.0361 15.915916
240.0391 1.401401
241.0412 0.100100
253.0510 0.200200
254.0595 17.117117
255.0620 1.901902
266.0222 0.400400
267.0311 8.208208
268.0339 0.600601
281.0471 0.800801
282.0555 100.000000
282.1124 0.200200
283.0580 10.910911
284.0602 0.700701
297.0784 14.614615
298.0820 2.102102
299.0824 0.200200


Name: 6,4'-Dimethoxyisoflavone-7-glucoside
Synon: Wistin
Synon: $:00in-source
DB#: MetaboBASE0441
InChIKey: YLYJXNTZVUEFJZ-DODNOZFWSA-N
Precursor_type: [M+FA-H]-
Spectrum_type: MS2
PrecursorMZ: 505.14
Instrument_type: LC-ESI-TOF
Instrument: impact HD
Ion_mode: N
Collision_energy: 30
Formula: C23H24O10
MW: 460
ExactMass: 460.13694696799996
Comments: "cas number=19046-26-5" "SMILES=COC1=CC=C(C=C1)C2=COC3=CC(=C(C=C3C2=O)OC)O[C@H]4[C@@H]([C@H]([C@@H]([C@H](O4)CO)O)O)O" "InChI=InChI=1S/C23H24O10/c1-29-12-5-3-11(4-6-12)14-10-31-15-8-17(16(30-2)7-13(15)19(14)25)32-23-22(28)21(27)20(26)18(9-24)33-23/h3-8,10,18,20-24,26-28H,9H2,1-2H3/t18-,20-,21+,22-,23-/m1/s1" "computed SMILES=O=C1C(=COC=2C=C(OC3OC(CO)C(O)C(O)C3O)C(OC)=CC12)C=4C=CC(OC)=CC4" "license=License CC-BY-NC-SA 4.0 International" "author=Plant Biology, The Noble Foundation, Ardmore, OK, US/Dennis Fine, Daniel Wherritt, and Lloyd Sumner" "ionization=ESI" "isolation width=5" "collision gas=Nitrogen" "peak width=0.017" "date=2014-08-06 22:48:21+02:00" "column=Waters Acquity BEH C18 1.7um x 2.1 x 150 mm" "retention time=505.8" "raw data file=C:\Data\Confirmed standards 24_July_2014\MSMS\64Dimethoxyisovalone7Glu_1-C,2_01_556.d" "computed mass accuracy=9.605321297126942" "computed mass error=0.004852032000030704" "SPLASH=splash10-0002-0090000000-1819063f7660e5643a1f" "submitter=Aiko Barsch (Bruker)" "MoNA Rating=4.545454545454546"
Num Peaks: 12
239.0355 2.102102
240.0403 0.200200
254.0591 1.401401
255.0623 0.100100
267.0313 0.700701
282.0555 22.522523
283.0581 2.402402
284.0609 0.100100
297.0795 100.000000
298.0821 12.012012
299.0841 0.800801
307.0619 0.100100


Name: 6,4'-Dimethoxyisoflavone-7-glucoside
Synon: Wistin
Synon: $:00in-source
DB#: MetaboBASE0442
InChIKey: YLYJXNTZVUEFJZ-DODNOZFWSA-N
Spectrum_type: MS2
PrecursorMZ: 297.0749
Instrument_type: LC-ESI-TOF
Instrument: impact HD
Ion_mode: N
Collision_energy: 10
Formula: C23H24O10
MW: 460
ExactMass: 460.13694696799996
Comments: "cas number=19046-26-5" "SMILES=COC1=CC=C(C=C1)C2=COC3=CC(=C(C=C3C2=O)OC)O[C@H]4[C@@H]([C@H]([C@@H]([C@H](O4)CO)O)O)O" "InChI=InChI=1S/C23H24O10/c1-29-12-5-3-11(4-6-12)14-10-31-15-8-17(16(30-2)7-13(15)19(14)25)32-23-22(28)21(27)20(26)18(9-24)33-23/h3-8,10,18,20-24,26-28H,9H2,1-2H3/t18-,20-,21+,22-,23-/m1/s1" "computed SMILES=O=C1C(=COC=2C=C(OC3OC(CO)C(O)C(O)C3O)C(OC)=CC12)C=4C=CC(OC)=CC4" "license=License CC-BY-NC-SA 4.0 International" "author=Plant Biology, The Noble Foundation, Ardmore, OK, US/Dennis Fine, Daniel Wherritt, and Lloyd Sumner" "ionization=ESI" "isolation width=5" "collision gas=Nitrogen" "peak width=0.014" "date=2014-07-26 11:24:51+02:00" "column=Waters Acquity BEH C18 1.7um x 2.1 x 150 mm" "retention time=505.8" "raw data file=C:\Data\Confirmed standards 24_July_2014\MSMS\64Dimethoxyisovalone7Glu_1-C,2_01_499.d" "SPLASH=splash10-0002-0090000000-f814067079d99a1c50d1" "submitter=Aiko Barsch (Bruker)" "MoNA Rating=3.125"
Num Peaks: 9
239.0307 0.500501
254.0539 0.500501
267.0257 0.300300
282.0501 15.515516
283.0530 1.901902
284.0546 0.100100
297.0749 100.000000
298.0777 17.517518
299.0791 1.101101


Name: 6,4'-Dimethoxyisoflavone-7-glucoside
Synon: Wistin
Synon: $:00in-source
DB#: MetaboBASE0443
InChIKey: YLYJXNTZVUEFJZ-DODNOZFWSA-N
Precursor_type: [M+FA-H]-
Spectrum_type: MS2
PrecursorMZ: 505.14
Instrument_type: LC-ESI-TOF
Instrument: impact HD
Ion_mode: N
Collision_energy: 40
Formula: C23H24O10
MW: 460
ExactMass: 460.13694696799996
Comments: "cas number=19046-26-5" "SMILES=COC1=CC=C(C=C1)C2=COC3=CC(=C(C=C3C2=O)OC)O[C@H]4[C@@H]([C@H]([C@@H]([C@H](O4)CO)O)O)O" "InChI=InChI=1S/C23H24O10/c1-29-12-5-3-11(4-6-12)14-10-31-15-8-17(16(30-2)7-13(15)19(14)25)32-23-22(28)21(27)20(26)18(9-24)33-23/h3-8,10,18,20-24,26-28H,9H2,1-2H3/t18-,20-,21+,22-,23-/m1/s1" "computed SMILES=O=C1C(=COC=2C=C(OC3OC(CO)C(O)C(O)C3O)C(OC)=CC12)C=4C=CC(OC)=CC4" "license=License CC-BY-NC-SA 4.0 International" "author=Plant Biology, The Noble Foundation, Ardmore, OK, US/Dennis Fine, Daniel Wherritt, and Lloyd Sumner" "ionization=ESI" "isolation width=5" "collision gas=Nitrogen" "peak width=0.015" "date=2014-08-06 22:48:21+02:00" "column=Waters Acquity BEH C18 1.7um x 2.1 x 150 mm" "retention time=505.8" "raw data file=C:\Data\Confirmed standards 24_July_2014\MSMS\64Dimethoxyisovalone7Glu_1-C,2_01_556.d" "computed mass accuracy=9.605321297126942" "computed mass error=0.004852032000030704" "SPLASH=splash10-001j-0090000000-7b2ef0dc48884ee4c8f8" "submitter=Aiko Barsch (Bruker)" "MoNA Rating=4.545454545454546"
Num Peaks: 21
211.0376 0.100100
223.0418 0.300300
238.0275 0.200200
239.0364 6.606607
240.0385 0.500501
253.0550 0.100100
254.0594 6.806807
255.0616 0.800801
266.0245 0.200200
267.0316 2.602603
268.0363 0.300300
281.0464 0.300300
282.0555 100.000000
282.1269 0.200200
283.0586 10.210210
284.0614 0.600601
297.0792 80.580581
298.0817 10.010010
299.0847 0.800801
304.0745 0.200200
307.0617 0.100100


Name: 6,4'-Dimethoxyisoflavone-7-glucoside
Synon: Wistin
Synon: $:00in-source
DB#: MetaboBASE0444
InChIKey: YLYJXNTZVUEFJZ-DODNOZFWSA-N
Precursor_type: [M+FA-H]-
Spectrum_type: MS2
PrecursorMZ: 505.1405
Instrument_type: LC-ESI-TOF
Instrument: impact HD
Ion_mode: N
Collision_energy: 20
Formula: C23H24O10
MW: 460
ExactMass: 460.13694696799996
Comments: "cas number=19046-26-5" "SMILES=COC1=CC=C(C=C1)C2=COC3=CC(=C(C=C3C2=O)OC)O[C@H]4[C@@H]([C@H]([C@@H]([C@H](O4)CO)O)O)O" "InChI=InChI=1S/C23H24O10/c1-29-12-5-3-11(4-6-12)14-10-31-15-8-17(16(30-2)7-13(15)19(14)25)32-23-22(28)21(27)20(26)18(9-24)33-23/h3-8,10,18,20-24,26-28H,9H2,1-2H3/t18-,20-,21+,22-,23-/m1/s1" "computed SMILES=O=C1C(=COC=2C=C(OC3OC(CO)C(O)C(O)C3O)C(OC)=CC12)C=4C=CC(OC)=CC4" "license=License CC-BY-NC-SA 4.0 International" "author=Plant Biology, The Noble Foundation, Ardmore, OK, US/Dennis Fine, Daniel Wherritt, and Lloyd Sumner" "ionization=ESI" "isolation width=5" "collision gas=Nitrogen" "peak width=0.017" "date=2014-08-06 22:48:21+02:00" "column=Waters Acquity BEH C18 1.7um x 2.1 x 150 mm" "retention time=505.8" "raw data file=C:\Data\Confirmed standards 24_July_2014\MSMS\64Dimethoxyisovalone7Glu_1-C,2_01_556.d" "computed mass accuracy=10.595135412858166" "computed mass error=0.00535203200001888" "SPLASH=splash10-0002-0090000000-61e74a2ebb775038b891" "submitter=Aiko Barsch (Bruker)" "MoNA Rating=4.545454545454546"
Num Peaks: 12
207.0538 0.200200
239.0364 0.500501
254.0596 0.400400
267.0304 0.200200
282.0550 4.604605
283.0575 0.500501
297.0797 100.000000
298.0824 12.212212
299.0845 0.600601
307.0613 0.100100
339.0909 0.100100
505.1405 0.100100


Name: 6,4'-Dimethoxyisoflavone-7-glucoside
Synon: Wistin
Synon: $:00in-source
DB#: MetaboBASE0445
InChIKey: YLYJXNTZVUEFJZ-DODNOZFWSA-N
Instrument_type: LC-ESI-TOF
Instrument: impact HD
Ion_mode: N
Collision_energy: 10
Formula: C23H24O10
MW: 460
ExactMass: 460.13694696799996
Comments: "cas number=19046-26-5" "SMILES=COC1=CC=C(C=C1)C2=COC3=CC(=C(C=C3C2=O)OC)O[C@H]4[C@@H]([C@H]([C@@H]([C@H](O4)CO)O)O)O" "InChI=InChI=1S/C23H24O10/c1-29-12-5-3-11(4-6-12)14-10-31-15-8-17(16(30-2)7-13(15)19(14)25)32-23-22(28)21(27)20(26)18(9-24)33-23/h3-8,10,18,20-24,26-28H,9H2,1-2H3/t18-,20-,21+,22-,23-/m1/s1" "computed SMILES=O=C1C(=COC=2C=C(OC3OC(CO)C(O)C(O)C3O)C(OC)=CC12)C=4C=CC(OC)=CC4" "license=License CC-BY-NC-SA 4.0 International" "author=Plant Biology, The Noble Foundation, Ardmore, OK, US/Dennis Fine, Daniel Wherritt, and Lloyd Sumner" "ionization=ESI" "collision gas=Nitrogen" "peak width=0.017" "date=2013-11-21 03:02:21+01:00" "column=Waters Acquity BEH C18 1.7um x 2.1 x 150 mm" "retention time=505.8" "raw data file=C:\Data\Confirmed Standards\Confirmed Stds 19Nov13\363'4'Tetrahydroxyflavone dil.d" "SPLASH=splash10-0019-0091000000-dd069231b9248429f78e" "submitter=Aiko Barsch (Bruker)" "MoNA Rating=4.444444444444445"
Num Peaks: 21
135.0093 1.901902
153.0205 2.602603
163.0046 3.503504
211.0414 1.101101
227.0359 2.902903
229.0522 1.501502
239.0359 7.507508
240.0395 1.301301
255.0308 5.205205
257.0466 4.004004
273.0419 1.301301
283.0263 62.362362
284.0297 8.708709
285.0420 100.000000
286.0452 13.013013
287.0467 1.901902
301.0369 23.723724
302.0403 3.503504
556.0020 1.101101
589.0394 2.002002
591.0539 1.801802


Name: 3,6,3',4'-Tetrahydroxyflavone
Synon: $:00in-source
DB#: MetaboBASE0446
InChIKey: BXPBSBBFPNTFFT-UHFFFAOYSA-N
Precursor_type: [M-H]-
Spectrum_type: MS2
PrecursorMZ: 285.04
Instrument_type: LC-ESI-TOF
Instrument: impact HD
Ion_mode: N
Collision_energy: 40
Formula: C15H10O6
MW: 286
ExactMass: 286.04773804
Comments: "SMILES=c1cc(c(cc1c2c(c(=O)c3cc(ccc3o2)O)O)O)O" "InChI=InChI=1S/C15H10O6/c16-8-2-4-12-9(6-8)13(19)14(20)15(21-12)7-1-3-10(17)11(18)5-7/h1-6,16-18,20H" "computed SMILES=O=C1C(O)=C(OC2=CC=C(O)C=C12)C=3C=CC(O)=C(O)C3" "license=License CC-BY-NC-SA 4.0 International" "author=Plant Biology, The Noble Foundation, Ardmore, OK, US/Dennis Fine, Daniel Wherritt, and Lloyd Sumner" "ionization=ESI" "isolation width=5" "collision gas=Nitrogen" "peak width=0.015" "date=2013-11-23 01:24:26+01:00" "column=Waters Acquity BEH C18 1.7um x 2.1 x 150 mm" "retention time=406.8" "raw data file=C:\Data\Confirmed Standards\Confirmed stds MSMS 22Nov13\363'4'Tetrahydroxyflavone MSMS.d" "computed mass accuracy=1.6209654785369134" "computed mass error=-4.6204000000216183E-4" "SPLASH=splash10-00di-0930000000-dfa0c6639f254a71b18a" "submitter=Aiko Barsch (Bruker)" "MoNA Rating=4.583333333333334"
Num Peaks: 6
121.0296 100.000000
135.0104 11.311311
149.0265 16.316316
211.0388 17.117117
227.0336 14.014014
229.0490 17.917918


Name: 3,6,3',4'-Tetrahydroxyflavone
Synon: $:00in-source
DB#: MetaboBASE0447
InChIKey: BXPBSBBFPNTFFT-UHFFFAOYSA-N
Instrument_type: LC-ESI-TOF
Instrument: impact HD
Ion_mode: N
Collision_energy: 10
Formula: C15H10O6
MW: 286
ExactMass: 286.04773804
Comments: "SMILES=c1cc(c(cc1c2c(c(=O)c3cc(ccc3o2)O)O)O)O" "InChI=InChI=1S/C15H10O6/c16-8-2-4-12-9(6-8)13(19)14(20)15(21-12)7-1-3-10(17)11(18)5-7/h1-6,16-18,20H" "computed SMILES=O=C1C(O)=C(OC2=CC=C(O)C=C12)C=3C=CC(O)=C(O)C3" "license=License CC-BY-NC-SA 4.0 International" "author=Plant Biology, The Noble Foundation, Ardmore, OK, US/Dennis Fine, Daniel Wherritt, and Lloyd Sumner" "ionization=ESI" "collision gas=Nitrogen" "peak width=0.017" "date=2013-11-21 03:02:21+01:00" "column=Waters Acquity BEH C18 1.7um x 2.1 x 150 mm" "retention time=406.8" "raw data file=C:\Data\Confirmed Standards\Confirmed Stds 19Nov13\363'4'Tetrahydroxyflavone dil.d" "SPLASH=splash10-0019-0091000000-dd069231b9248429f78e" "submitter=Aiko Barsch (Bruker)" "MoNA Rating=4.444444444444445"
Num Peaks: 21
135.0093 1.901902
153.0205 2.602603
163.0046 3.503504
211.0414 1.101101
227.0359 2.902903
229.0522 1.501502
239.0359 7.507508
240.0395 1.301301
255.0308 5.205205
257.0466 4.004004
273.0419 1.301301
283.0263 62.362362
284.0297 8.708709
285.0420 100.000000
286.0452 13.013013
287.0467 1.901902
301.0369 23.723724
302.0403 3.503504
556.0020 1.101101
589.0394 2.002002
591.0539 1.801802


Name: 3,6,3',4'-Tetrahydroxyflavone
Synon: $:00in-source
DB#: MetaboBASE0448
InChIKey: BXPBSBBFPNTFFT-UHFFFAOYSA-N
Precursor_type: [M-H]-
Spectrum_type: MS2
PrecursorMZ: 285.0406
Instrument_type: LC-ESI-TOF
Instrument: impact HD
Ion_mode: N
Collision_energy: 10
Formula: C15H10O6
MW: 286
ExactMass: 286.04773804
Comments: "SMILES=c1cc(c(cc1c2c(c(=O)c3cc(ccc3o2)O)O)O)O" "InChI=InChI=1S/C15H10O6/c16-8-2-4-12-9(6-8)13(19)14(20)15(21-12)7-1-3-10(17)11(18)5-7/h1-6,16-18,20H" "computed SMILES=O=C1C(O)=C(OC2=CC=C(O)C=C12)C=3C=CC(O)=C(O)C3" "license=License CC-BY-NC-SA 4.0 International" "author=Plant Biology, The Noble Foundation, Ardmore, OK, US/Dennis Fine, Daniel Wherritt, and Lloyd Sumner" "ionization=ESI" "isolation width=5" "collision gas=Nitrogen" "peak width=0.014" "date=2013-11-23 01:24:26+01:00" "column=Waters Acquity BEH C18 1.7um x 2.1 x 150 mm" "retention time=406.8" "raw data file=C:\Data\Confirmed Standards\Confirmed stds MSMS 22Nov13\363'4'Tetrahydroxyflavone MSMS.d" "computed mass accuracy=0.4840012263548164" "computed mass error=1.3795999996091268E-4" "SPLASH=splash10-000i-0090000000-90cbb17420f7bdca114f" "submitter=Aiko Barsch (Bruker)" "MoNA Rating=4.615384615384616"
Num Peaks: 13
163.0047 0.400400
227.0343 1.201201
228.0408 0.300300
239.0347 5.705706
240.0382 1.001001
255.0294 3.003003
256.0327 0.800801
257.0447 0.700701
283.0248 33.433433
284.0279 5.705706
285.0406 100.000000
286.0437 10.610611
287.0457 1.501502


Name: 3,6,3',4'-Tetrahydroxyflavone
Synon: $:00in-source
DB#: MetaboBASE0449
InChIKey: BXPBSBBFPNTFFT-UHFFFAOYSA-N
Precursor_type: [M-H]-
Spectrum_type: MS2
PrecursorMZ: 285.0406
Instrument_type: LC-ESI-TOF
Instrument: impact HD
Ion_mode: N
Collision_energy: 20
Formula: C15H10O6
MW: 286
ExactMass: 286.04773803999996
Comments: "SMILES=c1cc(c(cc1c2c(c(=O)c3cc(ccc3o2)O)O)O)O" "InChI=InChI=1S/C15H10O6/c16-8-2-4-12-9(6-8)13(19)14(20)15(21-12)7-1-3-10(17)11(18)5-7/h1-6,16-18,20H" "computed SMILES=O=C1C(O)=C(OC2=CC=C(O)C=C12)C=3C=CC(O)=C(O)C3" "license=License CC-BY-NC-SA 4.0 International" "author=Plant Biology, The Noble Foundation, Ardmore, OK, US/Dennis Fine, Daniel Wherritt, and Lloyd Sumner" "ionization=ESI" "isolation width=5" "collision gas=Nitrogen" "peak width=0.017" "date=2013-11-23 01:24:26+01:00" "column=Waters Acquity BEH C18 1.7um x 2.1 x 150 mm" "retention time=406.8" "raw data file=C:\Data\Confirmed Standards\Confirmed stds MSMS 22Nov13\363'4'Tetrahydroxyflavone MSMS.d" "computed mass accuracy=0.4840012265542386" "computed mass error=1.379600000177561E-4" "SPLASH=splash10-000i-0290000000-9582cb729e6e264dd37d" "submitter=Aiko Barsch (Bruker)" "MoNA Rating=4.615384615384616"
Num Peaks: 24
121.0298 29.729730
122.0323 2.802803
135.0088 24.024024
149.0256 4.904905
163.0039 33.533534
183.0437 6.606607
199.0419 2.302302
211.0391 7.407407
213.0502 2.702703
226.0275 3.803804
227.0348 33.433433
228.0394 8.308308
229.0503 23.223223
239.0345 55.855856
240.0387 16.916917
241.0491 10.110110
255.0297 24.024024
256.0342 3.103103
257.0462 22.022022
258.0499 2.402402
283.0245 25.725726
284.0267 5.705706
285.0406 100.000000
286.0451 14.114114


Name: 3,6,3',4'-Tetrahydroxyflavone
Synon: $:00in-source
DB#: MetaboBASE0450
InChIKey: BXPBSBBFPNTFFT-UHFFFAOYSA-N
Precursor_type: [M-H]-
Spectrum_type: MS2
PrecursorMZ: 285.0394
Instrument_type: LC-ESI-TOF
Instrument: impact HD
Ion_mode: N
Collision_energy: 30
Formula: C15H10O6
MW: 286
ExactMass: 286.04773804
Comments: "SMILES=c1cc(c(cc1c2c(c(=O)c3cc(ccc3o2)O)O)O)O" "InChI=InChI=1S/C15H10O6/c16-8-2-4-12-9(6-8)13(19)14(20)15(21-12)7-1-3-10(17)11(18)5-7/h1-6,16-18,20H" "computed SMILES=O=C1C(O)=C(OC2=CC=C(O)C=C12)C=3C=CC(O)=C(O)C3" "license=License CC-BY-NC-SA 4.0 International" "author=Plant Biology, The Noble Foundation, Ardmore, OK, US/Dennis Fine, Daniel Wherritt, and Lloyd Sumner" "ionization=ESI" "isolation width=5" "collision gas=Nitrogen" "peak width=0.014" "date=2013-11-23 01:24:26+01:00" "column=Waters Acquity BEH C18 1.7um x 2.1 x 150 mm" "retention time=406.8" "raw data file=C:\Data\Confirmed Standards\Confirmed stds MSMS 22Nov13\363'4'Tetrahydroxyflavone MSMS.d" "computed mass accuracy=3.7259410454206674" "computed mass error=-0.0010620400000220798" "SPLASH=splash10-00di-0950000000-e1fdc98d1f0a1d16dfff" "submitter=Aiko Barsch (Bruker)" "MoNA Rating=4.583333333333334"
Num Peaks: 23
107.0152 5.205205
119.0143 7.507508
121.0299 100.000000
122.0350 10.710711
135.0093 38.638639
149.0253 17.017017
163.0048 12.712713
182.0348 5.605606
183.0441 18.518519
199.0397 5.805806
210.0308 8.808809
211.0401 10.110110
213.0528 5.905906
226.0287 8.408408
227.0348 17.317317
228.0405 6.806807
229.0499 27.327327
239.0337 13.813814
240.0426 7.907908
241.0513 6.106106
255.0291 6.106106
257.0464 6.606607
285.0394 7.107107


Name: 3,6,3',4'-Tetrahydroxyflavone
Synon: $:00in-source
DB#: MetaboBASE0451
InChIKey: BXPBSBBFPNTFFT-UHFFFAOYSA-N
Instrument_type: LC-ESI-TOF
Instrument: impact HD
Ion_mode: N
Formula: C15H10O6
MW: 286
ExactMass: 286.04773804
Comments: "SMILES=c1cc(c(cc1c2c(c(=O)c3cc(ccc3o2)O)O)O)O" "InChI=InChI=1S/C15H10O6/c16-8-2-4-12-9(6-8)13(19)14(20)15(21-12)7-1-3-10(17)11(18)5-7/h1-6,16-18,20H" "computed SMILES=O=C1C(O)=C(OC2=CC=C(O)C=C12)C=3C=CC(O)=C(O)C3" "license=License CC-BY-NC-SA 4.0 International" "author=Plant Biology, The Noble Foundation, Ardmore, OK, US/Dennis Fine, Daniel Wherritt, and Lloyd Sumner" "ionization=ESI" "collision gas=Nitrogen" "peak width=0.015" "date=2013-11-23 01:24:26+01:00" "column=Waters Acquity BEH C18 1.7um x 2.1 x 150 mm" "retention time=406.8" "raw data file=C:\Data\Confirmed Standards\Confirmed stds MSMS 22Nov13\363'4'Tetrahydroxyflavone MSMS.d" "SPLASH=splash10-0f80-0094010000-eb03d3d214f0edb26d73" "submitter=Aiko Barsch (Bruker)" "MoNA Rating=3.888888888888889"
Num Peaks: 23
239.0358 1.301301
283.0253 61.061061
284.0284 6.806807
285.0408 100.000000
286.0440 12.512513
287.0453 1.501502
299.0191 1.601602
301.0358 73.973974
302.0388 9.009009
303.0408 1.201201
315.0133 1.201201
317.0307 2.302302
319.0462 2.502503
569.0756 3.903904
570.0795 1.201201
571.0922 13.913914
572.0949 3.403403
585.0712 1.501502
587.0887 3.803804
603.0835 6.406406
604.0850 1.901902
621.0910 1.101101
857.1465 2.002002


Name: 3,6,2',3'-Tetrahydroxyflavone
Synon: $:00in-source
DB#: MetaboBASE0452
InChIKey: KQRPHHDERPYSPX-UHFFFAOYSA-N
Precursor_type: [M-H]-
Spectrum_type: MS2
PrecursorMZ: 285.0411
Instrument_type: LC-ESI-TOF
Instrument: impact HD
Ion_mode: N
Collision_energy: 10
Formula: C15H10O6
MW: 286
ExactMass: 286.04773804
Comments: "SMILES=c1cc(c(c(c1)O)O)c2c(c(=O)c3cc(ccc3o2)O)O" "InChI=InChI=1S/C15H10O6/c16-7-4-5-11-9(6-7)13(19)14(20)15(21-11)8-2-1-3-10(17)12(8)18/h1-6,16-18,20H" "computed SMILES=O=C1C(O)=C(OC2=CC=C(O)C=C12)C=3C=CC=C(O)C3O" "license=License CC-BY-NC-SA 4.0 International" "author=Plant Biology, The Noble Foundation, Ardmore, OK, US/Dennis Fine, Daniel Wherritt, and Lloyd Sumner" "ionization=ESI" "isolation width=5" "collision gas=Nitrogen" "peak width=0.012" "date=2013-11-23 02:05:09+01:00" "column=Waters Acquity BEH C18 1.7um x 2.1 x 150 mm" "retention time=475.2" "raw data file=C:\Data\Confirmed Standards\Confirmed stds MSMS 22Nov13\362'3'Tetrahydroxyflavone MSMS.d" "computed mass accuracy=2.2381333777798686" "computed mass error=6.379599999490893E-4" "SPLASH=splash10-000i-0090000000-9a0857b8b17d5a041689" "submitter=Aiko Barsch (Bruker)" "MoNA Rating=4.583333333333334"
Num Peaks: 9
227.0362 1.401401
239.0348 7.207207
240.0387 1.301301
255.0299 5.205205
283.0255 31.731732
284.0287 4.004004
285.0411 100.000000
286.0443 10.310310
287.0463 1.201201


Name: 3,6,2',3'-Tetrahydroxyflavone
Synon: $:00in-source
DB#: MetaboBASE0453
InChIKey: KQRPHHDERPYSPX-UHFFFAOYSA-N
Precursor_type: [M-H]-
Spectrum_type: MS2
PrecursorMZ: 285.0408
Instrument_type: LC-ESI-TOF
Instrument: impact HD
Ion_mode: N
Collision_energy: 20
Formula: C15H10O6
MW: 286
ExactMass: 286.04773803999996
Comments: "SMILES=c1cc(c(c(c1)O)O)c2c(c(=O)c3cc(ccc3o2)O)O" "InChI=InChI=1S/C15H10O6/c16-7-4-5-11-9(6-7)13(19)14(20)15(21-11)8-2-1-3-10(17)12(8)18/h1-6,16-18,20H" "computed SMILES=O=C1C(O)=C(OC2=CC=C(O)C=C12)C=3C=CC=C(O)C3O" "license=License CC-BY-NC-SA 4.0 International" "author=Plant Biology, The Noble Foundation, Ardmore, OK, US/Dennis Fine, Daniel Wherritt, and Lloyd Sumner" "ionization=ESI" "isolation width=5" "collision gas=Nitrogen" "peak width=0.017" "date=2013-11-23 02:05:09+01:00" "column=Waters Acquity BEH C18 1.7um x 2.1 x 150 mm" "retention time=475.2" "raw data file=C:\Data\Confirmed Standards\Confirmed stds MSMS 22Nov13\362'3'Tetrahydroxyflavone MSMS.d" "computed mass accuracy=1.1856548256403834" "computed mass error=3.379600000243954E-4" "SPLASH=splash10-000j-0590000000-c3da48c2d7bb7dba2ccf" "submitter=Aiko Barsch (Bruker)" "MoNA Rating=4.583333333333334"
Num Peaks: 16
121.0296 6.806807
135.0083 8.808809
149.0241 100.000000
150.0276 5.905906
163.0031 9.709710
175.0033 8.508509
211.0390 9.609610
227.0349 36.736737
229.0503 9.909910
239.0348 27.227227
255.0296 20.620621
257.0456 14.014014
267.0304 10.810811
283.0252 9.009009
285.0408 75.175175
286.0438 6.706707


Name: 3,6,2',3'-Tetrahydroxyflavone
Synon: $:00in-source
DB#: MetaboBASE0454
InChIKey: KQRPHHDERPYSPX-UHFFFAOYSA-N
Precursor_type: [M-H]-
Spectrum_type: MS2
PrecursorMZ: 285.04
Instrument_type: LC-ESI-TOF
Instrument: impact HD
Ion_mode: N
Collision_energy: 30
Formula: C15H10O6
MW: 286
ExactMass: 286.04773804
Comments: "SMILES=c1cc(c(c(c1)O)O)c2c(c(=O)c3cc(ccc3o2)O)O" "InChI=InChI=1S/C15H10O6/c16-7-4-5-11-9(6-7)13(19)14(20)15(21-11)8-2-1-3-10(17)12(8)18/h1-6,16-18,20H" "computed SMILES=O=C1C(O)=C(OC2=CC=C(O)C=C12)C=3C=CC=C(O)C3O" "license=License CC-BY-NC-SA 4.0 International" "author=Plant Biology, The Noble Foundation, Ardmore, OK, US/Dennis Fine, Daniel Wherritt, and Lloyd Sumner" "ionization=ESI" "isolation width=5" "collision gas=Nitrogen" "peak width=0.015" "date=2013-11-23 02:05:09+01:00" "column=Waters Acquity BEH C18 1.7um x 2.1 x 150 mm" "retention time=475.2" "raw data file=C:\Data\Confirmed Standards\Confirmed stds MSMS 22Nov13\362'3'Tetrahydroxyflavone MSMS.d" "computed mass accuracy=1.6209654785369134" "computed mass error=-4.6204000000216183E-4" "SPLASH=splash10-0002-0910000000-188e0e31124ef10c9450" "submitter=Aiko Barsch (Bruker)" "MoNA Rating=4.583333333333334"
Num Peaks: 27
108.0218 4.804805
109.0283 4.104104
119.0146 3.403403
121.0295 19.619620
122.0313 1.701702
131.0130 1.701702
135.0090 8.208208
143.0498 2.202202
147.0079 2.802803
148.0158 1.801802
149.0242 100.000000
150.0271 6.406406
155.0504 2.302302
163.0027 4.504505
164.0116 1.901902
175.0026 2.202202
182.0373 1.801802
183.0447 3.803804
199.0399 3.003003
210.0322 1.601602
211.0390 4.904905
227.0346 9.509510
229.0514 3.403403
239.0330 4.304304
255.0300 1.701702
257.0468 2.002002
267.0285 1.901902


Name: 3,6,2',3'-Tetrahydroxyflavone
Synon: $:00in-source
DB#: MetaboBASE0455
InChIKey: KQRPHHDERPYSPX-UHFFFAOYSA-N
Precursor_type: [M-H]-
Spectrum_type: MS2
PrecursorMZ: 285.04
Instrument_type: LC-ESI-TOF
Instrument: impact HD
Ion_mode: N
Collision_energy: 40
Formula: C15H10O6
MW: 286
ExactMass: 286.04773803999996
Comments: "SMILES=c1cc(c(c(c1)O)O)c2c(c(=O)c3cc(ccc3o2)O)O" "InChI=InChI=1S/C15H10O6/c16-7-4-5-11-9(6-7)13(19)14(20)15(21-11)8-2-1-3-10(17)12(8)18/h1-6,16-18,20H" "computed SMILES=O=C1C(O)=C(OC2=CC=C(O)C=C12)C=3C=CC=C(O)C3O" "license=License CC-BY-NC-SA 4.0 International" "author=Plant Biology, The Noble Foundation, Ardmore, OK, US/Dennis Fine, Daniel Wherritt, and Lloyd Sumner" "ionization=ESI" "isolation width=5" "collision gas=Nitrogen" "peak width=0.016" "date=2013-11-23 02:05:09+01:00" "column=Waters Acquity BEH C18 1.7um x 2.1 x 150 mm" "retention time=475.2" "raw data file=C:\Data\Confirmed Standards\Confirmed stds MSMS 22Nov13\362'3'Tetrahydroxyflavone MSMS.d" "computed mass accuracy=1.620965478337491" "computed mass error=-4.620399999453184E-4" "SPLASH=splash10-006t-0900000000-f74cce846e44e81798ff" "submitter=Aiko Barsch (Bruker)" "MoNA Rating=4.583333333333334"
Num Peaks: 25
108.0211 7.307307
109.0289 7.207207
115.0531 2.502503
117.0353 3.603604
119.0141 4.004004
121.0295 58.958959
122.0335 2.302302
123.0076 2.602603
135.0077 3.803804
139.0400 4.804805
143.0500 5.405405
147.0069 2.402402
149.0240 100.000000
150.0280 8.108108
155.0483 2.502503
171.0467 2.602603
175.0023 3.703704
182.0358 7.807808
183.0435 4.004004
199.0405 2.402402
201.0195 2.502503
210.0327 3.503504
211.0405 3.203203
227.0355 3.203203
238.0268 3.703704


Name: 3,6,2',3'-Tetrahydroxyflavone
Synon: $:00in-source
DB#: MetaboBASE0456
InChIKey: KQRPHHDERPYSPX-UHFFFAOYSA-N
Instrument_type: LC-ESI-TOF
Instrument: impact HD
Ion_mode: N
Collision_energy: 10
Formula: C15H10O6
MW: 286
ExactMass: 286.04773804
Comments: "SMILES=c1cc(c(c(c1)O)O)c2c(c(=O)c3cc(ccc3o2)O)O" "InChI=InChI=1S/C15H10O6/c16-7-4-5-11-9(6-7)13(19)14(20)15(21-11)8-2-1-3-10(17)12(8)18/h1-6,16-18,20H" "computed SMILES=O=C1C(O)=C(OC2=CC=C(O)C=C12)C=3C=CC=C(O)C3O" "license=License CC-BY-NC-SA 4.0 International" "author=Plant Biology, The Noble Foundation, Ardmore, OK, US/Dennis Fine, Daniel Wherritt, and Lloyd Sumner" "ionization=ESI" "collision gas=Nitrogen" "peak width=0.018" "date=2013-11-21 03:43:03+01:00" "column=Waters Acquity BEH C18 1.7um x 2.1 x 150 mm" "retention time=475.2" "raw data file=C:\Data\Confirmed Standards\Confirmed Stds 19Nov13\362'3'Tetrahydroxyflavone dil.d" "SPLASH=splash10-000i-0090000000-176a3288e9cd68e3af75" "submitter=Aiko Barsch (Bruker)" "MoNA Rating=4.444444444444445"
Num Peaks: 20
149.0237 2.102102
163.0031 1.801802
211.0392 1.201201
227.0338 3.103103
239.0337 5.405405
255.0286 5.105105
257.0442 3.303303
267.0284 1.301301
283.0236 13.613614
284.0272 2.102102
285.0395 100.000000
286.0427 14.014014
287.0442 1.701702
299.0187 19.019019
300.0215 2.602603
301.0329 2.102102
315.0126 1.701702
567.0538 2.202202
569.0695 2.002002
593.0673 2.302302


Name: 7-Methoxy-4'-hydroxyflavone
Synon: $:00in-source
DB#: MetaboBASE0457
InChIKey: DZUKXCCSULKRJA-UHFFFAOYSA-N
Instrument_type: LC-ESI-TOF
Instrument: impact HD
Ion_mode: N
Collision_energy: 10
Formula: C16H12O4
MW: 268
ExactMass: 268.073558864
Comments: "cas number=32272-23-4" "SMILES=COc1ccc2c(=O)cc(oc2c1)c3ccc(cc3)O" "InChI=InChI=1S/C16H12O4/c1-19-12-6-7-13-14(18)9-15(20-16(13)8-12)10-2-4-11(17)5-3-10/h2-9,17H,1H3" "computed SMILES=O=C1C=C(OC2=CC(OC)=CC=C12)C=3C=CC(O)=CC3" "license=License CC-BY-NC-SA 4.0 International" "author=Plant Biology, The Noble Foundation, Ardmore, OK, US/Dennis Fine, Daniel Wherritt, and Lloyd Sumner" "ionization=ESI" "collision gas=Nitrogen" "peak width=0.014" "date=2013-11-21 02:21:36+01:00" "column=Waters Acquity BEH C18 1.7um x 2.1 x 150 mm" "retention time=688.8" "raw data file=C:\Data\Confirmed Standards\Confirmed Stds 19Nov13\7Methoxy4'hydroxyflavone dil.d" "SPLASH=splash10-014i-0090000000-c26ab0b462c5b9095c4f" "submitter=Aiko Barsch (Bruker)" "MoNA Rating=4.444444444444445"
Num Peaks: 5
252.0424 9.809810
253.0457 1.401401
267.0662 100.000000
268.0692 14.814815
269.0715 1.401401


Name: Isobavachin
Synon: $:00in-source
DB#: MetaboBASE0458
InChIKey: KYFBXCHUXFKMGQ-IBGZPJMESA-N
Instrument_type: LC-ESI-TOF
Instrument: impact HD
Ion_mode: N
Collision_energy: 10
Formula: C20H20O4
MW: 324
ExactMass: 324.13615912
Comments: "cas number=31524-62-6" "SMILES=CC(=CCc1c(ccc2c1O[C@@H](CC2=O)c3ccc(cc3)O)O)C" "InChI=InChI=1S/C20H20O4/c1-12(2)3-8-15-17(22)10-9-16-18(23)11-19(24-20(15)16)13-4-6-14(21)7-5-13/h3-7,9-10,19,21-22H,8,11H2,1-2H3/t19-/m0/s1" "computed SMILES=O=C1C2=CC=C(O)C(=C2OC(C3=CC=C(O)C=C3)C1)CC=C(C)C" "computed InChI=InChI=1S/C20H20O4/c1-12(2)3-8-15-17(22)10-9-16-18(23)11-19(24-20(15)16)13-4-6-14(21)7-5-13/h3-7,9-10,19,21-22H,8,11H2,1-2H3" "license=License CC-BY-NC-SA 4.0 International" "author=Plant Biology, The Noble Foundation, Ardmore, OK, US/Dennis Fine, Daniel Wherritt, and Lloyd Sumner" "ionization=ESI" "collision gas=Nitrogen" "peak width=0.011" "date=2013-11-21 07:06:46+01:00" "column=Waters Acquity BEH C18 1.7um x 2.1 x 150 mm" "retention time=878.4" "raw data file=C:\Data\Confirmed Standards\Confirmed Stds 19Nov13\Isobavachin (vial 255) dil.d" "SPLASH=splash10-00di-0009000000-b1e5ec75287a46e7ae9c" "submitter=Aiko Barsch (Bruker)" "MoNA Rating=4.444444444444445"
Num Peaks: 4
203.0709 2.702703
323.1312 100.000000
324.1345 17.317317
325.1367 1.801802


Name: Isobavachin
Synon: $:00in-source
DB#: MetaboBASE0459
InChIKey: KYFBXCHUXFKMGQ-IBGZPJMESA-N
Precursor_type: [M-H]-
Spectrum_type: MS2
PrecursorMZ: 323.1299
Instrument_type: LC-ESI-TOF
Instrument: impact HD
Ion_mode: N
Collision_energy: 10
Formula: C20H20O4
MW: 324
ExactMass: 324.13615912
Comments: "cas number=31524-62-6" "SMILES=CC(=CCc1c(ccc2c1O[C@@H](CC2=O)c3ccc(cc3)O)O)C" "InChI=InChI=1S/C20H20O4/c1-12(2)3-8-15-17(22)10-9-16-18(23)11-19(24-20(15)16)13-4-6-14(21)7-5-13/h3-7,9-10,19,21-22H,8,11H2,1-2H3/t19-/m0/s1" "computed SMILES=O=C1C2=CC=C(O)C(=C2OC(C3=CC=C(O)C=C3)C1)CC=C(C)C" "computed InChI=InChI=1S/C20H20O4/c1-12(2)3-8-15-17(22)10-9-16-18(23)11-19(24-20(15)16)13-4-6-14(21)7-5-13/h3-7,9-10,19,21-22H,8,11H2,1-2H3" "license=License CC-BY-NC-SA 4.0 International" "author=Plant Biology, The Noble Foundation, Ardmore, OK, US/Dennis Fine, Daniel Wherritt, and Lloyd Sumner" "ionization=ESI" "isolation width=5" "collision gas=Nitrogen" "peak width=0.0089" "date=2013-11-23 05:28:56+01:00" "column=Waters Acquity BEH C18 1.7um x 2.1 x 150 mm" "retention time=878.4" "raw data file=C:\Data\Confirmed Standards\Confirmed stds MSMS 22Nov13\Isobavachin (vial 255) MSMS.d" "computed mass accuracy=3.1469696862121657" "computed mass error=0.0010168800000087685" "SPLASH=splash10-00di-0009000000-9e8b019dafa11a71d62d" "submitter=Aiko Barsch (Bruker)" "MoNA Rating=4.583333333333334"
Num Peaks: 7
119.0495 0.500501
203.0720 0.700701
204.0744 0.100100
221.0826 0.400400
323.1299 100.000000
324.1333 13.713714
325.1351 1.501502


Name: Isobavachin
Synon: $:00in-source
DB#: MetaboBASE0460
InChIKey: KYFBXCHUXFKMGQ-IBGZPJMESA-N
Instrument_type: LC-ESI-TOF
Instrument: impact HD
Ion_mode: N
Formula: C20H20O4
MW: 324
ExactMass: 324.13615912
Comments: "cas number=31524-62-6" "SMILES=CC(=CCc1c(ccc2c1O[C@@H](CC2=O)c3ccc(cc3)O)O)C" "InChI=InChI=1S/C20H20O4/c1-12(2)3-8-15-17(22)10-9-16-18(23)11-19(24-20(15)16)13-4-6-14(21)7-5-13/h3-7,9-10,19,21-22H,8,11H2,1-2H3/t19-/m0/s1" "computed SMILES=O=C1C2=CC=C(O)C(=C2OC(C3=CC=C(O)C=C3)C1)CC=C(C)C" "computed InChI=InChI=1S/C20H20O4/c1-12(2)3-8-15-17(22)10-9-16-18(23)11-19(24-20(15)16)13-4-6-14(21)7-5-13/h3-7,9-10,19,21-22H,8,11H2,1-2H3" "license=License CC-BY-NC-SA 4.0 International" "author=Plant Biology, The Noble Foundation, Ardmore, OK, US/Dennis Fine, Daniel Wherritt, and Lloyd Sumner" "ionization=ESI" "collision gas=Nitrogen" "peak width=0.012" "date=2013-11-23 05:28:56+01:00" "column=Waters Acquity BEH C18 1.7um x 2.1 x 150 mm" "retention time=878.4" "raw data file=C:\Data\Confirmed Standards\Confirmed stds MSMS 22Nov13\Isobavachin (vial 255) MSMS.d" "SPLASH=splash10-00di-0009001000-f1f2dd701ffe617612e1" "submitter=Aiko Barsch (Bruker)" "MoNA Rating=3.888888888888889"
Num Peaks: 23
112.9860 0.100100
235.9270 0.100100
242.9444 0.200200
248.9606 0.100100
323.1299 100.000000
324.1333 17.417417
325.1361 1.801802
326.1380 0.200200
359.1042 0.100100
391.1169 1.401401
392.1185 0.400400
453.0891 0.100100
459.1042 0.100100
556.0029 0.100100
647.2697 14.914915
648.2734 5.605606
649.2753 1.201201
650.2785 0.200200
666.0247 0.300300
669.2512 0.200200
670.2528 0.100100
1348.4618 0.200200
1349.4563 0.200200


Name: Isobavachin
Synon: $:00in-source
DB#: MetaboBASE0461
InChIKey: KYFBXCHUXFKMGQ-IBGZPJMESA-N
Precursor_type: [M-H]-
Spectrum_type: MS2
PrecursorMZ: 323.1295
Instrument_type: LC-ESI-TOF
Instrument: impact HD
Ion_mode: N
Collision_energy: 30
Formula: C20H20O4
MW: 324
ExactMass: 324.13615912
Comments: "cas number=31524-62-6" "SMILES=CC(=CCc1c(ccc2c1O[C@@H](CC2=O)c3ccc(cc3)O)O)C" "InChI=InChI=1S/C20H20O4/c1-12(2)3-8-15-17(22)10-9-16-18(23)11-19(24-20(15)16)13-4-6-14(21)7-5-13/h3-7,9-10,19,21-22H,8,11H2,1-2H3/t19-/m0/s1" "computed SMILES=O=C1C2=CC=C(O)C(=C2OC(C3=CC=C(O)C=C3)C1)CC=C(C)C" "computed InChI=InChI=1S/C20H20O4/c1-12(2)3-8-15-17(22)10-9-16-18(23)11-19(24-20(15)16)13-4-6-14(21)7-5-13/h3-7,9-10,19,21-22H,8,11H2,1-2H3" "license=License CC-BY-NC-SA 4.0 International" "author=Plant Biology, The Noble Foundation, Ardmore, OK, US/Dennis Fine, Daniel Wherritt, and Lloyd Sumner" "ionization=ESI" "isolation width=5" "collision gas=Nitrogen" "peak width=0.015" "date=2013-11-23 05:28:56+01:00" "column=Waters Acquity BEH C18 1.7um x 2.1 x 150 mm" "retention time=878.4" "raw data file=C:\Data\Confirmed Standards\Confirmed stds MSMS 22Nov13\Isobavachin (vial 255) MSMS.d" "computed mass accuracy=1.9090797961668309" "computed mass error=6.168799999954899E-4" "SPLASH=splash10-014i-0910000000-d8871757deb3526fbb70" "submitter=Aiko Barsch (Bruker)" "MoNA Rating=4.583333333333334"
Num Peaks: 18
117.0361 0.700701
119.0503 100.000000
120.0534 5.605606
121.0558 0.500501
136.0156 0.700701
143.0502 0.600601
144.0576 0.800801
145.0287 0.400400
157.0647 1.601602
159.0811 7.107107
160.0853 0.900901
201.0542 0.400400
203.0720 11.011011
204.0748 1.301301
217.0888 0.400400
221.0816 2.602603
281.1191 0.800801
323.1295 0.400400


Name: Isobavachin
Synon: $:00in-source
DB#: MetaboBASE0462
InChIKey: KYFBXCHUXFKMGQ-IBGZPJMESA-N
Precursor_type: [M-H]-
Spectrum_type: MS2
PrecursorMZ: 323.13
Instrument_type: LC-ESI-TOF
Instrument: impact HD
Ion_mode: N
Collision_energy: 40
Formula: C20H20O4
MW: 324
ExactMass: 324.13615912
Comments: "cas number=31524-62-6" "SMILES=CC(=CCc1c(ccc2c1O[C@@H](CC2=O)c3ccc(cc3)O)O)C" "InChI=InChI=1S/C20H20O4/c1-12(2)3-8-15-17(22)10-9-16-18(23)11-19(24-20(15)16)13-4-6-14(21)7-5-13/h3-7,9-10,19,21-22H,8,11H2,1-2H3/t19-/m0/s1" "computed SMILES=O=C1C2=CC=C(O)C(=C2OC(C3=CC=C(O)C=C3)C1)CC=C(C)C" "computed InChI=InChI=1S/C20H20O4/c1-12(2)3-8-15-17(22)10-9-16-18(23)11-19(24-20(15)16)13-4-6-14(21)7-5-13/h3-7,9-10,19,21-22H,8,11H2,1-2H3" "license=License CC-BY-NC-SA 4.0 International" "author=Plant Biology, The Noble Foundation, Ardmore, OK, US/Dennis Fine, Daniel Wherritt, and Lloyd Sumner" "ionization=ESI" "isolation width=5" "collision gas=Nitrogen" "peak width=0.016" "date=2013-11-23 05:28:56+01:00" "column=Waters Acquity BEH C18 1.7um x 2.1 x 150 mm" "retention time=878.4" "raw data file=C:\Data\Confirmed Standards\Confirmed stds MSMS 22Nov13\Isobavachin (vial 255) MSMS.d" "computed mass accuracy=3.4564416797687203" "computed mass error=0.0011168799999836665" "SPLASH=splash10-014i-0900000000-8f1941be0fe056012e9a" "submitter=Aiko Barsch (Bruker)" "MoNA Rating=4.583333333333334"
Num Peaks: 13
117.0341 0.700701
119.0501 100.000000
120.0213 0.500501
120.0535 6.506507
121.0556 0.700701
143.0504 0.600601
144.0574 1.201201
145.0282 0.600601
157.0657 3.103103
159.0804 3.203203
203.0696 2.302302
225.0557 0.600601
237.0585 0.600601


Name: Isobavachin
Synon: $:00in-source
DB#: MetaboBASE0463
InChIKey: KYFBXCHUXFKMGQ-IBGZPJMESA-N
Precursor_type: [M-H]-
Spectrum_type: MS2
PrecursorMZ: 323.1297
Instrument_type: LC-ESI-TOF
Instrument: impact HD
Ion_mode: N
Collision_energy: 20
Formula: C20H20O4
MW: 324
ExactMass: 324.13615912
Comments: "cas number=31524-62-6" "SMILES=CC(=CCc1c(ccc2c1O[C@@H](CC2=O)c3ccc(cc3)O)O)C" "InChI=InChI=1S/C20H20O4/c1-12(2)3-8-15-17(22)10-9-16-18(23)11-19(24-20(15)16)13-4-6-14(21)7-5-13/h3-7,9-10,19,21-22H,8,11H2,1-2H3/t19-/m0/s1" "computed SMILES=O=C1C2=CC=C(O)C(=C2OC(C3=CC=C(O)C=C3)C1)CC=C(C)C" "computed InChI=InChI=1S/C20H20O4/c1-12(2)3-8-15-17(22)10-9-16-18(23)11-19(24-20(15)16)13-4-6-14(21)7-5-13/h3-7,9-10,19,21-22H,8,11H2,1-2H3" "license=License CC-BY-NC-SA 4.0 International" "author=Plant Biology, The Noble Foundation, Ardmore, OK, US/Dennis Fine, Daniel Wherritt, and Lloyd Sumner" "ionization=ESI" "isolation width=5" "collision gas=Nitrogen" "peak width=0.014" "date=2013-11-23 05:28:56+01:00" "column=Waters Acquity BEH C18 1.7um x 2.1 x 150 mm" "retention time=878.4" "raw data file=C:\Data\Confirmed Standards\Confirmed stds MSMS 22Nov13\Isobavachin (vial 255) MSMS.d" "computed mass accuracy=2.5280251242833116" "computed mass error=8.168800000021292E-4" "SPLASH=splash10-0gi0-0964000000-255c3c82e00f96fa3811" "submitter=Aiko Barsch (Bruker)" "MoNA Rating=4.583333333333334"
Num Peaks: 15
119.0502 100.000000
120.0533 6.806807
121.0545 0.500501
157.0645 0.700701
159.0812 4.304304
160.0838 0.800801
203.0719 61.761762
204.0748 5.305305
205.0770 0.900901
221.0823 12.912913
222.0870 2.002002
281.1184 1.301301
323.1297 45.345345
324.1329 8.608609
325.1350 1.401401


Name: Eriodictyol
Synon: $:00in-source
DB#: MetaboBASE0464
InChIKey: SBHXYTNGIZCORC-ZDUSSCGKSA-N
Spectrum_type: MS2
PrecursorMZ: 285.0393
Instrument_type: LC-ESI-TOF
Instrument: impact HD
Ion_mode: N
Collision_energy: 10
Formula: C15H12O6
MW: 288
ExactMass: 288.06338810399996
Comments: "cas number=552-58-9" "SMILES=c1cc(c(cc1[C@@H]2CC(=O)c3c(cc(cc3O2)O)O)O)O" "InChI=InChI=1S/C15H12O6/c16-8-4-11(19)15-12(20)6-13(21-14(15)5-8)7-1-2-9(17)10(18)3-7/h1-5,13,16-19H,6H2/t13-/m0/s1" "computed SMILES=O=C1C=2C(O)=CC(O)=CC2OC(C3=CC=C(O)C(O)=C3)C1" "computed InChI=InChI=1S/C15H12O6/c16-8-4-11(19)15-12(20)6-13(21-14(15)5-8)7-1-2-9(17)10(18)3-7/h1-5,13,16-19H,6H2" "license=License CC-BY-NC-SA 4.0 International" "author=Plant Biology, The Noble Foundation, Ardmore, OK, US/Dennis Fine, Daniel Wherritt, and Lloyd Sumner" "ionization=ESI" "isolation width=5" "collision gas=Nitrogen" "peak width=0.014" "date=2013-11-23 08:11:52+01:00" "column=Waters Acquity BEH C18 1.7um x 2.1 x 150 mm" "retention time=456.6" "raw data file=C:\Data\Confirmed Standards\Confirmed stds MSMS 22Nov13\Eridodictyol (vial 259) MSMS.d" "SPLASH=splash10-000i-0090000000-778b9cb4a7b875c6bbec" "submitter=Aiko Barsch (Bruker)" "MoNA Rating=3.125"
Num Peaks: 10
135.0468 1.801802
151.0023 2.402402
255.0283 8.108108
257.0427 2.302302
283.0238 36.736737
284.0283 6.506507
285.0393 100.000000
286.0430 12.112112
287.0547 18.318318
288.0578 2.202202


Name: Eriodictyol
Synon: $:00in-source
DB#: MetaboBASE0465
InChIKey: SBHXYTNGIZCORC-ZDUSSCGKSA-N
Spectrum_type: MS2
PrecursorMZ: 285.0395
Instrument_type: LC-ESI-TOF
Instrument: impact HD
Ion_mode: N
Collision_energy: 20
Formula: C15H12O6
MW: 288
ExactMass: 288.06338810399996
Comments: "cas number=552-58-9" "SMILES=c1cc(c(cc1[C@@H]2CC(=O)c3c(cc(cc3O2)O)O)O)O" "InChI=InChI=1S/C15H12O6/c16-8-4-11(19)15-12(20)6-13(21-14(15)5-8)7-1-2-9(17)10(18)3-7/h1-5,13,16-19H,6H2/t13-/m0/s1" "computed SMILES=O=C1C=2C(O)=CC(O)=CC2OC(C3=CC=C(O)C(O)=C3)C1" "computed InChI=InChI=1S/C15H12O6/c16-8-4-11(19)15-12(20)6-13(21-14(15)5-8)7-1-2-9(17)10(18)3-7/h1-5,13,16-19H,6H2" "license=License CC-BY-NC-SA 4.0 International" "author=Plant Biology, The Noble Foundation, Ardmore, OK, US/Dennis Fine, Daniel Wherritt, and Lloyd Sumner" "ionization=ESI" "isolation width=5" "collision gas=Nitrogen" "peak width=0.015" "date=2013-11-23 08:11:52+01:00" "column=Waters Acquity BEH C18 1.7um x 2.1 x 150 mm" "retention time=456.6" "raw data file=C:\Data\Confirmed Standards\Confirmed stds MSMS 22Nov13\Eridodictyol (vial 259) MSMS.d" "SPLASH=splash10-052r-0090000000-9178a74a6239d2ef3882" "submitter=Aiko Barsch (Bruker)" "MoNA Rating=3.125"
Num Peaks: 12
135.0454 4.804805
151.0034 9.009009
229.0527 5.205205
241.0508 4.804805
255.0286 46.346346
256.0310 12.112112
257.0453 7.507508
283.0242 5.505506
284.0291 3.503504
285.0395 100.000000
286.0413 9.909910
287.0485 3.303303


Name: Eriodictyol
Synon: $:00in-source
DB#: MetaboBASE0466
InChIKey: SBHXYTNGIZCORC-ZDUSSCGKSA-N
Spectrum_type: MS2
PrecursorMZ: 285.0394
Instrument_type: LC-ESI-TOF
Instrument: impact HD
Ion_mode: N
Collision_energy: 30
Formula: C15H12O6
MW: 288
ExactMass: 288.06338810399996
Comments: "cas number=552-58-9" "SMILES=c1cc(c(cc1[C@@H]2CC(=O)c3c(cc(cc3O2)O)O)O)O" "InChI=InChI=1S/C15H12O6/c16-8-4-11(19)15-12(20)6-13(21-14(15)5-8)7-1-2-9(17)10(18)3-7/h1-5,13,16-19H,6H2/t13-/m0/s1" "computed SMILES=O=C1C=2C(O)=CC(O)=CC2OC(C3=CC=C(O)C(O)=C3)C1" "computed InChI=InChI=1S/C15H12O6/c16-8-4-11(19)15-12(20)6-13(21-14(15)5-8)7-1-2-9(17)10(18)3-7/h1-5,13,16-19H,6H2" "license=License CC-BY-NC-SA 4.0 International" "author=Plant Biology, The Noble Foundation, Ardmore, OK, US/Dennis Fine, Daniel Wherritt, and Lloyd Sumner" "ionization=ESI" "isolation width=5" "collision gas=Nitrogen" "peak width=0.015" "date=2013-11-23 08:11:52+01:00" "column=Waters Acquity BEH C18 1.7um x 2.1 x 150 mm" "retention time=456.6" "raw data file=C:\Data\Confirmed Standards\Confirmed stds MSMS 22Nov13\Eridodictyol (vial 259) MSMS.d" "SPLASH=splash10-052r-0290000000-287f5fa660d816283c29" "submitter=Aiko Barsch (Bruker)" "MoNA Rating=3.125"
Num Peaks: 10
135.0458 46.646647
149.0243 12.912913
151.0038 16.016016
228.0433 13.813814
229.0490 29.029029
255.0274 100.000000
256.0311 26.226226
257.0422 21.721722
285.0394 95.895896
286.0402 26.326326


Name: Eriodictyol
Synon: $:00in-source
DB#: MetaboBASE0467
InChIKey: SBHXYTNGIZCORC-ZDUSSCGKSA-N
Instrument_type: LC-ESI-TOF
Instrument: impact HD
Ion_mode: N
Collision_energy: 10
Formula: C15H12O6
MW: 288
ExactMass: 288.06338810399996
Comments: "cas number=552-58-9" "SMILES=c1cc(c(cc1[C@@H]2CC(=O)c3c(cc(cc3O2)O)O)O)O" "InChI=InChI=1S/C15H12O6/c16-8-4-11(19)15-12(20)6-13(21-14(15)5-8)7-1-2-9(17)10(18)3-7/h1-5,13,16-19H,6H2/t13-/m0/s1" "computed SMILES=O=C1C=2C(O)=CC(O)=CC2OC(C3=CC=C(O)C(O)=C3)C1" "computed InChI=InChI=1S/C15H12O6/c16-8-4-11(19)15-12(20)6-13(21-14(15)5-8)7-1-2-9(17)10(18)3-7/h1-5,13,16-19H,6H2" "license=License CC-BY-NC-SA 4.0 International" "author=Plant Biology, The Noble Foundation, Ardmore, OK, US/Dennis Fine, Daniel Wherritt, and Lloyd Sumner" "ionization=ESI" "collision gas=Nitrogen" "peak width=0.018" "date=2013-11-20 04:29:14+01:00" "column=Waters Acquity BEH C18 1.7um x 2.1 x 150 mm" "retention time=456.6" "raw data file=C:\Data\Confirmed Standards\Confirmed Stds 19Nov13\Eridodictyol (vial 259).d" "SPLASH=splash10-0019-0090000000-cb3df3f82944d76bf224" "submitter=Aiko Barsch (Bruker)" "MoNA Rating=4.444444444444445"
Num Peaks: 13
135.0457 1.201201
151.0040 6.706707
255.0308 16.116116
256.0340 2.202202
257.0463 3.203203
283.0261 64.364364
284.0294 10.010010
285.0417 100.000000
286.0450 13.113113
287.0567 18.318318
288.0604 3.003003
301.0361 2.002002
309.0393 2.802803


Name: Eriodictyol
Synon: $:00in-source
DB#: MetaboBASE0468
InChIKey: SBHXYTNGIZCORC-ZDUSSCGKSA-N
Instrument_type: LC-ESI-TOF
Instrument: impact HD
Ion_mode: N
Formula: C15H12O6
MW: 288
ExactMass: 288.06338810399996
Comments: "cas number=552-58-9" "SMILES=c1cc(c(cc1[C@@H]2CC(=O)c3c(cc(cc3O2)O)O)O)O" "InChI=InChI=1S/C15H12O6/c16-8-4-11(19)15-12(20)6-13(21-14(15)5-8)7-1-2-9(17)10(18)3-7/h1-5,13,16-19H,6H2/t13-/m0/s1" "computed SMILES=O=C1C=2C(O)=CC(O)=CC2OC(C3=CC=C(O)C(O)=C3)C1" "computed InChI=InChI=1S/C15H12O6/c16-8-4-11(19)15-12(20)6-13(21-14(15)5-8)7-1-2-9(17)10(18)3-7/h1-5,13,16-19H,6H2" "license=License CC-BY-NC-SA 4.0 International" "author=Plant Biology, The Noble Foundation, Ardmore, OK, US/Dennis Fine, Daniel Wherritt, and Lloyd Sumner" "ionization=ESI" "collision gas=Nitrogen" "peak width=0.013" "date=2013-11-23 08:11:52+01:00" "column=Waters Acquity BEH C18 1.7um x 2.1 x 150 mm" "retention time=456.6" "raw data file=C:\Data\Confirmed Standards\Confirmed stds MSMS 22Nov13\Eridodictyol (vial 259) MSMS.d" "SPLASH=splash10-000i-0090000000-772ca2fc672ef9668bfa" "submitter=Aiko Barsch (Bruker)" "MoNA Rating=3.888888888888889"
Num Peaks: 9
283.0240 62.562563
284.0275 10.410410
285.0397 100.000000
286.0430 16.116116
287.0551 67.167167
288.0581 8.408408
571.0867 3.103103
573.1017 4.604605
575.1183 3.203203


Name: Eriodictyol
Synon: $:00in-source
DB#: MetaboBASE0469
InChIKey: SBHXYTNGIZCORC-ZDUSSCGKSA-N
Spectrum_type: MS2
PrecursorMZ: 285.04
Instrument_type: LC-ESI-TOF
Instrument: impact HD
Ion_mode: N
Collision_energy: 40
Formula: C15H12O6
MW: 288
ExactMass: 288.06338810399996
Comments: "cas number=552-58-9" "SMILES=c1cc(c(cc1[C@@H]2CC(=O)c3c(cc(cc3O2)O)O)O)O" "InChI=InChI=1S/C15H12O6/c16-8-4-11(19)15-12(20)6-13(21-14(15)5-8)7-1-2-9(17)10(18)3-7/h1-5,13,16-19H,6H2/t13-/m0/s1" "computed SMILES=O=C1C=2C(O)=CC(O)=CC2OC(C3=CC=C(O)C(O)=C3)C1" "computed InChI=InChI=1S/C15H12O6/c16-8-4-11(19)15-12(20)6-13(21-14(15)5-8)7-1-2-9(17)10(18)3-7/h1-5,13,16-19H,6H2" "license=License CC-BY-NC-SA 4.0 International" "author=Plant Biology, The Noble Foundation, Ardmore, OK, US/Dennis Fine, Daniel Wherritt, and Lloyd Sumner" "ionization=ESI" "isolation width=5" "collision gas=Nitrogen" "peak width=0.012" "date=2013-11-23 08:11:52+01:00" "column=Waters Acquity BEH C18 1.7um x 2.1 x 150 mm" "retention time=456.6" "raw data file=C:\Data\Confirmed Standards\Confirmed stds MSMS 22Nov13\Eridodictyol (vial 259) MSMS.d" "SPLASH=splash10-000i-0920000000-4bc67dc66facd1fa75e5" "submitter=Aiko Barsch (Bruker)" "MoNA Rating=3.125"
Num Peaks: 3
119.0485 28.128128
135.0456 100.000000
227.0318 34.034034


Name: Hesperetin
Synon: $:00in-source
DB#: MetaboBASE0470
InChIKey: AIONOLUJZLIMTK-AWEZNQCLSA-N
Instrument_type: LC-ESI-TOF
Instrument: impact HD
Ion_mode: N
Collision_energy: 10
Formula: C16H14O6
MW: 302
ExactMass: 302.079038168
Comments: "cas number=520-33-2" "SMILES=COc1ccc(cc1O)[C@@H]2CC(=O)c3c(cc(cc3O2)O)O" "InChI=InChI=1S/C16H14O6/c1-21-13-3-2-8(4-10(13)18)14-7-12(20)16-11(19)5-9(17)6-15(16)22-14/h2-6,14,17-19H,7H2,1H3/t14-/m0/s1" "computed SMILES=O=C1C=2C(O)=CC(O)=CC2OC(C3=CC=C(OC)C(O)=C3)C1" "computed InChI=InChI=1S/C16H14O6/c1-21-13-3-2-8(4-10(13)18)14-7-12(20)16-11(19)5-9(17)6-15(16)22-14/h2-6,14,17-19H,7H2,1H3" "license=License CC-BY-NC-SA 4.0 International" "author=Plant Biology, The Noble Foundation, Ardmore, OK, US/Dennis Fine, Daniel Wherritt, and Lloyd Sumner" "ionization=ESI" "collision gas=Nitrogen" "peak width=0.012" "date=2013-11-20 03:48:32+01:00" "column=Waters Acquity BEH C18 1.7um x 2.1 x 150 mm" "retention time=623.4" "raw data file=C:\Data\Confirmed Standards\Confirmed Stds 19Nov13\Hesperetin (vial 258).d" "SPLASH=splash10-0udi-0009000000-da94c45c0a6bde515ea3" "submitter=Aiko Barsch (Bruker)" "MoNA Rating=4.444444444444445"
Num Peaks: 4
286.0474 1.801802
301.0710 100.000000
302.0743 13.713714
303.0761 1.701702


Name: Hesperetin
Synon: $:00in-source
DB#: MetaboBASE0471
InChIKey: AIONOLUJZLIMTK-AWEZNQCLSA-N
Precursor_type: [M-H]-
Spectrum_type: MS2
PrecursorMZ: 301.0722
Instrument_type: LC-ESI-TOF
Instrument: impact HD
Ion_mode: N
Collision_energy: 20
Formula: C16H14O6
MW: 302
ExactMass: 302.07903816799995
Comments: "cas number=520-33-2" "SMILES=COc1ccc(cc1O)[C@@H]2CC(=O)c3c(cc(cc3O2)O)O" "InChI=InChI=1S/C16H14O6/c1-21-13-3-2-8(4-10(13)18)14-7-12(20)16-11(19)5-9(17)6-15(16)22-14/h2-6,14,17-19H,7H2,1H3/t14-/m0/s1" "computed SMILES=O=C1C=2C(O)=CC(O)=CC2OC(C3=CC=C(OC)C(O)=C3)C1" "computed InChI=InChI=1S/C16H14O6/c1-21-13-3-2-8(4-10(13)18)14-7-12(20)16-11(19)5-9(17)6-15(16)22-14/h2-6,14,17-19H,7H2,1H3" "license=License CC-BY-NC-SA 4.0 International" "author=Plant Biology, The Noble Foundation, Ardmore, OK, US/Dennis Fine, Daniel Wherritt, and Lloyd Sumner" "ionization=ESI" "isolation width=5" "collision gas=Nitrogen" "peak width=0.015" "date=2013-11-23 07:31:07+01:00" "column=Waters Acquity BEH C18 1.7um x 2.1 x 150 mm" "retention time=623.4" "raw data file=C:\Data\Confirmed Standards\Confirmed stds MSMS 22Nov13\Hesperetin (vial 258).d" "computed mass accuracy=1.454242537323426" "computed mass error=4.37832000045546E-4" "SPLASH=splash10-0udi-0169000000-5d9b7fba914d229018a6" "submitter=Aiko Barsch (Bruker)" "MoNA Rating=4.583333333333334"
Num Peaks: 21
125.0257 3.303303
151.0037 3.703704
164.0121 3.803804
196.0012 2.402402
199.0403 1.601602
233.0818 1.601602
240.0421 2.502503
241.0506 3.003003
242.0593 13.713714
243.0621 2.502503
257.0818 10.810811
258.0536 4.804805
258.0861 1.601602
259.0571 1.601602
268.0383 2.102102
283.0622 2.902903
286.0486 29.529530
287.0515 3.603604
301.0722 100.000000
302.0756 9.609610
303.0773 1.701702


Name: Hesperetin
Synon: $:00in-source
DB#: MetaboBASE0472
InChIKey: AIONOLUJZLIMTK-AWEZNQCLSA-N
Precursor_type: [M-H]-
Spectrum_type: MS2
PrecursorMZ: 301.07
Instrument_type: LC-ESI-TOF
Instrument: impact HD
Ion_mode: N
Collision_energy: 40
Formula: C16H14O6
MW: 302
ExactMass: 302.079038168
Comments: "cas number=520-33-2" "SMILES=COc1ccc(cc1O)[C@@H]2CC(=O)c3c(cc(cc3O2)O)O" "InChI=InChI=1S/C16H14O6/c1-21-13-3-2-8(4-10(13)18)14-7-12(20)16-11(19)5-9(17)6-15(16)22-14/h2-6,14,17-19H,7H2,1H3/t14-/m0/s1" "computed SMILES=O=C1C=2C(O)=CC(O)=CC2OC(C3=CC=C(OC)C(O)=C3)C1" "computed InChI=InChI=1S/C16H14O6/c1-21-13-3-2-8(4-10(13)18)14-7-12(20)16-11(19)5-9(17)6-15(16)22-14/h2-6,14,17-19H,7H2,1H3" "license=License CC-BY-NC-SA 4.0 International" "author=Plant Biology, The Noble Foundation, Ardmore, OK, US/Dennis Fine, Daniel Wherritt, and Lloyd Sumner" "ionization=ESI" "isolation width=5" "collision gas=Nitrogen" "peak width=0.013" "date=2013-11-23 07:31:07+01:00" "column=Waters Acquity BEH C18 1.7um x 2.1 x 150 mm" "retention time=623.4" "raw data file=C:\Data\Confirmed Standards\Confirmed stds MSMS 22Nov13\Hesperetin (vial 258).d" "computed mass accuracy=5.8530175707559255" "computed mass error=-0.0017621680000274864" "SPLASH=splash10-053i-0920000000-b6ab2fed21176a341b28" "submitter=Aiko Barsch (Bruker)" "MoNA Rating=4.545454545454546"
Num Peaks: 23
107.0142 11.911912
108.0231 87.987988
123.0103 16.516517
124.0172 23.223223
134.0379 79.479479
135.0448 20.620621
136.0169 100.000000
151.0042 56.756757
152.0116 11.211211
158.0418 13.913914
159.0421 11.311311
164.0118 53.353353
174.0321 12.112112
196.0011 15.815816
199.0394 12.812813
200.0430 11.311311
201.0188 11.611612
214.0667 14.114114
240.0420 10.910911
241.0513 24.524525
242.0600 18.718719
243.0297 11.211211
285.0403 35.535536


Name: Hesperetin
Synon: $:00in-source
DB#: MetaboBASE0473
InChIKey: AIONOLUJZLIMTK-AWEZNQCLSA-N
Instrument_type: LC-ESI-TOF
Instrument: impact HD
Ion_mode: N
Formula: C16H14O6
MW: 302
ExactMass: 302.079038168
Comments: "cas number=520-33-2" "SMILES=COc1ccc(cc1O)[C@@H]2CC(=O)c3c(cc(cc3O2)O)O" "InChI=InChI=1S/C16H14O6/c1-21-13-3-2-8(4-10(13)18)14-7-12(20)16-11(19)5-9(17)6-15(16)22-14/h2-6,14,17-19H,7H2,1H3/t14-/m0/s1" "computed SMILES=O=C1C=2C(O)=CC(O)=CC2OC(C3=CC=C(OC)C(O)=C3)C1" "computed InChI=InChI=1S/C16H14O6/c1-21-13-3-2-8(4-10(13)18)14-7-12(20)16-11(19)5-9(17)6-15(16)22-14/h2-6,14,17-19H,7H2,1H3" "license=License CC-BY-NC-SA 4.0 International" "author=Plant Biology, The Noble Foundation, Ardmore, OK, US/Dennis Fine, Daniel Wherritt, and Lloyd Sumner" "ionization=ESI" "collision gas=Nitrogen" "peak width=0.014" "date=2013-11-23 07:31:07+01:00" "column=Waters Acquity BEH C18 1.7um x 2.1 x 150 mm" "retention time=623.4" "raw data file=C:\Data\Confirmed Standards\Confirmed stds MSMS 22Nov13\Hesperetin (vial 258).d" "SPLASH=splash10-0udi-0009000000-b833c4c244a2461530ec" "submitter=Aiko Barsch (Bruker)" "MoNA Rating=3.888888888888889"
Num Peaks: 20
112.9864 0.200200
116.9287 0.300300
174.9564 0.200200
235.9275 0.400400
242.9445 0.300300
248.9615 0.200200
286.0471 0.200200
301.0726 100.000000
302.0758 14.614615
303.0773 1.601602
304.0836 0.200200
304.9125 0.200200
369.0587 1.901902
370.0634 0.400400
431.0296 0.300300
491.9994 0.200200
603.1526 4.804805
604.1558 1.601602
605.1593 0.400400
666.0228 0.500501


Name: Hesperetin
Synon: $:00in-source
DB#: MetaboBASE0474
InChIKey: AIONOLUJZLIMTK-AWEZNQCLSA-N
Precursor_type: [M-H]-
Spectrum_type: MS2
PrecursorMZ: 301.0724
Instrument_type: LC-ESI-TOF
Instrument: impact HD
Ion_mode: N
Collision_energy: 10
Formula: C16H14O6
MW: 302
ExactMass: 302.07903816799995
Comments: "cas number=520-33-2" "SMILES=COc1ccc(cc1O)[C@@H]2CC(=O)c3c(cc(cc3O2)O)O" "InChI=InChI=1S/C16H14O6/c1-21-13-3-2-8(4-10(13)18)14-7-12(20)16-11(19)5-9(17)6-15(16)22-14/h2-6,14,17-19H,7H2,1H3/t14-/m0/s1" "computed SMILES=O=C1C=2C(O)=CC(O)=CC2OC(C3=CC=C(OC)C(O)=C3)C1" "computed InChI=InChI=1S/C16H14O6/c1-21-13-3-2-8(4-10(13)18)14-7-12(20)16-11(19)5-9(17)6-15(16)22-14/h2-6,14,17-19H,7H2,1H3" "license=License CC-BY-NC-SA 4.0 International" "author=Plant Biology, The Noble Foundation, Ardmore, OK, US/Dennis Fine, Daniel Wherritt, and Lloyd Sumner" "ionization=ESI" "isolation width=5" "collision gas=Nitrogen" "peak width=0.01" "date=2013-11-23 07:31:07+01:00" "column=Waters Acquity BEH C18 1.7um x 2.1 x 150 mm" "retention time=623.4" "raw data file=C:\Data\Confirmed Standards\Confirmed stds MSMS 22Nov13\Hesperetin (vial 258).d" "computed mass accuracy=2.118533615343636" "computed mass error=6.378320000521853E-4" "SPLASH=splash10-0udi-0009000000-32f8b49c4bc1df10782a" "submitter=Aiko Barsch (Bruker)" "MoNA Rating=4.583333333333334"
Num Peaks: 10
242.0605 0.300300
257.0818 0.500501
258.0573 0.200200
283.0607 0.200200
286.0487 1.201201
287.0515 0.200200
301.0724 100.000000
302.0756 11.811812
303.0775 1.701702
304.0840 0.200200


Name: Hesperetin
Synon: $:00in-source
DB#: MetaboBASE0475
InChIKey: AIONOLUJZLIMTK-AWEZNQCLSA-N
Precursor_type: [M-H]-
Spectrum_type: MS2
PrecursorMZ: 301.0734
Instrument_type: LC-ESI-TOF
Instrument: impact HD
Ion_mode: N
Collision_energy: 30
Formula: C16H14O6
MW: 302
ExactMass: 302.07903816799995
Comments: "cas number=520-33-2" "SMILES=COc1ccc(cc1O)[C@@H]2CC(=O)c3c(cc(cc3O2)O)O" "InChI=InChI=1S/C16H14O6/c1-21-13-3-2-8(4-10(13)18)14-7-12(20)16-11(19)5-9(17)6-15(16)22-14/h2-6,14,17-19H,7H2,1H3/t14-/m0/s1" "computed SMILES=O=C1C=2C(O)=CC(O)=CC2OC(C3=CC=C(OC)C(O)=C3)C1" "computed InChI=InChI=1S/C16H14O6/c1-21-13-3-2-8(4-10(13)18)14-7-12(20)16-11(19)5-9(17)6-15(16)22-14/h2-6,14,17-19H,7H2,1H3" "license=License CC-BY-NC-SA 4.0 International" "author=Plant Biology, The Noble Foundation, Ardmore, OK, US/Dennis Fine, Daniel Wherritt, and Lloyd Sumner" "ionization=ESI" "isolation width=5" "collision gas=Nitrogen" "peak width=0.018" "date=2013-11-23 07:31:07+01:00" "column=Waters Acquity BEH C18 1.7um x 2.1 x 150 mm" "retention time=623.4" "raw data file=C:\Data\Confirmed Standards\Confirmed stds MSMS 22Nov13\Hesperetin (vial 258).d" "computed mass accuracy=5.4399757668015125" "computed mass error=0.0016378320000285385" "SPLASH=splash10-0iki-0930000000-20176d350f94ae4a84ed" "submitter=Aiko Barsch (Bruker)" "MoNA Rating=4.545454545454546"
Num Peaks: 11
108.0223 22.222222
134.0379 46.646647
136.0174 34.034034
151.0039 74.874875
164.0119 100.000000
196.0023 41.741742
201.0214 21.921922
241.0506 19.519520
242.0582 33.833834
285.0402 22.722723
286.0487 26.226226


Name: Kaempferol-3-O-glucoside
Synon: $:00in-source
DB#: MetaboBASE0476
InChIKey: JPUKWEQWGBDDQB-QSOFNFLRSA-N
Precursor_type: [M-H]-
Spectrum_type: MS2
PrecursorMZ: 447.0934
Instrument_type: LC-ESI-TOF
Instrument: impact HD
Ion_mode: N
Collision_energy: 10
Formula: C21H20O11
MW: 448
ExactMass: 448.10056146
Comments: "cas number=480-10-4" "SMILES=c1cc(ccc1c2c(c(=O)c3c(cc(cc3o2)O)O)O[C@H]4[C@@H]([C@H]([C@@H]([C@H](O4)CO)O)O)O)O" "InChI=InChI=1S/C21H20O11/c22-7-13-15(26)17(28)18(29)21(31-13)32-20-16(27)14-11(25)5-10(24)6-12(14)30-19(20)8-1-3-9(23)4-2-8/h1-6,13,15,17-18,21-26,28-29H,7H2/t13-,15-,17+,18-,21+/m1/s1" "computed SMILES=O=C1C(OC2OC(CO)C(O)C(O)C2O)=C(OC=3C=C(O)C=C(O)C13)C=4C=CC(O)=CC4" "computed InChI=InChI=1S/C21H20O11/c22-7-13-15(26)17(28)18(29)21(31-13)32-20-16(27)14-11(25)5-10(24)6-12(14)30-19(20)8-1-3-9(23)4-2-8/h1-6,13,15,17-18,21-26,28-29H,7H2" "license=License CC-BY-NC-SA 4.0 International" "author=Plant Biology, The Noble Foundation, Ardmore, OK, US/Dennis Fine, Daniel Wherritt, and Lloyd Sumner" "ionization=ESI" "isolation width=5" "collision gas=Nitrogen" "peak width=0.0088" "date=2013-11-22 23:22:00+01:00" "column=Waters Acquity BEH C18 1.7um x 2.1 x 150 mm" "retention time=362.4" "raw data file=C:\Data\Confirmed Standards\Confirmed stds MSMS 22Nov13\Kaempferol3glucoside MSMS.d" "computed mass accuracy=0.2561880805442896" "computed mass error=1.1453999997002029E-4" "SPLASH=splash10-0002-0000900000-b3cdd88343725a79c5e0" "submitter=Aiko Barsch (Bruker)" "MoNA Rating=4.615384615384616"
Num Peaks: 7
284.0337 0.200200
285.0392 0.700701
286.0438 0.100100
447.0356 0.100100
447.0934 100.000000
448.0967 16.216216
449.0976 2.002002


Name: Kaempferol-3-O-glucoside
Synon: $:00in-source
DB#: MetaboBASE0477
InChIKey: JPUKWEQWGBDDQB-QSOFNFLRSA-N
Instrument_type: LC-ESI-TOF
Instrument: impact HD
Ion_mode: N
Collision_energy: 10
Formula: C21H20O11
MW: 448
ExactMass: 448.10056146
Comments: "cas number=480-10-4" "SMILES=c1cc(ccc1c2c(c(=O)c3c(cc(cc3o2)O)O)O[C@H]4[C@@H]([C@H]([C@@H]([C@H](O4)CO)O)O)O)O" "InChI=InChI=1S/C21H20O11/c22-7-13-15(26)17(28)18(29)21(31-13)32-20-16(27)14-11(25)5-10(24)6-12(14)30-19(20)8-1-3-9(23)4-2-8/h1-6,13,15,17-18,21-26,28-29H,7H2/t13-,15-,17+,18-,21+/m1/s1" "computed SMILES=O=C1C(OC2OC(CO)C(O)C(O)C2O)=C(OC=3C=C(O)C=C(O)C13)C=4C=CC(O)=CC4" "computed InChI=InChI=1S/C21H20O11/c22-7-13-15(26)17(28)18(29)21(31-13)32-20-16(27)14-11(25)5-10(24)6-12(14)30-19(20)8-1-3-9(23)4-2-8/h1-6,13,15,17-18,21-26,28-29H,7H2" "license=License CC-BY-NC-SA 4.0 International" "author=Plant Biology, The Noble Foundation, Ardmore, OK, US/Dennis Fine, Daniel Wherritt, and Lloyd Sumner" "ionization=ESI" "collision gas=Nitrogen" "peak width=0.015" "date=2013-11-19 19:39:53+01:00" "column=Waters Acquity BEH C18 1.7um x 2.1 x 150 mm" "retention time=362.4" "raw data file=C:\Data\Confirmed Standards\Confirmed Stds 19Nov13\Kaempferol3glucoside (v 238).d" "SPLASH=splash10-0002-0000900010-9834ce03ded5a1fe8c48" "submitter=Aiko Barsch (Bruker)" "MoNA Rating=4.444444444444445"
Num Peaks: 7
447.0946 100.000000
448.0977 19.419419
449.0999 3.303303
895.1993 11.711712
896.2022 4.804805
897.2048 1.301301
1343.2968 1.001001


Name: Kaempferol-3-O-glucoside
Synon: $:00in-source
DB#: MetaboBASE0478
InChIKey: JPUKWEQWGBDDQB-QSOFNFLRSA-N
Precursor_type: [M-H]-
Spectrum_type: MS2
PrecursorMZ: 447.0934
Instrument_type: LC-ESI-TOF
Instrument: impact HD
Ion_mode: N
Collision_energy: 20
Formula: C21H20O11
MW: 448
ExactMass: 448.10056146
Comments: "cas number=480-10-4" "SMILES=c1cc(ccc1c2c(c(=O)c3c(cc(cc3o2)O)O)O[C@H]4[C@@H]([C@H]([C@@H]([C@H](O4)CO)O)O)O)O" "InChI=InChI=1S/C21H20O11/c22-7-13-15(26)17(28)18(29)21(31-13)32-20-16(27)14-11(25)5-10(24)6-12(14)30-19(20)8-1-3-9(23)4-2-8/h1-6,13,15,17-18,21-26,28-29H,7H2/t13-,15-,17+,18-,21+/m1/s1" "computed SMILES=O=C1C(OC2OC(CO)C(O)C(O)C2O)=C(OC=3C=C(O)C=C(O)C13)C=4C=CC(O)=CC4" "computed InChI=InChI=1S/C21H20O11/c22-7-13-15(26)17(28)18(29)21(31-13)32-20-16(27)14-11(25)5-10(24)6-12(14)30-19(20)8-1-3-9(23)4-2-8/h1-6,13,15,17-18,21-26,28-29H,7H2" "license=License CC-BY-NC-SA 4.0 International" "author=Plant Biology, The Noble Foundation, Ardmore, OK, US/Dennis Fine, Daniel Wherritt, and Lloyd Sumner" "ionization=ESI" "isolation width=5" "collision gas=Nitrogen" "peak width=0.0096" "date=2013-11-22 23:22:00+01:00" "column=Waters Acquity BEH C18 1.7um x 2.1 x 150 mm" "retention time=362.4" "raw data file=C:\Data\Confirmed Standards\Confirmed stds MSMS 22Nov13\Kaempferol3glucoside MSMS.d" "computed mass accuracy=0.2561880805442896" "computed mass error=1.1453999997002029E-4" "SPLASH=splash10-0002-0020900000-182256be3fac5a878f1b" "submitter=Aiko Barsch (Bruker)" "MoNA Rating=4.615384615384616"
Num Peaks: 16
151.0056 0.100100
178.9963 0.100100
227.0346 0.300300
255.0298 0.600601
256.0339 0.200200
257.0410 0.100100
284.0324 10.910911
285.0401 14.814815
286.0428 1.901902
287.0430 0.200200
327.0520 0.300300
446.9819 0.100100
447.0934 100.000000
448.0965 15.215215
449.0981 2.402402
450.1037 0.200200


Name: Kaempferol-3-O-glucoside
Synon: $:00in-source
DB#: MetaboBASE0479
InChIKey: JPUKWEQWGBDDQB-QSOFNFLRSA-N
Precursor_type: [M-H]-
Spectrum_type: MS2
PrecursorMZ: 447.0937
Instrument_type: LC-ESI-TOF
Instrument: impact HD
Ion_mode: N
Collision_energy: 30
Formula: C21H20O11
MW: 448
ExactMass: 448.10056146
Comments: "cas number=480-10-4" "SMILES=c1cc(ccc1c2c(c(=O)c3c(cc(cc3o2)O)O)O[C@H]4[C@@H]([C@H]([C@@H]([C@H](O4)CO)O)O)O)O" "InChI=InChI=1S/C21H20O11/c22-7-13-15(26)17(28)18(29)21(31-13)32-20-16(27)14-11(25)5-10(24)6-12(14)30-19(20)8-1-3-9(23)4-2-8/h1-6,13,15,17-18,21-26,28-29H,7H2/t13-,15-,17+,18-,21+/m1/s1" "computed SMILES=O=C1C(OC2OC(CO)C(O)C(O)C2O)=C(OC=3C=C(O)C=C(O)C13)C=4C=CC(O)=CC4" "computed InChI=InChI=1S/C21H20O11/c22-7-13-15(26)17(28)18(29)21(31-13)32-20-16(27)14-11(25)5-10(24)6-12(14)30-19(20)8-1-3-9(23)4-2-8/h1-6,13,15,17-18,21-26,28-29H,7H2" "license=License CC-BY-NC-SA 4.0 International" "author=Plant Biology, The Noble Foundation, Ardmore, OK, US/Dennis Fine, Daniel Wherritt, and Lloyd Sumner" "ionization=ESI" "isolation width=5" "collision gas=Nitrogen" "peak width=0.011" "date=2013-11-22 23:22:00+01:00" "column=Waters Acquity BEH C18 1.7um x 2.1 x 150 mm" "retention time=362.4" "raw data file=C:\Data\Confirmed Standards\Confirmed stds MSMS 22Nov13\Kaempferol3glucoside MSMS.d" "computed mass accuracy=0.927188193455647" "computed mass error=4.1454000000840097E-4" "SPLASH=splash10-001i-0090100000-7bd32a5c1969c5a248ac" "submitter=Aiko Barsch (Bruker)" "MoNA Rating=4.615384615384616"
Num Peaks: 26
125.0255 0.200200
151.0053 0.500501
178.9996 0.200200
227.0342 4.504505
228.0383 0.900901
229.0479 0.400400
241.0486 0.200200
243.0307 0.300300
255.0295 9.709710
255.0652 0.200200
256.0355 3.003003
257.0427 1.001001
267.0293 0.100100
269.0436 0.200200
283.0605 0.200200
284.0328 100.000000
285.0392 31.231231
286.0419 3.803804
287.0447 0.300300
299.0564 0.200200
327.0517 1.101101
328.0559 0.200200
357.0614 0.200200
447.0937 23.223223
448.0964 3.203203
449.0976 0.700701


Name: Kaempferol-3-O-glucoside
Synon: $:00in-source
DB#: MetaboBASE0480
InChIKey: JPUKWEQWGBDDQB-QSOFNFLRSA-N
Precursor_type: [M-H]-
Spectrum_type: MS2
PrecursorMZ: 447.0907
Instrument_type: LC-ESI-TOF
Instrument: impact HD
Ion_mode: N
Collision_energy: 40
Formula: C21H20O11
MW: 448
ExactMass: 448.10056146
Comments: "cas number=480-10-4" "SMILES=c1cc(ccc1c2c(c(=O)c3c(cc(cc3o2)O)O)O[C@H]4[C@@H]([C@H]([C@@H]([C@H](O4)CO)O)O)O)O" "InChI=InChI=1S/C21H20O11/c22-7-13-15(26)17(28)18(29)21(31-13)32-20-16(27)14-11(25)5-10(24)6-12(14)30-19(20)8-1-3-9(23)4-2-8/h1-6,13,15,17-18,21-26,28-29H,7H2/t13-,15-,17+,18-,21+/m1/s1" "computed SMILES=O=C1C(OC2OC(CO)C(O)C(O)C2O)=C(OC=3C=C(O)C=C(O)C13)C=4C=CC(O)=CC4" "computed InChI=InChI=1S/C21H20O11/c22-7-13-15(26)17(28)18(29)21(31-13)32-20-16(27)14-11(25)5-10(24)6-12(14)30-19(20)8-1-3-9(23)4-2-8/h1-6,13,15,17-18,21-26,28-29H,7H2" "license=License CC-BY-NC-SA 4.0 International" "author=Plant Biology, The Noble Foundation, Ardmore, OK, US/Dennis Fine, Daniel Wherritt, and Lloyd Sumner" "ionization=ESI" "isolation width=5" "collision gas=Nitrogen" "peak width=0.013" "date=2013-11-22 23:22:00+01:00" "column=Waters Acquity BEH C18 1.7um x 2.1 x 150 mm" "retention time=362.4" "raw data file=C:\Data\Confirmed Standards\Confirmed stds MSMS 22Nov13\Kaempferol3glucoside MSMS.d" "computed mass accuracy=5.782853456753857" "computed mass error=-0.002585459999977502" "SPLASH=splash10-0560-0090000000-1c2e7f81b693e6297183" "submitter=Aiko Barsch (Bruker)" "MoNA Rating=4.545454545454546"
Num Peaks: 25
151.0049 0.500501
152.0116 0.200200
211.0419 0.200200
213.0527 0.200200
227.0341 51.151151
228.0378 6.506507
229.0477 2.302302
230.0538 0.400400
239.0338 0.400400
240.0417 0.300300
241.0506 0.400400
255.0294 79.779780
256.0348 17.217217
257.0417 2.902903
258.0463 0.300300
267.0269 0.300300
269.0458 0.200200
284.0327 100.000000
285.0388 27.727728
286.0400 2.902903
287.0461 0.600601
299.0562 0.200200
327.0507 0.300300
447.0907 1.101101
448.0979 0.400400


Name: Kaempferol-3-O-glucoside
Synon: $:00in-source
DB#: MetaboBASE0481
InChIKey: JPUKWEQWGBDDQB-QSOFNFLRSA-N
Precursor_type: [M-H]-
Spectrum_type: MS2
PrecursorMZ: 447.09
Instrument_type: LC-ESI-TOF
Instrument: impact HD
Ion_mode: N
Collision_energy: 50
Formula: C21H20O11
MW: 448
ExactMass: 448.10056146
Comments: "cas number=480-10-4" "SMILES=c1cc(ccc1c2c(c(=O)c3c(cc(cc3o2)O)O)O[C@H]4[C@@H]([C@H]([C@@H]([C@H](O4)CO)O)O)O)O" "InChI=InChI=1S/C21H20O11/c22-7-13-15(26)17(28)18(29)21(31-13)32-20-16(27)14-11(25)5-10(24)6-12(14)30-19(20)8-1-3-9(23)4-2-8/h1-6,13,15,17-18,21-26,28-29H,7H2/t13-,15-,17+,18-,21+/m1/s1" "computed SMILES=O=C1C(OC2OC(CO)C(O)C(O)C2O)=C(OC=3C=C(O)C=C(O)C13)C=4C=CC(O)=CC4" "computed InChI=InChI=1S/C21H20O11/c22-7-13-15(26)17(28)18(29)21(31-13)32-20-16(27)14-11(25)5-10(24)6-12(14)30-19(20)8-1-3-9(23)4-2-8/h1-6,13,15,17-18,21-26,28-29H,7H2" "license=License CC-BY-NC-SA 4.0 International" "author=Plant Biology, The Noble Foundation, Ardmore, OK, US/Dennis Fine, Daniel Wherritt, and Lloyd Sumner" "ionization=ESI" "isolation width=5" "collision gas=Nitrogen" "peak width=0.013" "date=2013-11-22 23:22:00+01:00" "column=Waters Acquity BEH C18 1.7um x 2.1 x 150 mm" "retention time=362.4" "raw data file=C:\Data\Confirmed Standards\Confirmed stds MSMS 22Nov13\Kaempferol3glucoside MSMS.d" "computed mass accuracy=7.3485427990542425" "computed mass error=-0.003285460000029161" "SPLASH=splash10-0a6r-0090000000-364026dfdcefd0d2e3a9" "submitter=Aiko Barsch (Bruker)" "MoNA Rating=4.545454545454546"
Num Peaks: 25
132.0244 0.300300
151.0049 0.400400
163.0057 0.300300
183.0454 0.400400
187.0417 0.300300
200.0470 0.300300
211.0393 0.700701
212.0424 0.200200
226.0239 0.500501
227.0343 100.000000
228.0381 11.511512
229.0477 2.902903
230.0524 0.500501
239.0349 1.001001
240.0381 0.400400
241.0481 0.500501
243.0260 0.300300
255.0294 98.798799
256.0335 16.216216
257.0378 2.202202
258.0453 0.400400
283.0227 0.300300
284.0324 16.116116
285.0388 7.207207
286.0442 1.101101


Name: Kaempferol-3-O-glucoside
Synon: $:00in-source
DB#: MetaboBASE0482
InChIKey: JPUKWEQWGBDDQB-QSOFNFLRSA-N
Instrument_type: LC-ESI-TOF
Instrument: impact HD
Ion_mode: N
Formula: C21H20O11
MW: 448
ExactMass: 448.10056146
Comments: "cas number=480-10-4" "SMILES=c1cc(ccc1c2c(c(=O)c3c(cc(cc3o2)O)O)O[C@H]4[C@@H]([C@H]([C@@H]([C@H](O4)CO)O)O)O)O" "InChI=InChI=1S/C21H20O11/c22-7-13-15(26)17(28)18(29)21(31-13)32-20-16(27)14-11(25)5-10(24)6-12(14)30-19(20)8-1-3-9(23)4-2-8/h1-6,13,15,17-18,21-26,28-29H,7H2/t13-,15-,17+,18-,21+/m1/s1" "computed SMILES=O=C1C(OC2OC(CO)C(O)C(O)C2O)=C(OC=3C=C(O)C=C(O)C13)C=4C=CC(O)=CC4" "computed InChI=InChI=1S/C21H20O11/c22-7-13-15(26)17(28)18(29)21(31-13)32-20-16(27)14-11(25)5-10(24)6-12(14)30-19(20)8-1-3-9(23)4-2-8/h1-6,13,15,17-18,21-26,28-29H,7H2" "license=License CC-BY-NC-SA 4.0 International" "author=Plant Biology, The Noble Foundation, Ardmore, OK, US/Dennis Fine, Daniel Wherritt, and Lloyd Sumner" "ionization=ESI" "collision gas=Nitrogen" "peak width=0.012" "date=2013-11-22 23:22:00+01:00" "column=Waters Acquity BEH C18 1.7um x 2.1 x 150 mm" "retention time=362.4" "raw data file=C:\Data\Confirmed Standards\Confirmed stds MSMS 22Nov13\Kaempferol3glucoside MSMS.d" "SPLASH=splash10-0002-0000900030-4139a6b8a2e916a0ea74" "submitter=Aiko Barsch (Bruker)" "MoNA Rating=3.888888888888889"
Num Peaks: 13
447.0936 100.000000
448.0968 17.817818
449.0984 2.702703
515.0837 1.901902
565.0348 0.700701
666.0262 0.600601
895.2084 34.034034
896.2118 14.314314
897.2157 4.004004
898.2160 0.700701
1343.3361 2.202202
1343.8378 0.900901
1344.3347 1.901902


Name: Formononetin-7-O-glucoside
Synon: Ononin
Synon: $:00in-source
DB#: MetaboBASE0483
InChIKey: MGJLSBDCWOSMHL-MIUGBVLSSA-N
Precursor_type: [M+FA-H]-
Spectrum_type: MS2
PrecursorMZ: 475.1242
Instrument_type: LC-ESI-TOF
Instrument: impact HD
Ion_mode: N
Collision_energy: 10
Formula: C22H22O9
MW: 430
ExactMass: 430.126382284
Comments: "cas number=486-62-4" "SMILES=COc1ccc(cc1)c2coc3cc(ccc3c2=O)O[C@H]4[C@@H]([C@H]([C@@H]([C@H](O4)CO)O)O)O" "InChI=InChI=1S/C22H22O9/c1-28-12-4-2-11(3-5-12)15-10-29-16-8-13(6-7-14(16)18(15)24)30-22-21(27)20(26)19(25)17(9-23)31-22/h2-8,10,17,19-23,25-27H,9H2,1H3/t17-,19-,20+,21-,22-/m1/s1" "computed SMILES=O=C1C(=COC2=CC(OC3OC(CO)C(O)C(O)C3O)=CC=C12)C=4C=CC(OC)=CC4" "computed InChI=InChI=1S/C22H22O9/c1-28-12-4-2-11(3-5-12)15-10-29-16-8-13(6-7-14(16)18(15)24)30-22-21(27)20(26)19(25)17(9-23)31-22/h2-8,10,17,19-23,25-27H,9H2,1H3" "license=License CC-BY-NC-SA 4.0 International" "author=Plant Biology, The Noble Foundation, Ardmore, OK, US/Dennis Fine, Daniel Wherritt, and Lloyd Sumner" "ionization=ESI" "isolation width=5" "collision gas=Nitrogen" "peak width=0.012" "date=2013-11-22 22:41:14+01:00" "column=Waters Acquity BEH C18 1.7um x 2.1 x 150 mm" "retention time=489" "raw data file=C:\Data\Confirmed Standards\Confirmed stds MSMS 22Nov13\Ononin (vial 232)  MSMS.d" "computed mass accuracy=0.8067027526879151" "computed mass error=-3.832840000086435E-4" "SPLASH=splash10-016r-0090500000-abc3ab9be6f16dc9bb67" "submitter=Aiko Barsch (Bruker)" "MoNA Rating=4.615384615384616"
Num Peaks: 11
207.0509 0.200200
252.0429 0.900901
266.5824 0.200200
267.0661 100.000000
268.0692 12.812813
269.0706 1.101101
429.1175 1.301301
430.1243 0.400400
475.1242 61.961962
476.1274 9.309309
477.1289 1.701702


Name: Formononetin-7-O-glucoside
Synon: Ononin
Synon: $:00in-source
DB#: MetaboBASE0484
InChIKey: MGJLSBDCWOSMHL-MIUGBVLSSA-N
Precursor_type: [M+FA-H]-
Spectrum_type: MS2
PrecursorMZ: 475.12
Instrument_type: LC-ESI-TOF
Instrument: impact HD
Ion_mode: N
Collision_energy: 40
Formula: C22H22O9
MW: 430
ExactMass: 430.126382284
Comments: "cas number=486-62-4" "SMILES=COc1ccc(cc1)c2coc3cc(ccc3c2=O)O[C@H]4[C@@H]([C@H]([C@@H]([C@H](O4)CO)O)O)O" "InChI=InChI=1S/C22H22O9/c1-28-12-4-2-11(3-5-12)15-10-29-16-8-13(6-7-14(16)18(15)24)30-22-21(27)20(26)19(25)17(9-23)31-22/h2-8,10,17,19-23,25-27H,9H2,1H3/t17-,19-,20+,21-,22-/m1/s1" "computed SMILES=O=C1C(=COC2=CC(OC3OC(CO)C(O)C(O)C3O)=CC=C12)C=4C=CC(OC)=CC4" "computed InChI=InChI=1S/C22H22O9/c1-28-12-4-2-11(3-5-12)15-10-29-16-8-13(6-7-14(16)18(15)24)30-22-21(27)20(26)19(25)17(9-23)31-22/h2-8,10,17,19-23,25-27H,9H2,1H3" "license=License CC-BY-NC-SA 4.0 International" "author=Plant Biology, The Noble Foundation, Ardmore, OK, US/Dennis Fine, Daniel Wherritt, and Lloyd Sumner" "ionization=ESI" "isolation width=5" "collision gas=Nitrogen" "peak width=0.014" "date=2013-11-22 22:41:14+01:00" "column=Waters Acquity BEH C18 1.7um x 2.1 x 150 mm" "retention time=489" "raw data file=C:\Data\Confirmed Standards\Confirmed stds MSMS 22Nov13\Ononin (vial 232)  MSMS.d" "computed mass accuracy=9.646581916100226" "computed mass error=-0.004583283999977539" "SPLASH=splash10-014i-0090000000-2b4aa9f7667e91c7c304" "submitter=Aiko Barsch (Bruker)" "MoNA Rating=4.545454545454546"
Num Peaks: 9
223.0384 2.902903
224.0434 0.800801
251.0354 1.401401
252.0420 38.938939
253.0455 7.207207
254.0475 0.600601
267.0659 100.000000
268.0692 13.613614
269.0720 1.501502


Name: Formononetin-7-O-glucoside
Synon: Ononin
Synon: $:00in-source
DB#: MetaboBASE0485
InChIKey: MGJLSBDCWOSMHL-MIUGBVLSSA-N
Precursor_type: [M+FA-H]-
Spectrum_type: MS2
PrecursorMZ: 475.1212
Instrument_type: LC-ESI-TOF
Instrument: impact HD
Ion_mode: N
Collision_energy: 20
Formula: C22H22O9
MW: 430
ExactMass: 430.126382284
Comments: "cas number=486-62-4" "SMILES=COc1ccc(cc1)c2coc3cc(ccc3c2=O)O[C@H]4[C@@H]([C@H]([C@@H]([C@H](O4)CO)O)O)O" "InChI=InChI=1S/C22H22O9/c1-28-12-4-2-11(3-5-12)15-10-29-16-8-13(6-7-14(16)18(15)24)30-22-21(27)20(26)19(25)17(9-23)31-22/h2-8,10,17,19-23,25-27H,9H2,1H3/t17-,19-,20+,21-,22-/m1/s1" "computed SMILES=O=C1C(=COC2=CC(OC3OC(CO)C(O)C(O)C3O)=CC=C12)C=4C=CC(OC)=CC4" "computed InChI=InChI=1S/C22H22O9/c1-28-12-4-2-11(3-5-12)15-10-29-16-8-13(6-7-14(16)18(15)24)30-22-21(27)20(26)19(25)17(9-23)31-22/h2-8,10,17,19-23,25-27H,9H2,1H3" "license=License CC-BY-NC-SA 4.0 International" "author=Plant Biology, The Noble Foundation, Ardmore, OK, US/Dennis Fine, Daniel Wherritt, and Lloyd Sumner" "ionization=ESI" "isolation width=5" "collision gas=Nitrogen" "peak width=0.012" "date=2013-11-22 22:41:14+01:00" "column=Waters Acquity BEH C18 1.7um x 2.1 x 150 mm" "retention time=489" "raw data file=C:\Data\Confirmed Standards\Confirmed stds MSMS 22Nov13\Ononin (vial 232)  MSMS.d" "computed mass accuracy=7.1208862075498764" "computed mass error=-0.0033832839999945463" "SPLASH=splash10-014i-0090000000-40e8330b6def47a6f880" "submitter=Aiko Barsch (Bruker)" "MoNA Rating=4.545454545454546"
Num Peaks: 7
223.0414 0.400400
252.0434 1.801802
253.0461 0.600601
267.0660 100.000000
268.0688 11.211211
269.0714 1.101101
475.1212 0.300300


Name: Formononetin-7-O-glucoside
Synon: Ononin
Synon: $:00in-source
DB#: MetaboBASE0486
InChIKey: MGJLSBDCWOSMHL-MIUGBVLSSA-N
Instrument_type: LC-ESI-TOF
Instrument: impact HD
Ion_mode: N
Collision_energy: 10
Formula: C22H22O9
MW: 430
ExactMass: 430.126382284
Comments: "cas number=486-62-4" "SMILES=COc1ccc(cc1)c2coc3cc(ccc3c2=O)O[C@H]4[C@@H]([C@H]([C@@H]([C@H](O4)CO)O)O)O" "InChI=InChI=1S/C22H22O9/c1-28-12-4-2-11(3-5-12)15-10-29-16-8-13(6-7-14(16)18(15)24)30-22-21(27)20(26)19(25)17(9-23)31-22/h2-8,10,17,19-23,25-27H,9H2,1H3/t17-,19-,20+,21-,22-/m1/s1" "computed SMILES=O=C1C(=COC2=CC(OC3OC(CO)C(O)C(O)C3O)=CC=C12)C=4C=CC(OC)=CC4" "computed InChI=InChI=1S/C22H22O9/c1-28-12-4-2-11(3-5-12)15-10-29-16-8-13(6-7-14(16)18(15)24)30-22-21(27)20(26)19(25)17(9-23)31-22/h2-8,10,17,19-23,25-27H,9H2,1H3" "license=License CC-BY-NC-SA 4.0 International" "author=Plant Biology, The Noble Foundation, Ardmore, OK, US/Dennis Fine, Daniel Wherritt, and Lloyd Sumner" "ionization=ESI" "collision gas=Nitrogen" "peak width=0.015" "date=2013-11-19 18:59:09+01:00" "column=Waters Acquity BEH C18 1.7um x 2.1 x 150 mm" "retention time=489" "raw data file=C:\Data\Confirmed Standards\Confirmed Stds 19Nov13\Ononin (vial 232).d" "SPLASH=splash10-016r-0090800010-1996b10d5781241e4de9" "submitter=Aiko Barsch (Bruker)" "MoNA Rating=4.444444444444445"
Num Peaks: 21
112.9856 1.301301
116.9283 1.001001
252.0419 2.002002
267.0658 100.000000
268.0688 13.013013
269.0715 1.401401
429.1176 1.001001
475.1240 87.787788
476.1273 18.818819
477.1295 3.003003
543.1119 2.002002
697.1946 3.103103
698.1975 1.101101
859.2474 9.409409
860.2507 4.104104
861.2543 1.101101
905.2521 8.508509
906.2549 3.703704
1289.3777 3.303303
1290.3805 2.302302
1335.3832 1.101101


Name: Formononetin-7-O-glucoside
Synon: Ononin
Synon: $:00in-source
DB#: MetaboBASE0487
InChIKey: MGJLSBDCWOSMHL-MIUGBVLSSA-N
Instrument_type: LC-ESI-TOF
Instrument: impact HD
Ion_mode: N
Formula: C22H22O9
MW: 430
ExactMass: 430.126382284
Comments: "cas number=486-62-4" "SMILES=COc1ccc(cc1)c2coc3cc(ccc3c2=O)O[C@H]4[C@@H]([C@H]([C@@H]([C@H](O4)CO)O)O)O" "InChI=InChI=1S/C22H22O9/c1-28-12-4-2-11(3-5-12)15-10-29-16-8-13(6-7-14(16)18(15)24)30-22-21(27)20(26)19(25)17(9-23)31-22/h2-8,10,17,19-23,25-27H,9H2,1H3/t17-,19-,20+,21-,22-/m1/s1" "computed SMILES=O=C1C(=COC2=CC(OC3OC(CO)C(O)C(O)C3O)=CC=C12)C=4C=CC(OC)=CC4" "computed InChI=InChI=1S/C22H22O9/c1-28-12-4-2-11(3-5-12)15-10-29-16-8-13(6-7-14(16)18(15)24)30-22-21(27)20(26)19(25)17(9-23)31-22/h2-8,10,17,19-23,25-27H,9H2,1H3" "license=License CC-BY-NC-SA 4.0 International" "author=Plant Biology, The Noble Foundation, Ardmore, OK, US/Dennis Fine, Daniel Wherritt, and Lloyd Sumner" "ionization=ESI" "collision gas=Nitrogen" "peak width=0.014" "date=2013-11-22 22:41:14+01:00" "column=Waters Acquity BEH C18 1.7um x 2.1 x 150 mm" "retention time=489" "raw data file=C:\Data\Confirmed Standards\Confirmed stds MSMS 22Nov13\Ononin (vial 232)  MSMS.d" "SPLASH=splash10-004i-0000900002-ea87ff9ab47287f818e8" "submitter=Aiko Barsch (Bruker)" "MoNA Rating=3.888888888888889"
Num Peaks: 22
112.9853 0.700701
116.9288 0.800801
267.0659 5.405405
268.0695 0.800801
429.1195 0.700701
475.1244 100.000000
476.1280 20.620621
477.1307 3.203203
543.1134 1.201201
547.0565 0.700701
666.0209 0.800801
859.2493 2.802803
860.2525 1.101101
905.2550 22.022022
906.2581 9.709710
907.2611 2.802803
973.2453 0.600601
1289.3793 4.004004
1290.3855 2.702703
1291.3815 0.900901
1335.3871 1.501502
1336.3876 1.001001


Name: Formononetin-7-O-glucoside
Synon: Ononin
Synon: $:00in-source
DB#: MetaboBASE0488
InChIKey: MGJLSBDCWOSMHL-MIUGBVLSSA-N
Precursor_type: [M+FA-H]-
Spectrum_type: MS2
PrecursorMZ: 475.12
Instrument_type: LC-ESI-TOF
Instrument: impact HD
Ion_mode: N
Collision_energy: 50
Formula: C22H22O9
MW: 430
ExactMass: 430.126382284
Comments: "cas number=486-62-4" "SMILES=COc1ccc(cc1)c2coc3cc(ccc3c2=O)O[C@H]4[C@@H]([C@H]([C@@H]([C@H](O4)CO)O)O)O" "InChI=InChI=1S/C22H22O9/c1-28-12-4-2-11(3-5-12)15-10-29-16-8-13(6-7-14(16)18(15)24)30-22-21(27)20(26)19(25)17(9-23)31-22/h2-8,10,17,19-23,25-27H,9H2,1H3/t17-,19-,20+,21-,22-/m1/s1" "computed SMILES=O=C1C(=COC2=CC(OC3OC(CO)C(O)C(O)C3O)=CC=C12)C=4C=CC(OC)=CC4" "computed InChI=InChI=1S/C22H22O9/c1-28-12-4-2-11(3-5-12)15-10-29-16-8-13(6-7-14(16)18(15)24)30-22-21(27)20(26)19(25)17(9-23)31-22/h2-8,10,17,19-23,25-27H,9H2,1H3" "license=License CC-BY-NC-SA 4.0 International" "author=Plant Biology, The Noble Foundation, Ardmore, OK, US/Dennis Fine, Daniel Wherritt, and Lloyd Sumner" "ionization=ESI" "isolation width=5" "collision gas=Nitrogen" "peak width=0.014" "date=2013-11-22 22:41:14+01:00" "column=Waters Acquity BEH C18 1.7um x 2.1 x 150 mm" "retention time=489" "raw data file=C:\Data\Confirmed Standards\Confirmed stds MSMS 22Nov13\Ononin (vial 232)  MSMS.d" "computed mass accuracy=9.646581916100226" "computed mass error=-0.004583283999977539" "SPLASH=splash10-0udi-0090000000-c0392fd74b36839d6a6e" "submitter=Aiko Barsch (Bruker)" "MoNA Rating=4.545454545454546"
Num Peaks: 8
223.0403 7.407407
224.0463 3.003003
251.0363 2.602603
252.0423 100.000000
253.0466 11.511512
254.0474 1.601602
267.0655 40.240240
268.0697 5.005005


Name: Formononetin-7-O-glucoside
Synon: Ononin
Synon: $:00in-source
DB#: MetaboBASE0489
InChIKey: MGJLSBDCWOSMHL-MIUGBVLSSA-N
Precursor_type: [M+FA-H]-
Spectrum_type: MS2
PrecursorMZ: 475.12
Instrument_type: LC-ESI-TOF
Instrument: impact HD
Ion_mode: N
Collision_energy: 30
Formula: C22H22O9
MW: 430
ExactMass: 430.126382284
Comments: "cas number=486-62-4" "SMILES=COc1ccc(cc1)c2coc3cc(ccc3c2=O)O[C@H]4[C@@H]([C@H]([C@@H]([C@H](O4)CO)O)O)O" "InChI=InChI=1S/C22H22O9/c1-28-12-4-2-11(3-5-12)15-10-29-16-8-13(6-7-14(16)18(15)24)30-22-21(27)20(26)19(25)17(9-23)31-22/h2-8,10,17,19-23,25-27H,9H2,1H3/t17-,19-,20+,21-,22-/m1/s1" "computed SMILES=O=C1C(=COC2=CC(OC3OC(CO)C(O)C(O)C3O)=CC=C12)C=4C=CC(OC)=CC4" "computed InChI=InChI=1S/C22H22O9/c1-28-12-4-2-11(3-5-12)15-10-29-16-8-13(6-7-14(16)18(15)24)30-22-21(27)20(26)19(25)17(9-23)31-22/h2-8,10,17,19-23,25-27H,9H2,1H3" "license=License CC-BY-NC-SA 4.0 International" "author=Plant Biology, The Noble Foundation, Ardmore, OK, US/Dennis Fine, Daniel Wherritt, and Lloyd Sumner" "ionization=ESI" "isolation width=5" "collision gas=Nitrogen" "peak width=0.012" "date=2013-11-22 22:41:14+01:00" "column=Waters Acquity BEH C18 1.7um x 2.1 x 150 mm" "retention time=489" "raw data file=C:\Data\Confirmed Standards\Confirmed stds MSMS 22Nov13\Ononin (vial 232)  MSMS.d" "computed mass accuracy=9.646581916100226" "computed mass error=-0.004583283999977539" "SPLASH=splash10-014i-0090000000-754d1e4621f3b19aa9f0" "submitter=Aiko Barsch (Bruker)" "MoNA Rating=4.545454545454546"
Num Peaks: 8
223.0402 0.600601
224.0448 0.400400
251.0354 0.500501
252.0421 7.607608
253.0461 1.501502
267.0660 100.000000
268.0693 11.211211
269.0728 1.201201


Name: 6,7,3',4'-Tetrahydroxyflavanone
Synon: $:00in-source
DB#: MetaboBASE0490
InChIKey: ZIKILYZOICUSQT-UHFFFAOYSA-N
Instrument_type: LC-ESI-TOF
Instrument: impact HD
Ion_mode: N
Collision_energy: 10
Formula: C15H12O6
MW: 288
ExactMass: 288.06338810399996
Comments: "computed SMILES=O=C1C2=CC(O)=C(O)C=C2OC(C3=CC=C(O)C(O)=C3)C1" "computed InChI=InChI=1S/C15H12O6/c16-9-2-1-7(3-11(9)18)14-5-10(17)8-4-12(19)13(20)6-15(8)21-14/h1-4,6,14,16,18-20H,5H2" "license=License CC-BY-NC-SA 4.0 International" "author=Plant Biology, The Noble Foundation, Ardmore, OK, US/Dennis Fine, Daniel Wherritt, and Lloyd Sumner" "ionization=ESI" "collision gas=Nitrogen" "peak width=0.017" "date=2013-11-20 02:27:08+01:00" "column=Waters Acquity BEH C18 1.7um x 2.1 x 150 mm" "retention time=264" "raw data file=C:\Data\Confirmed Standards\Confirmed Stds 19Nov13\673'4'Tetrahyroxyflavone v256.d" "SPLASH=splash10-000i-0090010000-1f8938e7da575839a3b3" "submitter=Aiko Barsch (Bruker)" "MoNA Rating=4.444444444444445"
Num Peaks: 41
111.0088 2.402402
135.0439 3.403403
151.0017 8.108108
161.0222 1.101101
164.9806 1.001001
197.0592 1.201201
199.0386 2.002002
215.0340 1.401401
223.0394 6.706707
224.0435 1.201201
241.0506 16.116116
242.0534 2.202202
257.0460 1.601602
267.0306 12.012012
268.0338 1.901902
285.0416 28.728729
286.0446 4.304304
287.0576 100.000000
288.0606 12.812813
289.0626 1.701702
299.0209 4.104104
301.0365 5.805806
303.0519 5.405405
309.0388 1.201201
317.0309 2.102102
319.0466 1.801802
571.0876 1.801802
573.1032 3.403403
574.1054 1.101101
575.1193 7.507508
576.1227 2.102102
583.0518 2.902903
585.0676 5.605606
586.0704 1.501502
587.0831 3.203203
597.0988 1.001001
599.0467 1.501502
601.0615 1.901902
603.0782 2.502503
605.0945 1.601602
628.0323 1.001001


Name: 6,7,3',4'-Tetrahydroxyflavanone
Synon: $:00in-source
DB#: MetaboBASE0491
InChIKey: ZIKILYZOICUSQT-UHFFFAOYSA-N
Precursor_type: [M-H]-
Spectrum_type: MS2
PrecursorMZ: 287.0565
Instrument_type: LC-ESI-TOF
Instrument: impact HD
Ion_mode: N
Collision_energy: 10
Formula: C15H12O6
MW: 288
ExactMass: 288.06338810399996
Comments: "computed SMILES=O=C1C2=CC(O)=C(O)C=C2OC(C3=CC=C(O)C(O)=C3)C1" "computed InChI=InChI=1S/C15H12O6/c16-9-2-1-7(3-11(9)18)14-5-10(17)8-4-12(19)13(20)6-15(8)21-14/h1-4,6,14,16,18-20H,5H2" "license=License CC-BY-NC-SA 4.0 International" "author=Plant Biology, The Noble Foundation, Ardmore, OK, US/Dennis Fine, Daniel Wherritt, and Lloyd Sumner" "ionization=ESI" "isolation width=5" "collision gas=Nitrogen" "peak width=0.014" "date=2013-11-23 06:09:40+01:00" "column=Waters Acquity BEH C18 1.7um x 2.1 x 150 mm" "retention time=264" "raw data file=C:\Data\Confirmed Standards\Confirmed stds MSMS 22Nov13\673'4'Tetrahyroxyflavone  MSMS.d" "computed mass accuracy=1.3512879870805656" "computed mass error=3.878960000633924E-4" "SPLASH=splash10-000i-0090000000-373da9559a2c233b7e2d" "submitter=Aiko Barsch (Bruker)" "MoNA Rating=4.583333333333334"
Num Peaks: 23
111.0085 1.601602
135.0458 2.802803
151.0042 4.604605
152.0067 0.600601
161.0251 0.600601
177.0197 0.700701
199.0399 1.101101
215.0354 0.700701
223.0388 3.903904
224.0429 1.101101
241.0498 7.007007
242.0547 1.301301
257.0443 0.600601
267.0291 6.006006
268.0336 0.600601
269.0441 0.500501
285.0405 6.206206
285.5689 0.400400
286.0439 1.701702
287.0565 100.000000
288.0595 11.211211
289.0610 2.002002
290.0673 0.400400


Name: 6,7,3',4'-Tetrahydroxyflavanone
Synon: $:00in-source
DB#: MetaboBASE0492
InChIKey: ZIKILYZOICUSQT-UHFFFAOYSA-N
Precursor_type: [M-H]-
Spectrum_type: MS2
PrecursorMZ: 287.0574
Instrument_type: LC-ESI-TOF
Instrument: impact HD
Ion_mode: N
Collision_energy: 20
Formula: C15H12O6
MW: 288
ExactMass: 288.06338810399996
Comments: "computed SMILES=O=C1C2=CC(O)=C(O)C=C2OC(C3=CC=C(O)C(O)=C3)C1" "computed InChI=InChI=1S/C15H12O6/c16-9-2-1-7(3-11(9)18)14-5-10(17)8-4-12(19)13(20)6-15(8)21-14/h1-4,6,14,16,18-20H,5H2" "license=License CC-BY-NC-SA 4.0 International" "author=Plant Biology, The Noble Foundation, Ardmore, OK, US/Dennis Fine, Daniel Wherritt, and Lloyd Sumner" "ionization=ESI" "isolation width=5" "collision gas=Nitrogen" "peak width=0.016" "date=2013-11-23 06:09:40+01:00" "column=Waters Acquity BEH C18 1.7um x 2.1 x 150 mm" "retention time=264" "raw data file=C:\Data\Confirmed Standards\Confirmed stds MSMS 22Nov13\673'4'Tetrahyroxyflavone  MSMS.d" "computed mass accuracy=4.48654519969875" "computed mass error=0.0012878960000080042" "SPLASH=splash10-0f79-0910000000-c2926698a4d754ca0ab8" "submitter=Aiko Barsch (Bruker)" "MoNA Rating=4.583333333333334"
Num Peaks: 22
107.0142 4.404404
111.0093 12.612613
123.0093 8.608609
133.0299 3.203203
134.0363 2.402402
135.0455 99.899900
136.0499 8.008008
151.0039 100.000000
152.0079 4.704705
161.0253 5.005005
165.0200 3.903904
169.0099 3.103103
199.0382 4.804805
215.0348 3.903904
223.0402 11.611612
224.0463 5.605606
225.0498 2.502503
241.0492 4.704705
245.0430 2.702703
267.0300 3.103103
269.0449 2.402402
287.0574 10.810811


Name: 6,7,3',4'-Tetrahydroxyflavanone
Synon: $:00in-source
DB#: MetaboBASE0493
InChIKey: ZIKILYZOICUSQT-UHFFFAOYSA-N
Instrument_type: LC-ESI-TOF
Instrument: impact HD
Ion_mode: N
Formula: C15H12O6
MW: 288
ExactMass: 288.06338810399996
Comments: "computed SMILES=O=C1C2=CC(O)=C(O)C=C2OC(C3=CC=C(O)C(O)=C3)C1" "computed InChI=InChI=1S/C15H12O6/c16-9-2-1-7(3-11(9)18)14-5-10(17)8-4-12(19)13(20)6-15(8)21-14/h1-4,6,14,16,18-20H,5H2" "license=License CC-BY-NC-SA 4.0 International" "author=Plant Biology, The Noble Foundation, Ardmore, OK, US/Dennis Fine, Daniel Wherritt, and Lloyd Sumner" "ionization=ESI" "collision gas=Nitrogen" "peak width=0.015" "date=2013-11-23 06:09:40+01:00" "column=Waters Acquity BEH C18 1.7um x 2.1 x 150 mm" "retention time=264" "raw data file=C:\Data\Confirmed Standards\Confirmed stds MSMS 22Nov13\673'4'Tetrahyroxyflavone  MSMS.d" "SPLASH=splash10-000i-0091030000-dcbd52473e99b78d9495" "submitter=Aiko Barsch (Bruker)" "MoNA Rating=3.888888888888889"
Num Peaks: 24
241.0502 4.104104
267.0295 3.303303
285.0406 43.243243
286.0438 5.305305
287.0564 100.000000
288.0595 12.112112
289.0606 1.501502
299.0196 2.302302
301.0351 6.006006
303.0512 8.008008
317.0300 3.503504
319.0460 2.702703
571.0904 2.402402
573.1063 14.414414
574.1079 3.603604
575.1227 31.431431
576.1254 8.608609
577.1273 1.501502
585.0717 2.002002
587.0830 1.501502
591.1136 2.202202
601.0652 1.801802
603.0817 2.302302
605.0947 1.701702


Name: 6,7,3',4'-Tetrahydroxyflavanone
Synon: $:00in-source
DB#: MetaboBASE0494
InChIKey: ZIKILYZOICUSQT-UHFFFAOYSA-N
Precursor_type: [M-H]-
Spectrum_type: MS2
PrecursorMZ: 287.08
Instrument_type: LC-ESI-TOF
Instrument: impact HD
Ion_mode: N
Collision_energy: 30
Formula: C15H12O6
MW: 288
ExactMass: 288.06338810399996
Comments: "computed SMILES=O=C1C2=CC(O)=C(O)C=C2OC(C3=CC=C(O)C(O)=C3)C1" "computed InChI=InChI=1S/C15H12O6/c16-9-2-1-7(3-11(9)18)14-5-10(17)8-4-12(19)13(20)6-15(8)21-14/h1-4,6,14,16,18-20H,5H2" "license=License CC-BY-NC-SA 4.0 International" "author=Plant Biology, The Noble Foundation, Ardmore, OK, US/Dennis Fine, Daniel Wherritt, and Lloyd Sumner" "ionization=ESI" "isolation width=5" "collision gas=Nitrogen" "peak width=0.014" "date=2013-11-23 06:09:40+01:00" "column=Waters Acquity BEH C18 1.7um x 2.1 x 150 mm" "retention time=264" "raw data file=C:\Data\Confirmed Standards\Confirmed stds MSMS 22Nov13\673'4'Tetrahyroxyflavone  MSMS.d" "computed mass accuracy=83.20989271289983" "computed mass error=0.023887896000019282" "SPLASH=splash10-000i-0900000000-a489b4c013b334f2b335" "submitter=Aiko Barsch (Bruker)" "MoNA Rating=4.545454545454546"
Num Peaks: 17
107.0151 11.811812
109.0295 2.102102
111.0100 4.604605
123.0098 10.610611
124.0145 3.003003
125.0247 2.602603
134.0384 3.103103
135.0455 100.000000
136.0499 8.508509
151.0039 31.231231
161.0275 3.003003
165.0235 3.803804
169.9537 2.802803
174.0334 2.102102
198.0338 2.002002
199.0409 2.002002
223.0385 5.905906


Name: 5,7-Dihydroxy-2'-methoxyflavone
Synon: $:00in-source
DB#: MetaboBASE0495
InChIKey: SWYVZKGICYEZDR-UHFFFAOYSA-N
Precursor_type: [M-H]-
Spectrum_type: MS2
PrecursorMZ: 283.06
Instrument_type: LC-ESI-TOF
Instrument: impact HD
Ion_mode: N
Collision_energy: 50
Formula: C16H12O5
MW: 284
ExactMass: 284.068473484
Comments: "cas number=10458-35-2" "SMILES=COc1ccccc1c2cc(=O)c3c(cc(cc3o2)O)O" "InChI=InChI=1S/C16H12O5/c1-20-13-5-3-2-4-10(13)14-8-12(19)16-11(18)6-9(17)7-15(16)21-14/h2-8,17-18H,1H3" "computed SMILES=O=C1C=C(OC=2C=C(O)C=C(O)C12)C=3C=CC=CC3OC" "license=License CC-BY-NC-SA 4.0 International" "author=Plant Biology, The Noble Foundation, Ardmore, OK, US/Dennis Fine, Daniel Wherritt, and Lloyd Sumner" "ionization=ESI" "isolation width=5" "collision gas=Nitrogen" "peak width=0.011" "date=2013-11-23 19:04:17+01:00" "column=Waters Acquity BEH C18 1.7um x 2.1 x 150 mm" "retention time=871.2" "raw data file=C:\Data\Confirmed Standards\Confirmed stds MSMS 22Nov13\57Dihydroxy2'methoxyfl MSMS.d" "computed mass accuracy=4.230495301307074" "computed mass error=-0.0011974839999879805" "SPLASH=splash10-0839-0890000000-726a75d0caae5c8c09e0" "submitter=Aiko Barsch (Bruker)" "MoNA Rating=4.583333333333334"
Num Peaks: 9
122.0007 49.349349
133.0299 99.199199
149.9957 42.542543
157.0300 64.764765
167.0518 33.733734
211.0406 100.000000
223.0405 34.334334
239.0361 86.086086
267.0312 87.987988


Name: 5,7-Dihydroxy-2'-methoxyflavone
Synon: $:00in-source
DB#: MetaboBASE0496
InChIKey: SWYVZKGICYEZDR-UHFFFAOYSA-N
Instrument_type: LC-ESI-TOF
Instrument: impact HD
Ion_mode: N
Collision_energy: 10
Formula: C16H12O5
MW: 284
ExactMass: 284.068473484
Comments: "cas number=10458-35-2" "SMILES=COc1ccccc1c2cc(=O)c3c(cc(cc3o2)O)O" "InChI=InChI=1S/C16H12O5/c1-20-13-5-3-2-4-10(13)14-8-12(19)16-11(18)6-9(17)7-15(16)21-14/h2-8,17-18H,1H3" "computed SMILES=O=C1C=C(OC=2C=C(O)C=C(O)C12)C=3C=CC=CC3OC" "license=License CC-BY-NC-SA 4.0 International" "author=Plant Biology, The Noble Foundation, Ardmore, OK, US/Dennis Fine, Daniel Wherritt, and Lloyd Sumner" "ionization=ESI" "collision gas=Nitrogen" "peak width=0.014" "date=2013-11-20 16:51:11+01:00" "column=Waters Acquity BEH C18 1.7um x 2.1 x 150 mm" "retention time=875.4" "raw data file=C:\Data\Confirmed Standards\Confirmed Stds 19Nov13\57Dihydroxy2'methoxyflavone_2094.d" "SPLASH=splash10-001i-0090000000-7c387d54e81ee40bb2a4" "submitter=Aiko Barsch (Bruker)" "MoNA Rating=4.444444444444445"
Num Peaks: 4
268.0382 3.003003
283.0626 100.000000
284.0654 17.417417
285.0677 1.801802


Name: 5,7-Dihydroxy-2'-methoxyflavone
Synon: $:00in-source
DB#: MetaboBASE0497
InChIKey: SWYVZKGICYEZDR-UHFFFAOYSA-N
Instrument_type: LC-ESI-TOF
Instrument: impact HD
Ion_mode: N
Formula: C16H12O5
MW: 284
ExactMass: 284.068473484
Comments: "cas number=10458-35-2" "SMILES=COc1ccccc1c2cc(=O)c3c(cc(cc3o2)O)O" "InChI=InChI=1S/C16H12O5/c1-20-13-5-3-2-4-10(13)14-8-12(19)16-11(18)6-9(17)7-15(16)21-14/h2-8,17-18H,1H3" "computed SMILES=O=C1C=C(OC=2C=C(O)C=C(O)C12)C=3C=CC=CC3OC" "license=License CC-BY-NC-SA 4.0 International" "author=Plant Biology, The Noble Foundation, Ardmore, OK, US/Dennis Fine, Daniel Wherritt, and Lloyd Sumner" "ionization=ESI" "collision gas=Nitrogen" "peak width=0.014" "date=2013-11-23 19:04:17+01:00" "column=Waters Acquity BEH C18 1.7um x 2.1 x 150 mm" "retention time=871.2" "raw data file=C:\Data\Confirmed Standards\Confirmed stds MSMS 22Nov13\57Dihydroxy2'methoxyfl MSMS.d" "SPLASH=splash10-001i-0090000000-19f61378a59c83cefe8c" "submitter=Aiko Barsch (Bruker)" "MoNA Rating=3.888888888888889"
Num Peaks: 19
174.9566 0.100100
242.9446 0.100100
253.0520 1.701702
254.0549 0.200200
268.0376 0.200200
283.0362 0.100100
283.0623 100.000000
284.0652 17.417417
285.0670 1.801802
286.0699 0.200200
319.0378 0.500501
321.0365 0.200200
351.0484 0.900901
352.0501 0.200200
413.0168 0.100100
567.1326 3.403403
568.1347 0.900901
569.1375 0.200200
589.1135 0.100100


Name: 5,7-Dihydroxy-2'-methoxyflavone
Synon: $:00in-source
DB#: MetaboBASE0498
InChIKey: SWYVZKGICYEZDR-UHFFFAOYSA-N
Precursor_type: [M-H]-
Spectrum_type: MS2
PrecursorMZ: 283.06
Instrument_type: LC-ESI-TOF
Instrument: impact HD
Ion_mode: N
Collision_energy: 40
Formula: C16H12O5
MW: 284
ExactMass: 284.068473484
Comments: "cas number=10458-35-2" "SMILES=COc1ccccc1c2cc(=O)c3c(cc(cc3o2)O)O" "InChI=InChI=1S/C16H12O5/c1-20-13-5-3-2-4-10(13)14-8-12(19)16-11(18)6-9(17)7-15(16)21-14/h2-8,17-18H,1H3" "computed SMILES=O=C1C=C(OC=2C=C(O)C=C(O)C12)C=3C=CC=CC3OC" "license=License CC-BY-NC-SA 4.0 International" "author=Plant Biology, The Noble Foundation, Ardmore, OK, US/Dennis Fine, Daniel Wherritt, and Lloyd Sumner" "ionization=ESI" "isolation width=5" "collision gas=Nitrogen" "peak width=0.017" "date=2013-11-23 19:04:17+01:00" "column=Waters Acquity BEH C18 1.7um x 2.1 x 150 mm" "retention time=871.2" "raw data file=C:\Data\Confirmed Standards\Confirmed stds MSMS 22Nov13\57Dihydroxy2'methoxyfl MSMS.d" "computed mass accuracy=4.230495301307074" "computed mass error=-0.0011974839999879805" "SPLASH=splash10-014i-0490000000-e49d7e7a740bc8402a85" "submitter=Aiko Barsch (Bruker)" "MoNA Rating=4.583333333333334"
Num Peaks: 16
117.0344 6.706707
122.0011 50.350350
133.0293 8.508509
149.9960 23.023023
157.0292 5.105105
195.0449 8.408408
196.0526 22.422422
211.0392 9.109109
223.0409 17.017017
239.0351 42.042042
240.0431 43.743744
241.0487 10.810811
251.0364 5.905906
267.0305 100.000000
268.0370 36.036036
269.0403 8.608609


Name: 5,7-Dihydroxy-2'-methoxyflavone
Synon: $:00in-source
DB#: MetaboBASE0499
InChIKey: SWYVZKGICYEZDR-UHFFFAOYSA-N
Precursor_type: [M-H]-
Spectrum_type: MS2
PrecursorMZ: 283.0619
Instrument_type: LC-ESI-TOF
Instrument: impact HD
Ion_mode: N
Collision_energy: 20
Formula: C16H12O5
MW: 284
ExactMass: 284.068473484
Comments: "cas number=10458-35-2" "SMILES=COc1ccccc1c2cc(=O)c3c(cc(cc3o2)O)O" "InChI=InChI=1S/C16H12O5/c1-20-13-5-3-2-4-10(13)14-8-12(19)16-11(18)6-9(17)7-15(16)21-14/h2-8,17-18H,1H3" "computed SMILES=O=C1C=C(OC=2C=C(O)C=C(O)C12)C=3C=CC=CC3OC" "license=License CC-BY-NC-SA 4.0 International" "author=Plant Biology, The Noble Foundation, Ardmore, OK, US/Dennis Fine, Daniel Wherritt, and Lloyd Sumner" "ionization=ESI" "isolation width=5" "collision gas=Nitrogen" "peak width=0.011" "date=2013-11-23 19:04:17+01:00" "column=Waters Acquity BEH C18 1.7um x 2.1 x 150 mm" "retention time=871.2" "raw data file=C:\Data\Confirmed Standards\Confirmed stds MSMS 22Nov13\57Dihydroxy2'methoxyfl MSMS.d" "computed mass accuracy=2.4818458435763624" "computed mass error=7.025159999898278E-4" "SPLASH=splash10-00lr-0090000000-d723bdf87e08f19cdbea" "submitter=Aiko Barsch (Bruker)" "MoNA Rating=4.583333333333334"
Num Peaks: 20
122.0003 0.300300
196.0536 0.500501
199.0405 0.100100
211.0426 0.100100
224.0502 0.100100
227.0355 0.100100
239.0359 0.600601
239.0754 0.200200
240.0435 8.008008
241.0474 0.900901
242.0502 0.200200
251.0353 0.100100
267.0305 4.704705
268.0384 57.957958
269.0418 6.006006
270.0438 0.900901
283.0619 100.000000
284.0651 12.112112
285.0671 1.601602
286.0710 0.100100


Name: 5,7-Dihydroxy-2'-methoxyflavone
Synon: $:00in-source
DB#: MetaboBASE0500
InChIKey: SWYVZKGICYEZDR-UHFFFAOYSA-N
Precursor_type: [M-H]-
Spectrum_type: MS2
PrecursorMZ: 283.0613
Instrument_type: LC-ESI-TOF
Instrument: impact HD
Ion_mode: N
Collision_energy: 30
Formula: C16H12O5
MW: 284
ExactMass: 284.068473484
Comments: "cas number=10458-35-2" "SMILES=COc1ccccc1c2cc(=O)c3c(cc(cc3o2)O)O" "InChI=InChI=1S/C16H12O5/c1-20-13-5-3-2-4-10(13)14-8-12(19)16-11(18)6-9(17)7-15(16)21-14/h2-8,17-18H,1H3" "computed SMILES=O=C1C=C(OC=2C=C(O)C=C(O)C12)C=3C=CC=CC3OC" "license=License CC-BY-NC-SA 4.0 International" "author=Plant Biology, The Noble Foundation, Ardmore, OK, US/Dennis Fine, Daniel Wherritt, and Lloyd Sumner" "ionization=ESI" "isolation width=5" "collision gas=Nitrogen" "peak width=0.014" "date=2013-11-23 19:04:17+01:00" "column=Waters Acquity BEH C18 1.7um x 2.1 x 150 mm" "retention time=871.2" "raw data file=C:\Data\Confirmed Standards\Confirmed stds MSMS 22Nov13\57Dihydroxy2'methoxyfl MSMS.d" "computed mass accuracy=0.36216890131838336" "computed mass error=1.0251600002675332E-4" "SPLASH=splash10-014i-0090000000-98dac3d8e56649f21315" "submitter=Aiko Barsch (Bruker)" "MoNA Rating=4.615384615384616"
Num Peaks: 34
122.0009 10.210210
123.0047 0.700701
133.0298 0.500501
135.0082 1.301301
148.0163 1.001001
149.9956 2.802803
151.0005 0.400400
171.0472 0.500501
172.0515 0.500501
185.0236 0.400400
195.0484 0.500501
196.0536 8.908909
197.0572 1.601602
199.0427 0.400400
211.0409 1.401401
212.0472 0.700701
223.0387 1.001001
224.0490 1.801802
225.0175 0.400400
227.0347 0.900901
239.0360 7.407407
240.0437 62.562563
241.0466 8.108108
242.0504 1.001001
249.0217 0.700701
250.0264 0.400400
251.0359 1.301301
267.0304 45.945946
268.0382 100.000000
269.0411 11.711712
270.0449 1.501502
283.0613 23.123123
284.0640 3.403403
285.0665 0.400400


Name: 7,4'-Dimethoxy-5-hydroxyflavanone
Synon: $:00in-source
DB#: MetaboBASE0501
InChIKey: CKEXCBVNKRHAMX-UHFFFAOYSA-N
Precursor_type: [M-H]-
Spectrum_type: MS2
PrecursorMZ: 299.0921
Instrument_type: LC-ESI-TOF
Instrument: impact HD
Ion_mode: N
Collision_energy: 20
Formula: C17H16O5
MW: 300
ExactMass: 300.099773612
Comments: "cas number=29424-96-2" "SMILES=COc1ccc(cc1)C2CC(=O)c3c(cc(cc3O2)OC)O" "InChI=InChI=1S/C17H16O5/c1-20-11-5-3-10(4-6-11)15-9-14(19)17-13(18)7-12(21-2)8-16(17)22-15/h3-8,15,18H,9H2,1-2H3" "computed SMILES=O=C1C=2C(O)=CC(OC)=CC2OC(C3=CC=C(OC)C=C3)C1" "license=License CC-BY-NC-SA 4.0 International" "author=Plant Biology, The Noble Foundation, Ardmore, OK, US/Dennis Fine, Daniel Wherritt, and Lloyd Sumner" "ionization=ESI" "isolation width=5" "collision gas=Nitrogen" "peak width=0.014" "date=2013-11-23 10:14:17+01:00" "column=Waters Acquity BEH C18 1.7um x 2.1 x 150 mm" "retention time=1120.2" "raw data file=C:\Data\Confirmed Standards\Confirmed stds MSMS 22Nov13\74'Dimethoxy5hydroxyfla MSMS.d" "computed mass accuracy=1.329396530272829" "computed mass error=-3.97611999972014E-4" "SPLASH=splash10-0002-0090000000-5f193ac3a88e0f2d01ec" "submitter=Aiko Barsch (Bruker)" "MoNA Rating=4.583333333333334"
Num Peaks: 19
165.0200 12.512513
166.0213 1.801802
191.0353 2.302302
241.0501 4.104104
255.0663 2.402402
256.0725 4.604605
257.0801 1.801802
266.0585 1.601602
267.0663 1.201201
269.0446 8.008008
270.0490 1.401401
271.0987 1.901902
281.0821 2.502503
283.0599 9.409409
284.0680 28.228228
285.0717 4.904905
299.0921 100.000000
300.0948 12.812813
301.0982 2.502503


Name: 7,4'-Dimethoxy-5-hydroxyflavanone
Synon: $:00in-source
DB#: MetaboBASE0502
InChIKey: CKEXCBVNKRHAMX-UHFFFAOYSA-N
Instrument_type: LC-ESI-TOF
Instrument: impact HD
Ion_mode: N
Collision_energy: 10
Formula: C17H16O5
MW: 300
ExactMass: 300.099773612
Comments: "cas number=29424-96-2" "SMILES=COc1ccc(cc1)C2CC(=O)c3c(cc(cc3O2)OC)O" "InChI=InChI=1S/C17H16O5/c1-20-11-5-3-10(4-6-11)15-9-14(19)17-13(18)7-12(21-2)8-16(17)22-15/h3-8,15,18H,9H2,1-2H3" "computed SMILES=O=C1C=2C(O)=CC(OC)=CC2OC(C3=CC=C(OC)C=C3)C1" "license=License CC-BY-NC-SA 4.0 International" "author=Plant Biology, The Noble Foundation, Ardmore, OK, US/Dennis Fine, Daniel Wherritt, and Lloyd Sumner" "ionization=ESI" "collision gas=Nitrogen" "peak width=0.016" "date=2013-11-21 08:28:19+01:00" "column=Waters Acquity BEH C18 1.7um x 2.1 x 150 mm" "retention time=1120.2" "raw data file=C:\Data\Confirmed Standards\Confirmed Stds 19Nov13\74'Dimethoxy5hydroxyflav 1 uL .d" "SPLASH=splash10-006t-0091005000-8e5c11ca8f3653a614f0" "submitter=Aiko Barsch (Bruker)" "MoNA Rating=4.444444444444445"
Num Peaks: 14
284.0672 2.502503
299.0914 100.000000
300.0943 15.215215
301.0972 1.801802
367.0789 2.902903
605.1982 1.501502
621.1725 42.942943
622.1757 13.513514
623.1778 2.502503
689.1569 1.101101
937.2377 1.501502
943.2557 5.005005
944.2593 2.702703
1259.3165 1.401401


Name: 7,4'-Dimethoxy-5-hydroxyflavanone
Synon: $:00in-source
DB#: MetaboBASE0503
InChIKey: CKEXCBVNKRHAMX-UHFFFAOYSA-N
Precursor_type: [M-H]-
Spectrum_type: MS2
PrecursorMZ: 299.09
Instrument_type: LC-ESI-TOF
Instrument: impact HD
Ion_mode: N
Collision_energy: 40
Formula: C17H16O5
MW: 300
ExactMass: 300.099773612
Comments: "cas number=29424-96-2" "SMILES=COc1ccc(cc1)C2CC(=O)c3c(cc(cc3O2)OC)O" "InChI=InChI=1S/C17H16O5/c1-20-11-5-3-10(4-6-11)15-9-14(19)17-13(18)7-12(21-2)8-16(17)22-15/h3-8,15,18H,9H2,1-2H3" "computed SMILES=O=C1C=2C(O)=CC(OC)=CC2OC(C3=CC=C(OC)C=C3)C1" "license=License CC-BY-NC-SA 4.0 International" "author=Plant Biology, The Noble Foundation, Ardmore, OK, US/Dennis Fine, Daniel Wherritt, and Lloyd Sumner" "ionization=ESI" "isolation width=5" "collision gas=Nitrogen" "peak width=0.015" "date=2013-11-23 10:14:17+01:00" "column=Waters Acquity BEH C18 1.7um x 2.1 x 150 mm" "retention time=1120.2" "raw data file=C:\Data\Confirmed Standards\Confirmed stds MSMS 22Nov13\74'Dimethoxy5hydroxyfla MSMS.d" "computed mass accuracy=8.350703801575797" "computed mass error=-0.002497612000013305" "SPLASH=splash10-014i-0950000000-75aa9ca1f789f6617ff5" "submitter=Aiko Barsch (Bruker)" "MoNA Rating=4.545454545454546"
Num Peaks: 7
119.0500 100.000000
121.0289 21.321321
149.9965 27.527528
165.0190 40.040040
241.0501 51.251251
268.0378 41.341341
283.0593 21.421421


Name: 7,4'-Dimethoxy-5-hydroxyflavanone
Synon: $:00in-source
DB#: MetaboBASE0504
InChIKey: CKEXCBVNKRHAMX-UHFFFAOYSA-N
Precursor_type: [M-H]-
Spectrum_type: MS2
PrecursorMZ: 299.0934
Instrument_type: LC-ESI-TOF
Instrument: impact HD
Ion_mode: N
Collision_energy: 30
Formula: C17H16O5
MW: 300
ExactMass: 300.09977361200004
Comments: "cas number=29424-96-2" "SMILES=COc1ccc(cc1)C2CC(=O)c3c(cc(cc3O2)OC)O" "InChI=InChI=1S/C17H16O5/c1-20-11-5-3-10(4-6-11)15-9-14(19)17-13(18)7-12(21-2)8-16(17)22-15/h3-8,15,18H,9H2,1-2H3" "computed SMILES=O=C1C=2C(O)=CC(OC)=CC2OC(C3=CC=C(OC)C=C3)C1" "license=License CC-BY-NC-SA 4.0 International" "author=Plant Biology, The Noble Foundation, Ardmore, OK, US/Dennis Fine, Daniel Wherritt, and Lloyd Sumner" "ionization=ESI" "isolation width=5" "collision gas=Nitrogen" "peak width=0.015" "date=2013-11-23 10:14:17+01:00" "column=Waters Acquity BEH C18 1.7um x 2.1 x 150 mm" "retention time=1120.2" "raw data file=C:\Data\Confirmed Standards\Confirmed stds MSMS 22Nov13\74'Dimethoxy5hydroxyfla MSMS.d" "computed mass accuracy=3.0170776082957134" "computed mass error=9.02387999929033E-4" "SPLASH=splash10-0159-0690000000-5b98cb1d98be96be510d" "submitter=Aiko Barsch (Bruker)" "MoNA Rating=4.583333333333334"
Num Peaks: 17
119.0503 51.651652
121.0312 18.118118
149.9959 13.113113
165.0192 100.000000
178.0260 14.914915
191.0347 13.413413
210.0151 10.410410
238.0622 10.210210
241.0488 71.571572
242.0543 10.710711
255.0669 12.712713
256.0718 11.411411
268.0378 12.312312
269.0438 38.538539
283.0605 68.468468
284.0666 31.231231
299.0934 15.815816


Name: Corymbosin
Synon: $:00in-source
DB#: MetaboBASE0505
InChIKey: FLCVGMVLNHYJAW-UHFFFAOYSA-N
Precursor_type: [M-H]-
Spectrum_type: MS2
PrecursorMZ: 357.0946
Instrument_type: LC-ESI-TOF
Instrument: impact HD
Ion_mode: N
Collision_energy: 20
Formula: C19H18O7
MW: 358
ExactMass: 358.105252916
Comments: "SMILES=COC1=CC(=C2C(=C1)OC(=CC2=O)C3=CC(=C(C(=C3)OC)OC)OC)O" "InChI=InChI=1S/C19H18O7/c1-22-11-7-12(20)18-13(21)9-14(26-15(18)8-11)10-5-16(23-2)19(25-4)17(6-10)24-3/h5-9,20H,1-4H3" "computed SMILES=O=C1C=C(OC=2C=C(OC)C=C(O)C12)C=3C=C(OC)C(OC)=C(OC)C3" "license=License CC-BY-NC-SA 4.0 International" "author=Plant Biology, The Noble Foundation, Ardmore, OK, US/Dennis Fine, Daniel Wherritt, and Lloyd Sumner" "ionization=ESI" "isolation width=5" "collision gas=Nitrogen" "peak width=0.017" "date=2014-07-26 12:05:45+02:00" "column=Waters Acquity BEH C18 1.7um x 2.1 x 150 mm" "retention time=1108.2" "raw data file=G:\Sumner Lab Data Management Workspace Jun2013\Projects\NSF-JST Metabolomics Nov2011-Sep2014\UPLC-MS-MSMS\Confirmed standards 24_July_2014\Corymbosin vial 260_1-C,3_01_500.d" "computed mass accuracy=9.4566425814875" "computed mass error=-0.0033769159999792464" "SPLASH=splash10-0a6u-0009000000-3d72255ebc8ef9874c78" "submitter=Aiko Barsch (Bruker)" "MoNA Rating=4.545454545454546"
Num Peaks: 12
284.0221 1.601602
298.0388 1.601602
299.0453 4.104104
313.0600 3.803804
314.0705 1.701702
327.0454 58.958959
328.0495 10.610611
341.0629 4.604605
342.0697 75.375375
343.0722 14.214214
357.0946 100.000000
358.0980 15.715716


Name: Corymbosin
Synon: $:00in-source
DB#: MetaboBASE0506
InChIKey: FLCVGMVLNHYJAW-UHFFFAOYSA-N
Precursor_type: [M-H]-
Spectrum_type: MS2
PrecursorMZ: 357.0952
Instrument_type: LC-ESI-TOF
Instrument: impact HD
Ion_mode: N
Collision_energy: 10
Formula: C19H18O7
MW: 358
ExactMass: 358.105252916
Comments: "SMILES=COC1=CC(=C2C(=C1)OC(=CC2=O)C3=CC(=C(C(=C3)OC)OC)OC)O" "InChI=InChI=1S/C19H18O7/c1-22-11-7-12(20)18-13(21)9-14(26-15(18)8-11)10-5-16(23-2)19(25-4)17(6-10)24-3/h5-9,20H,1-4H3" "computed SMILES=O=C1C=C(OC=2C=C(OC)C=C(O)C12)C=3C=C(OC)C(OC)=C(OC)C3" "license=License CC-BY-NC-SA 4.0 International" "author=Plant Biology, The Noble Foundation, Ardmore, OK, US/Dennis Fine, Daniel Wherritt, and Lloyd Sumner" "ionization=ESI" "isolation width=5" "collision gas=Nitrogen" "peak width=0.017" "date=2014-07-26 12:05:45+02:00" "column=Waters Acquity BEH C18 1.7um x 2.1 x 150 mm" "retention time=1108.2" "raw data file=G:\Sumner Lab Data Management Workspace Jun2013\Projects\NSF-JST Metabolomics Nov2011-Sep2014\UPLC-MS-MSMS\Confirmed standards 24_July_2014\Corymbosin vial 260_1-C,3_01_500.d" "computed mass accuracy=7.77640248319264" "computed mass error=-0.002776916000016172" "SPLASH=splash10-0a4i-0009000000-b6876c6006c0c49f850e" "submitter=Aiko Barsch (Bruker)" "MoNA Rating=4.545454545454546"
Num Peaks: 3
342.0717 3.903904
357.0952 100.000000
358.0987 19.119119


Name: Corymbosin
Synon: $:00in-source
DB#: MetaboBASE0507
InChIKey: FLCVGMVLNHYJAW-UHFFFAOYSA-N
Instrument_type: LC-ESI-TOF
Instrument: impact HD
Ion_mode: N
Collision_energy: 10
Formula: C19H18O7
MW: 358
ExactMass: 358.105252916
Comments: "SMILES=COC1=CC(=C2C(=C1)OC(=CC2=O)C3=CC(=C(C(=C3)OC)OC)OC)O" "InChI=InChI=1S/C19H18O7/c1-22-11-7-12(20)18-13(21)9-14(26-15(18)8-11)10-5-16(23-2)19(25-4)17(6-10)24-3/h5-9,20H,1-4H3" "computed SMILES=O=C1C=C(OC=2C=C(OC)C=C(O)C12)C=3C=C(OC)C(OC)=C(OC)C3" "license=License CC-BY-NC-SA 4.0 International" "author=Plant Biology, The Noble Foundation, Ardmore, OK, US/Dennis Fine, Daniel Wherritt, and Lloyd Sumner" "ionization=ESI" "collision gas=Nitrogen" "peak width=0.018" "date=2013-11-21 07:47:34+01:00" "column=Waters Acquity BEH C18 1.7um x 2.1 x 150 mm" "retention time=1108.2" "raw data file=C:\Data\Confirmed Standards\Confirmed Stds 19Nov13\Corymbosin (vial 260) 3 uL.d" "SPLASH=splash10-0a4r-0109300700-cb7a40d594540f106b8c" "submitter=Aiko Barsch (Bruker)" "MoNA Rating=4.444444444444445"
Num Peaks: 38
128.0103 2.102102
342.0749 1.401401
357.0984 100.000000
358.1014 16.916917
359.1033 2.802803
403.1053 1.301301
425.0864 32.532533
426.0890 6.606607
427.0922 1.201201
487.0566 2.302302
548.0255 1.501502
715.2009 1.601602
721.2085 2.002002
737.1830 69.469469
738.1864 23.723724
739.1864 5.705706
740.1917 1.201201
761.2081 1.301301
799.1580 1.701702
805.1720 3.903904
806.1741 1.701702
1073.3123 1.701702
1074.3102 1.101101
1095.2920 2.102102
1096.2971 1.301301
1111.2577 1.901902
1112.2549 1.101101
1117.2705 8.208208
1118.2767 4.604605
1119.2761 1.701702
1304.8052 1.101101
1305.3153 1.201201
1307.8147 1.201201
1469.3654 2.302302
1470.3654 1.901902
1494.8491 1.101101
1497.3633 2.102102
1498.3612 1.901902


Name: Corymbosin
Synon: $:00in-source
DB#: MetaboBASE0508
InChIKey: FLCVGMVLNHYJAW-UHFFFAOYSA-N
Precursor_type: [M-H]-
Spectrum_type: MS2
PrecursorMZ: 357
Instrument_type: LC-ESI-TOF
Instrument: impact HD
Ion_mode: N
Collision_energy: 50
Formula: C19H18O7
MW: 358
ExactMass: 358.105252916
Comments: "SMILES=COC1=CC(=C2C(=C1)OC(=CC2=O)C3=CC(=C(C(=C3)OC)OC)OC)O" "InChI=InChI=1S/C19H18O7/c1-22-11-7-12(20)18-13(21)9-14(26-15(18)8-11)10-5-16(23-2)19(25-4)17(6-10)24-3/h5-9,20H,1-4H3" "computed SMILES=O=C1C=C(OC=2C=C(OC)C=C(O)C12)C=3C=C(OC)C(OC)=C(OC)C3" "license=License CC-BY-NC-SA 4.0 International" "author=Plant Biology, The Noble Foundation, Ardmore, OK, US/Dennis Fine, Daniel Wherritt, and Lloyd Sumner" "ionization=ESI" "isolation width=5" "collision gas=Nitrogen" "peak width=0.018" "date=2014-07-26 12:05:45+02:00" "column=Waters Acquity BEH C18 1.7um x 2.1 x 150 mm" "retention time=1108.2" "raw data file=G:\Sumner Lab Data Management Workspace Jun2013\Projects\NSF-JST Metabolomics Nov2011-Sep2014\UPLC-MS-MSMS\Confirmed standards 24_July_2014\Corymbosin vial 260_1-C,3_01_500.d" "computed mass accuracy=274.445142857124" "computed mass error=-0.09797691599999325" "SPLASH=splash10-0arv-0090000000-64bbb5003f66c9c5fe6c" "submitter=Aiko Barsch (Bruker)" "MoNA Rating=4.166666666666666"
Num Peaks: 34
121.0317 6.906907
165.0204 14.214214
169.0309 13.113113
185.0182 6.306306
197.0180 22.322322
201.0104 10.110110
213.0109 21.221221
214.0140 5.705706
225.0062 36.236236
226.0123 6.706707
227.0228 10.810811
228.0292 32.732733
229.0031 5.705706
239.0185 11.111111
240.0311 19.719720
240.9990 69.769770
241.0317 7.207207
242.0040 9.309309
244.9926 8.208208
253.0007 14.314314
255.0154 14.514515
256.0239 100.000000
257.0248 18.218218
268.9945 62.962963
270.0015 8.708709
282.0067 6.506507
283.0136 10.010010
284.0209 70.570571
285.0226 6.506507
288.0185 7.407407
296.9934 8.408408
298.0375 11.411411
299.0461 31.231231
327.0431 11.011011


Name: Corymbosin
Synon: $:00in-source
DB#: MetaboBASE0509
InChIKey: FLCVGMVLNHYJAW-UHFFFAOYSA-N
Precursor_type: [M-H]-
Spectrum_type: MS2
PrecursorMZ: 357
Instrument_type: LC-ESI-TOF
Instrument: impact HD
Ion_mode: N
Collision_energy: 40
Formula: C19H18O7
MW: 358
ExactMass: 358.105252916
Comments: "SMILES=COC1=CC(=C2C(=C1)OC(=CC2=O)C3=CC(=C(C(=C3)OC)OC)OC)O" "InChI=InChI=1S/C19H18O7/c1-22-11-7-12(20)18-13(21)9-14(26-15(18)8-11)10-5-16(23-2)19(25-4)17(6-10)24-3/h5-9,20H,1-4H3" "computed SMILES=O=C1C=C(OC=2C=C(OC)C=C(O)C12)C=3C=C(OC)C(OC)=C(OC)C3" "license=License CC-BY-NC-SA 4.0 International" "author=Plant Biology, The Noble Foundation, Ardmore, OK, US/Dennis Fine, Daniel Wherritt, and Lloyd Sumner" "ionization=ESI" "isolation width=5" "collision gas=Nitrogen" "peak width=0.017" "date=2014-07-26 12:05:45+02:00" "column=Waters Acquity BEH C18 1.7um x 2.1 x 150 mm" "retention time=1108.2" "raw data file=G:\Sumner Lab Data Management Workspace Jun2013\Projects\NSF-JST Metabolomics Nov2011-Sep2014\UPLC-MS-MSMS\Confirmed standards 24_July_2014\Corymbosin vial 260_1-C,3_01_500.d" "computed mass accuracy=274.445142857124" "computed mass error=-0.09797691599999325" "SPLASH=splash10-0032-0092000000-ded32c9392912e7cc385" "submitter=Aiko Barsch (Bruker)" "MoNA Rating=4.166666666666666"
Num Peaks: 34
165.0217 10.910911
197.0167 7.707708
225.0070 8.608609
228.0291 4.504505
239.0249 4.604605
240.0292 11.211211
241.0013 22.922923
241.0307 4.104104
244.9962 8.308308
252.9984 6.906907
255.0110 5.105105
256.0236 40.940941
257.0259 5.405405
268.0235 3.703704
268.9969 30.930931
269.0328 3.903904
269.9994 3.703704
270.0393 5.205205
271.0477 4.504505
283.0117 11.211211
284.0215 81.381381
285.0258 10.810811
288.0197 4.204204
296.9941 5.305305
298.0370 10.210210
299.0465 100.000000
300.0515 14.014014
312.0161 10.110110
313.0606 3.303303
326.0403 4.704705
327.0448 58.058058
328.0472 11.111111
1395.7002 3.403403
1396.2462 3.403403


Name: Corymbosin
Synon: $:00in-source
DB#: MetaboBASE0510
InChIKey: FLCVGMVLNHYJAW-UHFFFAOYSA-N
Precursor_type: [M-H]-
Spectrum_type: MS2
PrecursorMZ: 357.0917
Instrument_type: LC-ESI-TOF
Instrument: impact HD
Ion_mode: N
Collision_energy: 30
Formula: C19H18O7
MW: 358
ExactMass: 358.105252916
Comments: "SMILES=COC1=CC(=C2C(=C1)OC(=CC2=O)C3=CC(=C(C(=C3)OC)OC)OC)O" "InChI=InChI=1S/C19H18O7/c1-22-11-7-12(20)18-13(21)9-14(26-15(18)8-11)10-5-16(23-2)19(25-4)17(6-10)24-3/h5-9,20H,1-4H3" "computed SMILES=O=C1C=C(OC=2C=C(OC)C=C(O)C12)C=3C=C(OC)C(OC)=C(OC)C3" "license=License CC-BY-NC-SA 4.0 International" "author=Plant Biology, The Noble Foundation, Ardmore, OK, US/Dennis Fine, Daniel Wherritt, and Lloyd Sumner" "ionization=ESI" "isolation width=5" "collision gas=Nitrogen" "peak width=0.017" "date=2014-07-26 12:05:45+02:00" "column=Waters Acquity BEH C18 1.7um x 2.1 x 150 mm" "retention time=1108.2" "raw data file=G:\Sumner Lab Data Management Workspace Jun2013\Projects\NSF-JST Metabolomics Nov2011-Sep2014\UPLC-MS-MSMS\Confirmed standards 24_July_2014\Corymbosin vial 260_1-C,3_01_500.d" "computed mass accuracy=17.577882655884334" "computed mass error=-0.006276915999990251" "SPLASH=splash10-004i-0039000000-7728d6c7c62906c184f3" "submitter=Aiko Barsch (Bruker)" "MoNA Rating=4.545454545454546"
Num Peaks: 22
165.0223 2.302302
240.0282 2.902903
241.0020 2.302302
256.0248 3.803804
268.0239 1.401401
268.9935 2.202202
270.0385 1.501502
284.0221 14.014014
285.0236 1.401401
297.0316 3.303303
298.0371 2.802803
299.0461 31.431431
300.0491 6.106106
312.0202 3.903904
313.0636 3.203203
314.0694 1.701702
327.0457 100.000000
328.0502 18.718719
341.0644 6.306306
342.0695 16.816817
343.0735 3.803804
357.0917 3.303303


Name: Eriodictyol-7-neohesperidoside
Synon: $:00in-source
DB#: MetaboBASE0511
InChIKey: OBKKEZLIABHSGY-DOYQYKRZSA-N
Precursor_type: [M-H]-
Spectrum_type: MS2
PrecursorMZ: 595.17
Instrument_type: LC-ESI-TOF
Instrument: impact HD
Ion_mode: N
Collision_energy: 50
Formula: C27H32O15
MW: 596
ExactMass: 596.174120324
Comments: "cas number=13241-32-2" "SMILES=C[C@H]1[C@@H]([C@H]([C@H]([C@@H](O1)O[C@@H]2[C@H]([C@@H]([C@H](O[C@H]2Oc3cc(c4c(c3)O[C@@H](CC4=O)c5ccc(c(c5)O)O)O)CO)O)O)O)O)O" "InChI=InChI=1S/C27H32O15/c1-9-20(33)22(35)24(37)26(38-9)42-25-23(36)21(34)18(8-28)41-27(25)39-11-5-14(31)19-15(32)7-16(40-17(19)6-11)10-2-3-12(29)13(30)4-10/h2-6,9,16,18,20-31,33-37H,7-8H2,1H3/t9-,16-,18+,20-,21+,22+,23-,24+,25+,26-,27+/m0/s1" "computed SMILES=O=C1C2=C(O)C=C(OC3OC(CO)C(O)C(O)C3OC4OC(C)C(O)C(O)C4O)C=C2OC(C5=CC=C(O)C(O)=C5)C1" "computed InChI=InChI=1S/C27H32O15/c1-9-20(33)22(35)24(37)26(38-9)42-25-23(36)21(34)18(8-28)41-27(25)39-11-5-14(31)19-15(32)7-16(40-17(19)6-11)10-2-3-12(29)13(30)4-10/h2-6,9,16,18,20-31,33-37H,7-8H2,1H3" "license=License CC-BY-NC-SA 4.0 International" "author=Plant Biology, The Noble Foundation, Ardmore, OK, US/Dennis Fine, Daniel Wherritt, and Lloyd Sumner" "ionization=ESI" "isolation width=5" "collision gas=Nitrogen" "peak width=0.016" "date=2013-11-23 22:27:58+01:00" "column=Waters Acquity BEH C18 1.7um x 2.1 x 150 mm" "retention time=330.6" "raw data file=C:\Data\Confirmed Standards\Confirmed stds MSMS 22Nov13\Eriodictyol7neohesperido MSMS.d" "computed mass accuracy=5.30214224508253" "computed mass error=0.0031556760000057693" "SPLASH=splash10-0udi-0900000000-aa7514586b16654a22b3" "submitter=Aiko Barsch (Bruker)" "MoNA Rating=4.545454545454546"
Num Peaks: 11
107.0141 2.902903
125.0253 3.103103
135.0453 44.644645
136.0483 3.503504
151.0036 100.000000
152.0076 5.605606
175.0031 2.702703
193.0144 2.902903
235.0246 4.104104
287.0554 6.006006
459.1150 8.508509


Name: Eriodictyol-7-neohesperidoside
Synon: $:00in-source
DB#: MetaboBASE0512
InChIKey: OBKKEZLIABHSGY-DOYQYKRZSA-N
Instrument_type: LC-ESI-TOF
Instrument: impact HD
Ion_mode: N
Collision_energy: 10
Formula: C27H32O15
MW: 596
ExactMass: 596.174120324
Comments: "cas number=13241-32-2" "SMILES=C[C@H]1[C@@H]([C@H]([C@H]([C@@H](O1)O[C@@H]2[C@H]([C@@H]([C@H](O[C@H]2Oc3cc(c4c(c3)O[C@@H](CC4=O)c5ccc(c(c5)O)O)O)CO)O)O)O)O)O" "InChI=InChI=1S/C27H32O15/c1-9-20(33)22(35)24(37)26(38-9)42-25-23(36)21(34)18(8-28)41-27(25)39-11-5-14(31)19-15(32)7-16(40-17(19)6-11)10-2-3-12(29)13(30)4-10/h2-6,9,16,18,20-31,33-37H,7-8H2,1H3/t9-,16-,18+,20-,21+,22+,23-,24+,25+,26-,27+/m0/s1" "computed SMILES=O=C1C2=C(O)C=C(OC3OC(CO)C(O)C(O)C3OC4OC(C)C(O)C(O)C4O)C=C2OC(C5=CC=C(O)C(O)=C5)C1" "computed InChI=InChI=1S/C27H32O15/c1-9-20(33)22(35)24(37)26(38-9)42-25-23(36)21(34)18(8-28)41-27(25)39-11-5-14(31)19-15(32)7-16(40-17(19)6-11)10-2-3-12(29)13(30)4-10/h2-6,9,16,18,20-31,33-37H,7-8H2,1H3" "license=License CC-BY-NC-SA 4.0 International" "author=Plant Biology, The Noble Foundation, Ardmore, OK, US/Dennis Fine, Daniel Wherritt, and Lloyd Sumner" "ionization=ESI" "collision gas=Nitrogen" "peak width=0.015" "date=2013-11-21 12:32:59+01:00" "column=Waters Acquity BEH C18 1.7um x 2.1 x 150 mm" "retention time=330.6" "raw data file=C:\Data\Confirmed Standards\Confirmed Stds 19Nov13\Eriodictyol7neohesperidos dil.d" "SPLASH=splash10-0002-0100090000-ca9d771817644b397952" "submitter=Aiko Barsch (Bruker)" "MoNA Rating=4.444444444444445"
Num Peaks: 12
593.1536 16.916917
594.1572 4.204204
595.1693 100.000000
596.1731 26.326326
597.1749 5.505506
661.1413 1.001001
663.1565 2.002002
1189.3351 2.902903
1190.3356 1.601602
1191.3501 7.707708
1192.3528 3.803804
1193.3561 1.301301


Name: Eriodictyol-7-neohesperidoside
Synon: $:00in-source
DB#: MetaboBASE0513
InChIKey: OBKKEZLIABHSGY-DOYQYKRZSA-N
Precursor_type: [M-H]-
Spectrum_type: MS2
PrecursorMZ: 595.1684
Instrument_type: LC-ESI-TOF
Instrument: impact HD
Ion_mode: N
Collision_energy: 20
Formula: C27H32O15
MW: 596
ExactMass: 596.174120324
Comments: "cas number=13241-32-2" "SMILES=C[C@H]1[C@@H]([C@H]([C@H]([C@@H](O1)O[C@@H]2[C@H]([C@@H]([C@H](O[C@H]2Oc3cc(c4c(c3)O[C@@H](CC4=O)c5ccc(c(c5)O)O)O)CO)O)O)O)O)O" "InChI=InChI=1S/C27H32O15/c1-9-20(33)22(35)24(37)26(38-9)42-25-23(36)21(34)18(8-28)41-27(25)39-11-5-14(31)19-15(32)7-16(40-17(19)6-11)10-2-3-12(29)13(30)4-10/h2-6,9,16,18,20-31,33-37H,7-8H2,1H3/t9-,16-,18+,20-,21+,22+,23-,24+,25+,26-,27+/m0/s1" "computed SMILES=O=C1C2=C(O)C=C(OC3OC(CO)C(O)C(O)C3OC4OC(C)C(O)C(O)C4O)C=C2OC(C5=CC=C(O)C(O)=C5)C1" "computed InChI=InChI=1S/C27H32O15/c1-9-20(33)22(35)24(37)26(38-9)42-25-23(36)21(34)18(8-28)41-27(25)39-11-5-14(31)19-15(32)7-16(40-17(19)6-11)10-2-3-12(29)13(30)4-10/h2-6,9,16,18,20-31,33-37H,7-8H2,1H3" "license=License CC-BY-NC-SA 4.0 International" "author=Plant Biology, The Noble Foundation, Ardmore, OK, US/Dennis Fine, Daniel Wherritt, and Lloyd Sumner" "ionization=ESI" "isolation width=5" "collision gas=Nitrogen" "peak width=0.0087" "date=2013-11-23 22:27:58+01:00" "column=Waters Acquity BEH C18 1.7um x 2.1 x 150 mm" "retention time=330.6" "raw data file=C:\Data\Confirmed Standards\Confirmed stds MSMS 22Nov13\Eriodictyol7neohesperido MSMS.d" "computed mass accuracy=2.6138417296118908" "computed mass error=0.0015556760000663417" "SPLASH=splash10-0002-0000090000-3109bbd8ee69f77557bc" "submitter=Aiko Barsch (Bruker)" "MoNA Rating=4.583333333333334"
Num Peaks: 9
287.0545 0.300300
459.1150 1.901902
460.1204 0.500501
593.1528 1.001001
594.1522 0.400400
595.1684 100.000000
596.1721 24.324324
597.1752 4.104104
598.1825 0.200200


Name: Eriodictyol-7-neohesperidoside
Synon: $:00in-source
DB#: MetaboBASE0514
InChIKey: OBKKEZLIABHSGY-DOYQYKRZSA-N
Precursor_type: [M-H]-
Spectrum_type: MS2
PrecursorMZ: 595.1687
Instrument_type: LC-ESI-TOF
Instrument: impact HD
Ion_mode: N
Collision_energy: 10
Formula: C27H32O15
MW: 596
ExactMass: 596.174120324
Comments: "cas number=13241-32-2" "SMILES=C[C@H]1[C@@H]([C@H]([C@H]([C@@H](O1)O[C@@H]2[C@H]([C@@H]([C@H](O[C@H]2Oc3cc(c4c(c3)O[C@@H](CC4=O)c5ccc(c(c5)O)O)O)CO)O)O)O)O)O" "InChI=InChI=1S/C27H32O15/c1-9-20(33)22(35)24(37)26(38-9)42-25-23(36)21(34)18(8-28)41-27(25)39-11-5-14(31)19-15(32)7-16(40-17(19)6-11)10-2-3-12(29)13(30)4-10/h2-6,9,16,18,20-31,33-37H,7-8H2,1H3/t9-,16-,18+,20-,21+,22+,23-,24+,25+,26-,27+/m0/s1" "computed SMILES=O=C1C2=C(O)C=C(OC3OC(CO)C(O)C(O)C3OC4OC(C)C(O)C(O)C4O)C=C2OC(C5=CC=C(O)C(O)=C5)C1" "computed InChI=InChI=1S/C27H32O15/c1-9-20(33)22(35)24(37)26(38-9)42-25-23(36)21(34)18(8-28)41-27(25)39-11-5-14(31)19-15(32)7-16(40-17(19)6-11)10-2-3-12(29)13(30)4-10/h2-6,9,16,18,20-31,33-37H,7-8H2,1H3" "license=License CC-BY-NC-SA 4.0 International" "author=Plant Biology, The Noble Foundation, Ardmore, OK, US/Dennis Fine, Daniel Wherritt, and Lloyd Sumner" "ionization=ESI" "isolation width=5" "collision gas=Nitrogen" "peak width=0.009" "date=2013-11-23 22:27:58+01:00" "column=Waters Acquity BEH C18 1.7um x 2.1 x 150 mm" "retention time=330.6" "raw data file=C:\Data\Confirmed Standards\Confirmed stds MSMS 22Nov13\Eriodictyol7neohesperido MSMS.d" "computed mass accuracy=3.1178991771426077" "computed mass error=0.0018556759999910355" "SPLASH=splash10-0002-0000090000-d15c4cdd321aae5a90f6" "submitter=Aiko Barsch (Bruker)" "MoNA Rating=4.583333333333334"
Num Peaks: 10
459.1120 0.100100
593.1523 1.001001
594.1559 0.400400
594.4250 0.100100
595.0081 0.100100
595.0590 0.200200
595.1687 100.000000
596.1722 25.425425
597.1742 4.304304
598.1724 0.400400


Name: Eriodictyol-7-neohesperidoside
Synon: $:00in-source
DB#: MetaboBASE0515
InChIKey: OBKKEZLIABHSGY-DOYQYKRZSA-N
Precursor_type: [M-H]-
Spectrum_type: MS2
PrecursorMZ: 595.1686
Instrument_type: LC-ESI-TOF
Instrument: impact HD
Ion_mode: N
Collision_energy: 30
Formula: C27H32O15
MW: 596
ExactMass: 596.174120324
Comments: "cas number=13241-32-2" "SMILES=C[C@H]1[C@@H]([C@H]([C@H]([C@@H](O1)O[C@@H]2[C@H]([C@@H]([C@H](O[C@H]2Oc3cc(c4c(c3)O[C@@H](CC4=O)c5ccc(c(c5)O)O)O)CO)O)O)O)O)O" "InChI=InChI=1S/C27H32O15/c1-9-20(33)22(35)24(37)26(38-9)42-25-23(36)21(34)18(8-28)41-27(25)39-11-5-14(31)19-15(32)7-16(40-17(19)6-11)10-2-3-12(29)13(30)4-10/h2-6,9,16,18,20-31,33-37H,7-8H2,1H3/t9-,16-,18+,20-,21+,22+,23-,24+,25+,26-,27+/m0/s1" "computed SMILES=O=C1C2=C(O)C=C(OC3OC(CO)C(O)C(O)C3OC4OC(C)C(O)C(O)C4O)C=C2OC(C5=CC=C(O)C(O)=C5)C1" "computed InChI=InChI=1S/C27H32O15/c1-9-20(33)22(35)24(37)26(38-9)42-25-23(36)21(34)18(8-28)41-27(25)39-11-5-14(31)19-15(32)7-16(40-17(19)6-11)10-2-3-12(29)13(30)4-10/h2-6,9,16,18,20-31,33-37H,7-8H2,1H3" "license=License CC-BY-NC-SA 4.0 International" "author=Plant Biology, The Noble Foundation, Ardmore, OK, US/Dennis Fine, Daniel Wherritt, and Lloyd Sumner" "ionization=ESI" "isolation width=5" "collision gas=Nitrogen" "peak width=0.011" "date=2013-11-23 22:27:58+01:00" "column=Waters Acquity BEH C18 1.7um x 2.1 x 150 mm" "retention time=330.6" "raw data file=C:\Data\Confirmed Standards\Confirmed stds MSMS 22Nov13\Eriodictyol7neohesperido MSMS.d" "computed mass accuracy=2.949880084426728" "computed mass error=0.0017556760000161376" "SPLASH=splash10-0002-0000490000-26bcd29518c0384e4a60" "submitter=Aiko Barsch (Bruker)" "MoNA Rating=4.583333333333334"
Num Peaks: 39
135.0454 1.201201
151.0035 2.302302
161.0253 0.300300
193.0153 0.200200
223.0404 0.300300
235.0252 2.002002
236.0279 0.400400
253.0360 0.500501
271.0558 0.200200
285.0388 0.300300
286.0484 0.200200
287.0566 5.005005
288.0565 0.600601
295.0483 0.200200
297.0635 0.200200
329.0671 0.500501
339.0741 1.101101
340.0742 0.300300
357.0875 0.200200
389.0816 0.200200
429.0851 0.200200
433.1323 0.200200
441.1069 0.500501
449.1131 0.300300
459.1159 52.552553
460.1197 9.309309
461.1198 1.201201
462.1286 0.200200
475.1268 0.300300
476.1239 0.200200
477.1312 0.200200
577.1555 0.400400
578.1681 0.200200
593.1546 1.001001
594.1562 0.500501
595.1686 100.000000
596.1721 21.921922
597.1730 3.903904
598.1756 0.300300


Name: Eriodictyol-7-neohesperidoside
Synon: $:00in-source
DB#: MetaboBASE0516
InChIKey: OBKKEZLIABHSGY-DOYQYKRZSA-N
Instrument_type: LC-ESI-TOF
Instrument: impact HD
Ion_mode: N
Formula: C27H32O15
MW: 596
ExactMass: 596.174120324
Comments: "cas number=13241-32-2" "SMILES=C[C@H]1[C@@H]([C@H]([C@H]([C@@H](O1)O[C@@H]2[C@H]([C@@H]([C@H](O[C@H]2Oc3cc(c4c(c3)O[C@@H](CC4=O)c5ccc(c(c5)O)O)O)CO)O)O)O)O)O" "InChI=InChI=1S/C27H32O15/c1-9-20(33)22(35)24(37)26(38-9)42-25-23(36)21(34)18(8-28)41-27(25)39-11-5-14(31)19-15(32)7-16(40-17(19)6-11)10-2-3-12(29)13(30)4-10/h2-6,9,16,18,20-31,33-37H,7-8H2,1H3/t9-,16-,18+,20-,21+,22+,23-,24+,25+,26-,27+/m0/s1" "computed SMILES=O=C1C2=C(O)C=C(OC3OC(CO)C(O)C(O)C3OC4OC(C)C(O)C(O)C4O)C=C2OC(C5=CC=C(O)C(O)=C5)C1" "computed InChI=InChI=1S/C27H32O15/c1-9-20(33)22(35)24(37)26(38-9)42-25-23(36)21(34)18(8-28)41-27(25)39-11-5-14(31)19-15(32)7-16(40-17(19)6-11)10-2-3-12(29)13(30)4-10/h2-6,9,16,18,20-31,33-37H,7-8H2,1H3" "license=License CC-BY-NC-SA 4.0 International" "author=Plant Biology, The Noble Foundation, Ardmore, OK, US/Dennis Fine, Daniel Wherritt, and Lloyd Sumner" "ionization=ESI" "collision gas=Nitrogen" "peak width=0.013" "date=2013-11-23 22:27:58+01:00" "column=Waters Acquity BEH C18 1.7um x 2.1 x 150 mm" "retention time=330.6" "raw data file=C:\Data\Confirmed Standards\Confirmed stds MSMS 22Nov13\Eriodictyol7neohesperido MSMS.d" "SPLASH=splash10-0002-0100090000-6d4c9782c66f6da90b4e" "submitter=Aiko Barsch (Bruker)" "MoNA Rating=3.888888888888889"
Num Peaks: 18
593.1524 13.213213
594.1567 3.103103
595.1683 100.000000
596.1719 24.124124
597.1745 5.005005
598.1734 0.700701
639.1578 5.505506
640.1605 1.601602
661.1382 1.001001
663.1553 2.202202
1189.3289 3.903904
1190.3325 3.403403
1190.8395 1.201201
1191.3428 8.808809
1191.8417 1.601602
1192.3474 4.604605
1193.3496 1.401401
1489.9266 0.700701


Name: Eriodictyol-7-neohesperidoside
Synon: $:00in-source
DB#: MetaboBASE0517
InChIKey: OBKKEZLIABHSGY-DOYQYKRZSA-N
Precursor_type: [M-H]-
Spectrum_type: MS2
PrecursorMZ: 595.1677
Instrument_type: LC-ESI-TOF
Instrument: impact HD
Ion_mode: N
Collision_energy: 40
Formula: C27H32O15
MW: 596
ExactMass: 596.174120324
Comments: "cas number=13241-32-2" "SMILES=C[C@H]1[C@@H]([C@H]([C@H]([C@@H](O1)O[C@@H]2[C@H]([C@@H]([C@H](O[C@H]2Oc3cc(c4c(c3)O[C@@H](CC4=O)c5ccc(c(c5)O)O)O)CO)O)O)O)O)O" "InChI=InChI=1S/C27H32O15/c1-9-20(33)22(35)24(37)26(38-9)42-25-23(36)21(34)18(8-28)41-27(25)39-11-5-14(31)19-15(32)7-16(40-17(19)6-11)10-2-3-12(29)13(30)4-10/h2-6,9,16,18,20-31,33-37H,7-8H2,1H3/t9-,16-,18+,20-,21+,22+,23-,24+,25+,26-,27+/m0/s1" "computed SMILES=O=C1C2=C(O)C=C(OC3OC(CO)C(O)C(O)C3OC4OC(C)C(O)C(O)C4O)C=C2OC(C5=CC=C(O)C(O)=C5)C1" "computed InChI=InChI=1S/C27H32O15/c1-9-20(33)22(35)24(37)26(38-9)42-25-23(36)21(34)18(8-28)41-27(25)39-11-5-14(31)19-15(32)7-16(40-17(19)6-11)10-2-3-12(29)13(30)4-10/h2-6,9,16,18,20-31,33-37H,7-8H2,1H3" "license=License CC-BY-NC-SA 4.0 International" "author=Plant Biology, The Noble Foundation, Ardmore, OK, US/Dennis Fine, Daniel Wherritt, and Lloyd Sumner" "ionization=ESI" "isolation width=5" "collision gas=Nitrogen" "peak width=0.014" "date=2013-11-23 22:27:58+01:00" "column=Waters Acquity BEH C18 1.7um x 2.1 x 150 mm" "retention time=330.6" "raw data file=C:\Data\Confirmed Standards\Confirmed stds MSMS 22Nov13\Eriodictyol7neohesperido MSMS.d" "computed mass accuracy=1.4377057088526182" "computed mass error=8.556760000146824E-4" "SPLASH=splash10-0pbi-0620920000-9442a3d424e17138fd88" "submitter=Aiko Barsch (Bruker)" "MoNA Rating=4.583333333333334"
Num Peaks: 12
135.0454 20.820821
151.0037 58.958959
152.0066 3.803804
235.0257 16.216216
287.0563 18.918919
288.0577 4.404404
339.0721 9.509510
459.1160 100.000000
460.1187 15.615616
461.1203 3.303303
595.1677 26.026026
596.1700 5.405405


Name: Farrerol
Synon: $:00in-source
DB#: MetaboBASE0518
InChIKey: DYHOLQACRGJEHX-UHFFFAOYSA-N
Instrument_type: LC-ESI-TOF
Instrument: impact HD
Ion_mode: N
Collision_energy: 10
Formula: C17H16O5
MW: 300
ExactMass: 300.099773612
Comments: "cas number=24211-30-1" "SMILES=Cc1c(c(c2c(c1O)C(=O)CC(O2)c3ccc(cc3)O)C)O" "InChI=InChI=1S/C17H16O5/c1-8-15(20)9(2)17-14(16(8)21)12(19)7-13(22-17)10-3-5-11(18)6-4-10/h3-6,13,18,20-21H,7H2,1-2H3" "computed SMILES=O=C1C=2C(O)=C(C(O)=C(C2OC(C3=CC=C(O)C=C3)C1)C)C" "license=License CC-BY-NC-SA 4.0 International" "author=Plant Biology, The Noble Foundation, Ardmore, OK, US/Dennis Fine, Daniel Wherritt, and Lloyd Sumner" "ionization=ESI" "collision gas=Nitrogen" "peak width=0.017" "date=2013-11-21 11:52:14+01:00" "column=Waters Acquity BEH C18 1.7um x 2.1 x 150 mm" "retention time=795.6" "raw data file=C:\Data\Confirmed Standards\Confirmed Stds 19Nov13\Farrerol (vial 282) dil.d" "SPLASH=splash10-0002-0091000000-b51f4dd5b88b6caabf48" "submitter=Aiko Barsch (Bruker)" "MoNA Rating=4.444444444444445"
Num Peaks: 3
299.0939 100.000000
300.0967 18.218218
301.0988 1.901902


Name: Farrerol
Synon: $:00in-source
DB#: MetaboBASE0519
InChIKey: DYHOLQACRGJEHX-UHFFFAOYSA-N
Precursor_type: [M-H]-
Spectrum_type: MS2
PrecursorMZ: 299.0929
Instrument_type: LC-ESI-TOF
Instrument: impact HD
Ion_mode: N
Collision_energy: 10
Formula: C17H16O5
MW: 300
ExactMass: 300.099773612
Comments: "cas number=24211-30-1" "SMILES=Cc1c(c(c2c(c1O)C(=O)CC(O2)c3ccc(cc3)O)C)O" "InChI=InChI=1S/C17H16O5/c1-8-15(20)9(2)17-14(16(8)21)12(19)7-13(22-17)10-3-5-11(18)6-4-10/h3-6,13,18,20-21H,7H2,1-2H3" "computed SMILES=O=C1C=2C(O)=C(C(O)=C(C2OC(C3=CC=C(O)C=C3)C1)C)C" "license=License CC-BY-NC-SA 4.0 International" "author=Plant Biology, The Noble Foundation, Ardmore, OK, US/Dennis Fine, Daniel Wherritt, and Lloyd Sumner" "ionization=ESI" "isolation width=5" "collision gas=Nitrogen" "peak width=0.01" "date=2013-11-23 20:25:46+01:00" "column=Waters Acquity BEH C18 1.7um x 2.1 x 150 mm" "retention time=795.6" "raw data file=C:\Data\Confirmed Standards\Confirmed stds MSMS 22Nov13\Farrerol (vial 282) MSMS.d" "computed mass accuracy=1.3453612573140314" "computed mass error=4.023879999976998E-4" "SPLASH=splash10-0002-0091000000-dd8a2f026afca8f27621" "submitter=Aiko Barsch (Bruker)" "MoNA Rating=4.583333333333334"
Num Peaks: 5
119.0499 0.100100
179.0349 0.400400
299.0929 100.000000
300.0959 12.712713
301.0981 1.301301


Name: Farrerol
Synon: $:00in-source
DB#: MetaboBASE0520
InChIKey: DYHOLQACRGJEHX-UHFFFAOYSA-N
Precursor_type: [M-H]-
Spectrum_type: MS2
PrecursorMZ: 299.0926
Instrument_type: LC-ESI-TOF
Instrument: impact HD
Ion_mode: N
Collision_energy: 20
Formula: C17H16O5
MW: 300
ExactMass: 300.099773612
Comments: "cas number=24211-30-1" "SMILES=Cc1c(c(c2c(c1O)C(=O)CC(O2)c3ccc(cc3)O)C)O" "InChI=InChI=1S/C17H16O5/c1-8-15(20)9(2)17-14(16(8)21)12(19)7-13(22-17)10-3-5-11(18)6-4-10/h3-6,13,18,20-21H,7H2,1-2H3" "computed SMILES=O=C1C=2C(O)=C(C(O)=C(C2OC(C3=CC=C(O)C=C3)C1)C)C" "license=License CC-BY-NC-SA 4.0 International" "author=Plant Biology, The Noble Foundation, Ardmore, OK, US/Dennis Fine, Daniel Wherritt, and Lloyd Sumner" "ionization=ESI" "isolation width=5" "collision gas=Nitrogen" "peak width=0.016" "date=2013-11-23 20:25:46+01:00" "column=Waters Acquity BEH C18 1.7um x 2.1 x 150 mm" "retention time=795.6" "raw data file=C:\Data\Confirmed Standards\Confirmed stds MSMS 22Nov13\Farrerol (vial 282) MSMS.d" "computed mass accuracy=0.34232876378807947" "computed mass error=1.0238800001616255E-4" "SPLASH=splash10-0002-0691000000-533002325412fa08357e" "submitter=Aiko Barsch (Bruker)" "MoNA Rating=4.615384615384616"
Num Peaks: 21
111.0452 0.600601
119.0504 15.515516
120.0538 1.001001
135.0454 6.506507
136.0489 0.500501
145.0298 0.700701
151.0402 0.900901
153.0553 0.600601
179.0351 44.244244
180.0380 2.902903
181.0400 0.200200
193.0508 2.102102
197.0448 0.500501
205.0503 2.402402
206.0545 0.300300
255.1022 0.400400
257.0817 0.800801
281.0815 0.400400
299.0926 100.000000
300.0956 11.211211
301.0985 1.301301


Name: Farrerol
Synon: $:00in-source
DB#: MetaboBASE0521
InChIKey: DYHOLQACRGJEHX-UHFFFAOYSA-N
Instrument_type: LC-ESI-TOF
Instrument: impact HD
Ion_mode: N
Formula: C17H16O5
MW: 300
ExactMass: 300.099773612
Comments: "cas number=24211-30-1" "SMILES=Cc1c(c(c2c(c1O)C(=O)CC(O2)c3ccc(cc3)O)C)O" "InChI=InChI=1S/C17H16O5/c1-8-15(20)9(2)17-14(16(8)21)12(19)7-13(22-17)10-3-5-11(18)6-4-10/h3-6,13,18,20-21H,7H2,1-2H3" "computed SMILES=O=C1C=2C(O)=C(C(O)=C(C2OC(C3=CC=C(O)C=C3)C1)C)C" "license=License CC-BY-NC-SA 4.0 International" "author=Plant Biology, The Noble Foundation, Ardmore, OK, US/Dennis Fine, Daniel Wherritt, and Lloyd Sumner" "ionization=ESI" "collision gas=Nitrogen" "peak width=0.016" "date=2013-11-23 20:25:46+01:00" "column=Waters Acquity BEH C18 1.7um x 2.1 x 150 mm" "retention time=795.6" "raw data file=C:\Data\Confirmed Standards\Confirmed stds MSMS 22Nov13\Farrerol (vial 282) MSMS.d" "SPLASH=splash10-0002-0092000000-72411716486f58b35b18" "submitter=Aiko Barsch (Bruker)" "MoNA Rating=3.888888888888889"
Num Peaks: 13
297.0771 0.300300
299.0932 100.000000
300.0959 20.720721
301.0978 2.002002
302.1006 0.200200
367.0800 0.800801
368.0829 0.100100
599.1945 3.903904
600.1971 1.301301
601.1969 0.300300
621.1762 0.800801
622.1776 0.200200
683.1457 0.100100


Name: Farrerol
Synon: $:00in-source
DB#: MetaboBASE0522
InChIKey: DYHOLQACRGJEHX-UHFFFAOYSA-N
Precursor_type: [M-H]-
Spectrum_type: MS2
PrecursorMZ: 299.09
Instrument_type: LC-ESI-TOF
Instrument: impact HD
Ion_mode: N
Collision_energy: 40
Formula: C17H16O5
MW: 300
ExactMass: 300.099773612
Comments: "cas number=24211-30-1" "SMILES=Cc1c(c(c2c(c1O)C(=O)CC(O2)c3ccc(cc3)O)C)O" "InChI=InChI=1S/C17H16O5/c1-8-15(20)9(2)17-14(16(8)21)12(19)7-13(22-17)10-3-5-11(18)6-4-10/h3-6,13,18,20-21H,7H2,1-2H3" "computed SMILES=O=C1C=2C(O)=C(C(O)=C(C2OC(C3=CC=C(O)C=C3)C1)C)C" "license=License CC-BY-NC-SA 4.0 International" "author=Plant Biology, The Noble Foundation, Ardmore, OK, US/Dennis Fine, Daniel Wherritt, and Lloyd Sumner" "ionization=ESI" "isolation width=5" "collision gas=Nitrogen" "peak width=0.018" "date=2013-11-23 20:25:46+01:00" "column=Waters Acquity BEH C18 1.7um x 2.1 x 150 mm" "retention time=795.6" "raw data file=C:\Data\Confirmed Standards\Confirmed stds MSMS 22Nov13\Farrerol (vial 282) MSMS.d" "computed mass accuracy=8.350703801575797" "computed mass error=-0.002497612000013305" "SPLASH=splash10-014i-0900000000-323d60031234fb0e799a" "submitter=Aiko Barsch (Bruker)" "MoNA Rating=4.545454545454546"
Num Peaks: 13
111.0447 6.506507
117.0348 2.802803
119.0502 100.000000
120.0532 5.705706
123.0450 5.405405
135.0453 16.416416
136.0498 1.501502
145.0300 1.901902
151.0401 5.605606
165.0548 3.303303
179.0347 6.006006
193.0505 2.102102
229.0860 1.601602


Name: Farrerol
Synon: $:00in-source
DB#: MetaboBASE0523
InChIKey: DYHOLQACRGJEHX-UHFFFAOYSA-N
Precursor_type: [M-H]-
Spectrum_type: MS2
PrecursorMZ: 299.0928
Instrument_type: LC-ESI-TOF
Instrument: impact HD
Ion_mode: N
Collision_energy: 30
Formula: C17H16O5
MW: 300
ExactMass: 300.09977361200004
Comments: "cas number=24211-30-1" "SMILES=Cc1c(c(c2c(c1O)C(=O)CC(O2)c3ccc(cc3)O)C)O" "InChI=InChI=1S/C17H16O5/c1-8-15(20)9(2)17-14(16(8)21)12(19)7-13(22-17)10-3-5-11(18)6-4-10/h3-6,13,18,20-21H,7H2,1-2H3" "computed SMILES=O=C1C=2C(O)=C(C(O)=C(C2OC(C3=CC=C(O)C=C3)C1)C)C" "license=License CC-BY-NC-SA 4.0 International" "author=Plant Biology, The Noble Foundation, Ardmore, OK, US/Dennis Fine, Daniel Wherritt, and Lloyd Sumner" "ionization=ESI" "isolation width=5" "collision gas=Nitrogen" "peak width=0.015" "date=2013-11-23 20:25:46+01:00" "column=Waters Acquity BEH C18 1.7um x 2.1 x 150 mm" "retention time=795.6" "raw data file=C:\Data\Confirmed Standards\Confirmed stds MSMS 22Nov13\Farrerol (vial 282) MSMS.d" "computed mass accuracy=1.0110173162508707" "computed mass error=3.0238799996595844E-4" "SPLASH=splash10-014i-0900000000-fd1b6c2ff18982e1b001" "submitter=Aiko Barsch (Bruker)" "MoNA Rating=4.583333333333334"
Num Peaks: 19
111.0447 6.406406
119.0503 100.000000
120.0536 6.406406
121.0287 0.900901
123.0451 1.801802
135.0453 35.235235
136.0482 2.402402
145.0292 2.402402
151.0404 7.107107
161.0607 1.001001
164.0483 0.800801
165.0554 2.402402
179.0349 48.648649
180.0382 3.103103
193.0504 7.907908
205.0504 3.103103
229.0861 1.101101
257.0823 1.901902
299.0928 5.305305


Name: Zapotinin
Synon: $:00in-source
DB#: MetaboBASE0524
InChIKey: BFXYIQRRGIMMSR-UHFFFAOYSA-N
Instrument_type: LC-ESI-TOF
Instrument: impact HD
Ion_mode: N
Collision_energy: 10
Formula: C18H16O6
MW: 328
ExactMass: 328.09468823199995
Comments: "SMILES=COc1cccc(c1c2cc(=O)c3c(o2)ccc(c3O)OC)OC" "InChI=InChI=1S/C18H16O6/c1-21-11-5-4-6-12(22-2)17(11)15-9-10(19)16-13(24-15)7-8-14(23-3)18(16)20/h4-9,20H,1-3H3" "computed SMILES=O=C1C=C(OC2=CC=C(OC)C(O)=C12)C=3C(OC)=CC=CC3OC" "license=License CC-BY-NC-SA 4.0 International" "author=Plant Biology, The Noble Foundation, Ardmore, OK, US/Dennis Fine, Daniel Wherritt, and Lloyd Sumner" "ionization=ESI" "collision gas=Nitrogen" "peak width=0.016" "date=2013-11-21 10:30:41+01:00" "column=Waters Acquity BEH C18 1.7um x 2.1 x 150 mm" "retention time=1012.8" "raw data file=C:\Data\Confirmed Standards\Confirmed Stds 19Nov13\Zapotinin (v275) 3 uL.d" "SPLASH=splash10-004i-1009006000-afc42d1d6f09e7e77094" "submitter=Aiko Barsch (Bruker)" "MoNA Rating=4.444444444444445"
Num Peaks: 49
112.9849 3.203203
116.9286 2.502503
128.0099 4.404404
255.2328 1.101101
292.9825 1.201201
304.9821 1.101101
312.0631 32.832833
313.0667 5.805806
314.0670 1.501502
327.0867 100.000000
328.0901 16.716717
329.0918 2.802803
342.9778 1.701702
385.0479 1.001001
395.0747 28.728729
396.0782 5.605606
397.0801 1.101101
457.0450 4.104104
463.0641 1.201201
557.0079 1.101101
653.1679 2.602603
661.1922 6.306306
662.1977 2.602603
677.1666 97.997998
678.1701 32.932933
679.1724 7.707708
680.1785 1.901902
739.1372 3.203203
740.1418 1.401401
745.1548 7.207207
746.1612 3.103103
747.1610 1.101101
807.1284 1.301301
1021.2303 5.605606
1022.2263 3.103103
1023.2386 1.301301
1027.2446 13.213213
1028.2411 7.407407
1029.2478 2.402402
1089.2189 2.702703
1090.2136 1.501502
1095.2275 1.901902
1096.2438 1.301301
1371.3044 2.702703
1372.3088 1.901902
1377.3206 2.802803
1378.3231 2.102102
1379.3240 1.201201
1445.3085 2.302302


Name: 3',4'-Dihydroxyflavone
Synon: $:00in-source
DB#: MetaboBASE0525
InChIKey: SRNPMQHYWVKBAV-UHFFFAOYSA-N
Precursor_type: [M-H]-
Spectrum_type: MS2
PrecursorMZ: 253.05
Instrument_type: LC-ESI-TOF
Instrument: impact HD
Ion_mode: N
Collision_energy: 50
Formula: C15H10O4
MW: 254
ExactMass: 254.0579088
Comments: "cas number=4143-64-0" "SMILES=c1ccc2c(c1)c(=O)cc(o2)c3ccc(c(c3)O)O" "InChI=InChI=1S/C15H10O4/c16-11-6-5-9(7-13(11)18)15-8-12(17)10-3-1-2-4-14(10)19-15/h1-8,16,18H" "computed SMILES=O=C1C=C(OC=2C=CC=CC12)C=3C=CC(O)=C(O)C3" "license=License CC-BY-NC-SA 4.0 International" "author=Plant Biology, The Noble Foundation, Ardmore, OK, US/Dennis Fine, Daniel Wherritt, and Lloyd Sumner" "ionization=ESI" "isolation width=5" "collision gas=Nitrogen" "peak width=0.016" "date=2013-11-23 10:55:03+01:00" "column=Waters Acquity BEH C18 1.7um x 2.1 x 150 mm" "retention time=553.2" "raw data file=C:\Data\Confirmed Standards\Confirmed stds MSMS 22Nov13\3'4-Dihydroxyflavone  MSMS.d" "computed mass accuracy=2.500691562953242" "computed mass error=-6.32800000005318E-4" "SPLASH=splash10-001i-0900000000-a2f2f4e5e22ef049d83a" "submitter=Aiko Barsch (Bruker)" "MoNA Rating=4.583333333333334"
Num Peaks: 5
104.0259 4.104104
115.0198 12.812813
132.0217 45.045045
133.0294 100.000000
134.0326 8.608609


Name: 3',4'-Dihydroxyflavone
Synon: $:00in-source
DB#: MetaboBASE0526
InChIKey: SRNPMQHYWVKBAV-UHFFFAOYSA-N
Precursor_type: [M-H]-
Spectrum_type: MS2
PrecursorMZ: 253.05
Instrument_type: LC-ESI-TOF
Instrument: impact HD
Ion_mode: N
Collision_energy: 40
Formula: C15H10O4
MW: 254
ExactMass: 254.0579088
Comments: "cas number=4143-64-0" "SMILES=c1ccc2c(c1)c(=O)cc(o2)c3ccc(c(c3)O)O" "InChI=InChI=1S/C15H10O4/c16-11-6-5-9(7-13(11)18)15-8-12(17)10-3-1-2-4-14(10)19-15/h1-8,16,18H" "computed SMILES=O=C1C=C(OC=2C=CC=CC12)C=3C=CC(O)=C(O)C3" "license=License CC-BY-NC-SA 4.0 International" "author=Plant Biology, The Noble Foundation, Ardmore, OK, US/Dennis Fine, Daniel Wherritt, and Lloyd Sumner" "ionization=ESI" "isolation width=5" "collision gas=Nitrogen" "peak width=0.015" "date=2013-11-23 10:55:03+01:00" "column=Waters Acquity BEH C18 1.7um x 2.1 x 150 mm" "retention time=553.2" "raw data file=C:\Data\Confirmed Standards\Confirmed stds MSMS 22Nov13\3'4-Dihydroxyflavone  MSMS.d" "computed mass accuracy=2.500691562953242" "computed mass error=-6.32800000005318E-4" "SPLASH=splash10-001i-0900000000-883ee220b7f704ecd985" "submitter=Aiko Barsch (Bruker)" "MoNA Rating=4.583333333333334"
Num Peaks: 7
115.0193 2.702703
117.0347 4.904905
132.0224 15.315315
133.0296 100.000000
134.0334 6.906907
135.0352 1.301301
225.0518 1.001001


Name: 3',4'-Dihydroxyflavone
Synon: $:00in-source
DB#: MetaboBASE0527
InChIKey: SRNPMQHYWVKBAV-UHFFFAOYSA-N
Instrument_type: LC-ESI-TOF
Instrument: impact HD
Ion_mode: N
Collision_energy: 10
Formula: C15H10O4
MW: 254
ExactMass: 254.0579088
Comments: "cas number=4143-64-0" "SMILES=c1ccc2c(c1)c(=O)cc(o2)c3ccc(c(c3)O)O" "InChI=InChI=1S/C15H10O4/c16-11-6-5-9(7-13(11)18)15-8-12(17)10-3-1-2-4-14(10)19-15/h1-8,16,18H" "computed SMILES=O=C1C=C(OC=2C=CC=CC12)C=3C=CC(O)=C(O)C3" "license=License CC-BY-NC-SA 4.0 International" "author=Plant Biology, The Noble Foundation, Ardmore, OK, US/Dennis Fine, Daniel Wherritt, and Lloyd Sumner" "ionization=ESI" "collision gas=Nitrogen" "peak width=0.012" "date=2013-11-21 09:09:03+01:00" "column=Waters Acquity BEH C18 1.7um x 2.1 x 150 mm" "retention time=553.2" "raw data file=C:\Data\Confirmed Standards\Confirmed Stds 19Nov13\3'4-Dihydroxyflavone dil.d" "SPLASH=splash10-0udi-0090000000-8c529aa00348a7eed55c" "submitter=Aiko Barsch (Bruker)" "MoNA Rating=4.444444444444445"
Num Peaks: 4
253.0511 100.000000
254.0543 12.812813
255.0563 1.201201
529.0902 1.501502


Name: 3',4'-Dihydroxyflavone
Synon: $:00in-source
DB#: MetaboBASE0528
InChIKey: SRNPMQHYWVKBAV-UHFFFAOYSA-N
Precursor_type: [M-H]-
Spectrum_type: MS2
PrecursorMZ: 253.0509
Instrument_type: LC-ESI-TOF
Instrument: impact HD
Ion_mode: N
Collision_energy: 30
Formula: C15H10O4
MW: 254
ExactMass: 254.0579088
Comments: "cas number=4143-64-0" "SMILES=c1ccc2c(c1)c(=O)cc(o2)c3ccc(c(c3)O)O" "InChI=InChI=1S/C15H10O4/c16-11-6-5-9(7-13(11)18)15-8-12(17)10-3-1-2-4-14(10)19-15/h1-8,16,18H" "computed SMILES=O=C1C=C(OC=2C=CC=CC12)C=3C=CC(O)=C(O)C3" "license=License CC-BY-NC-SA 4.0 International" "author=Plant Biology, The Noble Foundation, Ardmore, OK, US/Dennis Fine, Daniel Wherritt, and Lloyd Sumner" "ionization=ESI" "isolation width=5" "collision gas=Nitrogen" "peak width=0.016" "date=2013-11-23 10:55:03+01:00" "column=Waters Acquity BEH C18 1.7um x 2.1 x 150 mm" "retention time=553.2" "raw data file=C:\Data\Confirmed Standards\Confirmed stds MSMS 22Nov13\3'4-Dihydroxyflavone  MSMS.d" "computed mass accuracy=1.0559140473167146" "computed mass error=2.671999999961372E-4" "SPLASH=splash10-001i-0910000000-a64be412d4a4a3e157a1" "submitter=Aiko Barsch (Bruker)" "MoNA Rating=4.583333333333334"
Num Peaks: 11
117.0349 3.603604
118.0383 0.700701
132.0217 4.604605
133.0296 100.000000
134.0330 5.905906
169.0665 0.700701
209.0609 1.401401
211.0414 1.001001
225.0567 2.802803
253.0509 7.007007
254.0551 1.301301


Name: 3',4'-Dihydroxyflavone
Synon: $:00in-source
DB#: MetaboBASE0529
InChIKey: SRNPMQHYWVKBAV-UHFFFAOYSA-N
Precursor_type: [M-H]-
Spectrum_type: MS2
PrecursorMZ: 253.0509
Instrument_type: LC-ESI-TOF
Instrument: impact HD
Ion_mode: N
Collision_energy: 20
Formula: C15H10O4
MW: 254
ExactMass: 254.0579088
Comments: "cas number=4143-64-0" "SMILES=c1ccc2c(c1)c(=O)cc(o2)c3ccc(c(c3)O)O" "InChI=InChI=1S/C15H10O4/c16-11-6-5-9(7-13(11)18)15-8-12(17)10-3-1-2-4-14(10)19-15/h1-8,16,18H" "computed SMILES=O=C1C=C(OC=2C=CC=CC12)C=3C=CC(O)=C(O)C3" "license=License CC-BY-NC-SA 4.0 International" "author=Plant Biology, The Noble Foundation, Ardmore, OK, US/Dennis Fine, Daniel Wherritt, and Lloyd Sumner" "ionization=ESI" "isolation width=5" "collision gas=Nitrogen" "peak width=0.012" "date=2013-11-23 10:55:03+01:00" "column=Waters Acquity BEH C18 1.7um x 2.1 x 150 mm" "retention time=553.2" "raw data file=C:\Data\Confirmed Standards\Confirmed stds MSMS 22Nov13\3'4-Dihydroxyflavone  MSMS.d" "computed mass accuracy=1.0559140473167146" "computed mass error=2.671999999961372E-4" "SPLASH=splash10-0udi-0190000000-7dfec7ee09de251e766c" "submitter=Aiko Barsch (Bruker)" "MoNA Rating=4.583333333333334"
Num Peaks: 10
132.0219 0.300300
133.0294 14.314314
134.0330 1.001001
209.0610 0.500501
225.0542 2.702703
235.0430 0.400400
252.0453 0.300300
253.0509 100.000000
254.0538 10.110110
255.0555 1.101101


Name: 5-Hydroxy-3',4'-dimethoxyflavanone
Synon: $:00in-source
DB#: MetaboBASE0530
InChIKey: GREZGBHTSQIMAQ-UHFFFAOYSA-N
Precursor_type: [M-H]-
Spectrum_type: MS2
PrecursorMZ: 299.0909
Instrument_type: LC-ESI-TOF
Instrument: impact HD
Ion_mode: N
Collision_energy: 20
Formula: C17H16O5
MW: 300
ExactMass: 300.099773612
Comments: "computed SMILES=O=C1C=2C(O)=CC=CC2OC(C3=CC=C(OC)C(OC)=C3)C1" "computed InChI=InChI=1S/C17H16O5/c1-20-13-7-6-10(8-16(13)21-2)15-9-12(19)17-11(18)4-3-5-14(17)22-15/h3-8,15,18H,9H2,1-2H3" "license=License CC-BY-NC-SA 4.0 International" "author=Plant Biology, The Noble Foundation, Ardmore, OK, US/Dennis Fine, Daniel Wherritt, and Lloyd Sumner" "ionization=ESI" "isolation width=5" "collision gas=Nitrogen" "peak width=0.0085" "date=2013-11-23 16:21:08+01:00" "column=Waters Acquity BEH C18 1.7um x 2.1 x 150 mm" "retention time=974.4" "raw data file=C:\Data\Confirmed Standards\Confirmed stds MSMS 22Nov13\5Hydroxy3'4'dimethoxyfla MSMS.d" "computed mass accuracy=5.341560040816521" "computed mass error=-0.0015976120000118499" "SPLASH=splash10-0032-0090000000-5a763b6fee3789d6408f" "submitter=Aiko Barsch (Bruker)" "MoNA Rating=4.545454545454546"
Num Peaks: 6
161.0219 11.811812
225.0533 57.257257
269.0443 25.425425
283.0572 22.322322
284.0667 60.560561
299.0909 100.000000


Name: 5-Hydroxy-3',4'-dimethoxyflavanone
Synon: $:00in-source
DB#: MetaboBASE0531
InChIKey: GREZGBHTSQIMAQ-UHFFFAOYSA-N
Precursor_type: [M-H]-
Spectrum_type: MS2
PrecursorMZ: 299.09
Instrument_type: LC-ESI-TOF
Instrument: impact HD
Ion_mode: N
Collision_energy: 30
Formula: C17H16O5
MW: 300
ExactMass: 300.099773612
Comments: "computed SMILES=O=C1C=2C(O)=CC=CC2OC(C3=CC=C(OC)C(OC)=C3)C1" "computed InChI=InChI=1S/C17H16O5/c1-20-13-7-6-10(8-16(13)21-2)15-9-12(19)17-11(18)4-3-5-14(17)22-15/h3-8,15,18H,9H2,1-2H3" "license=License CC-BY-NC-SA 4.0 International" "author=Plant Biology, The Noble Foundation, Ardmore, OK, US/Dennis Fine, Daniel Wherritt, and Lloyd Sumner" "ionization=ESI" "isolation width=5" "collision gas=Nitrogen" "peak width=0.01" "date=2013-11-23 16:21:08+01:00" "column=Waters Acquity BEH C18 1.7um x 2.1 x 150 mm" "retention time=974.4" "raw data file=C:\Data\Confirmed Standards\Confirmed stds MSMS 22Nov13\5Hydroxy3'4'dimethoxyfla MSMS.d" "computed mass accuracy=8.350703801575797" "computed mass error=-0.002497612000013305" "SPLASH=splash10-00oc-0190000000-ee9a8eb966f4528522cd" "submitter=Aiko Barsch (Bruker)" "MoNA Rating=4.545454545454546"
Num Peaks: 6
135.0088 82.682683
225.0547 90.690691
241.0490 100.000000
269.0453 75.175175
283.0581 75.775776
284.0666 41.941942


Name: 5-Hydroxy-3',4'-dimethoxyflavanone
Synon: $:00in-source
DB#: MetaboBASE0532
InChIKey: GREZGBHTSQIMAQ-UHFFFAOYSA-N
Instrument_type: LC-ESI-TOF
Instrument: impact HD
Ion_mode: N
Collision_energy: 10
Formula: C17H16O5
MW: 300
ExactMass: 300.09977361200004
Comments: "computed SMILES=O=C1C=2C(O)=CC=CC2OC(C3=CC=C(OC)C(OC)=C3)C1" "computed InChI=InChI=1S/C17H16O5/c1-20-13-7-6-10(8-16(13)21-2)15-9-12(19)17-11(18)4-3-5-14(17)22-15/h3-8,15,18H,9H2,1-2H3" "license=License CC-BY-NC-SA 4.0 International" "author=Plant Biology, The Noble Foundation, Ardmore, OK, US/Dennis Fine, Daniel Wherritt, and Lloyd Sumner" "ionization=ESI" "collision gas=Nitrogen" "peak width=0.017" "date=2013-11-21 09:49:54+01:00" "column=Waters Acquity BEH C18 1.7um x 2.1 x 150 mm" "retention time=974.4" "raw data file=C:\Data\Confirmed Standards\Confirmed Stds 19Nov13\5Hydroxy3'4'dimethoxyfla 3 uL.d" "SPLASH=splash10-006t-0092007001-eb0fe4cc7dcb6579e9a2" "submitter=Aiko Barsch (Bruker)" "MoNA Rating=4.444444444444445"
Num Peaks: 24
128.0099 1.101101
269.0459 1.401401
283.0626 1.201201
284.0696 4.404404
299.0940 100.000000
300.0970 15.215215
301.0990 1.601602
367.0815 10.010010
368.0858 1.701702
429.0517 1.001001
605.2015 8.908909
606.2035 2.802803
621.1750 56.456456
622.1780 17.817818
623.1805 3.803804
683.1459 1.901902
689.1627 3.703704
690.1650 1.401401
937.2397 4.604605
938.2426 2.502503
943.2549 5.905906
944.2605 3.203203
1259.3212 2.202202
1260.3232 1.601602


Name: 5,6-Dihydroxy-3',4'-dimethoxyflavanone
Synon: $:00in-source
DB#: MetaboBASE0533
InChIKey: IXPQVGYEEBKAPR-UHFFFAOYSA-N
Instrument_type: LC-ESI-TOF
Instrument: impact HD
Ion_mode: N
Collision_energy: 10
Formula: C17H16O6
MW: 316
ExactMass: 316.09468823199995
Comments: "computed SMILES=O=C1C2=C(O)C(O)=CC=C2OC(C3=CC=C(OC)C(OC)=C3)C1" "computed InChI=InChI=1S/C17H16O6/c1-21-12-5-3-9(7-15(12)22-2)14-8-11(19)16-13(23-14)6-4-10(18)17(16)20/h3-7,14,18,20H,8H2,1-2H3" "license=License CC-BY-NC-SA 4.0 International" "author=Plant Biology, The Noble Foundation, Ardmore, OK, US/Dennis Fine, Daniel Wherritt, and Lloyd Sumner" "ionization=ESI" "collision gas=Nitrogen" "peak width=0.017" "date=2013-11-21 00:19:17+01:00" "column=Waters Acquity BEH C18 1.7um x 2.1 x 150 mm" "retention time=700.8" "raw data file=C:\Data\Confirmed Standards\Confirmed Stds 19Nov13\56Dihydroxy3'4'dimethoxyflavan.d" "SPLASH=splash10-014i-0009004000-481f78bd0e21f990fd38" "submitter=Aiko Barsch (Bruker)" "MoNA Rating=4.444444444444445"
Num Peaks: 24
271.0980 1.701702
273.0782 1.601602
297.0780 2.502503
300.0653 1.601602
313.0737 4.204204
314.0776 1.301301
315.0894 100.000000
316.0926 15.115115
317.0944 2.102102
331.0843 1.301301
383.0761 1.501502
556.0020 2.202202
637.1921 3.603604
638.1952 1.201201
653.1664 39.739740
654.1698 13.813814
655.1708 2.702703
721.1544 1.701702
985.2315 3.303303
986.2346 1.801802
989.2301 1.501502
990.2349 1.101101
991.2448 1.101101
1022.1786 1.001001


Name: 5,6-Dihydroxy-3',4'-dimethoxyflavanone
Synon: $:00in-source
DB#: MetaboBASE0534
InChIKey: IXPQVGYEEBKAPR-UHFFFAOYSA-N
Precursor_type: [M-H]-
Spectrum_type: MS2
PrecursorMZ: 315.0846
Instrument_type: LC-ESI-TOF
Instrument: impact HD
Ion_mode: N
Collision_energy: 10
Formula: C17H16O6
MW: 316
ExactMass: 316.09468823199995
Comments: "computed SMILES=O=C1C2=C(O)C(O)=CC=C2OC(C3=CC=C(OC)C(OC)=C3)C1" "computed InChI=InChI=1S/C17H16O6/c1-21-12-5-3-9(7-15(12)22-2)14-8-11(19)16-13(23-14)6-4-10(18)17(16)20/h3-7,14,18,20H,8H2,1-2H3" "license=License CC-BY-NC-SA 4.0 International" "author=Plant Biology, The Noble Foundation, Ardmore, OK, US/Dennis Fine, Daniel Wherritt, and Lloyd Sumner" "ionization=ESI" "isolation width=5" "collision gas=Nitrogen" "peak width=0.0094" "date=2013-11-24 03:13:17+01:00" "column=Waters Acquity BEH C18 1.7um x 2.1 x 150 mm" "retention time=700.8" "raw data file=C:\Data\Confirmed Standards\Confirmed stds MSMS 22Nov13\56Dihydroxy3'4'dimethoxy MSMS.d" "computed mass accuracy=8.925323547833631" "computed mass error=-0.0028122319999397405" "SPLASH=splash10-014i-0009000000-5fbbf34abacc47b20cf3" "submitter=Aiko Barsch (Bruker)" "MoNA Rating=4.545454545454546"
Num Peaks: 6
151.0080 14.014014
283.0118 16.816817
313.0696 22.422422
315.0846 100.000000
316.0945 21.721722
317.0868 10.710711


Name: 5,6-Dihydroxy-3',4'-dimethoxyflavanone
Synon: $:00in-source
DB#: MetaboBASE0535
InChIKey: IXPQVGYEEBKAPR-UHFFFAOYSA-N
Precursor_type: [M-H]-
Spectrum_type: MS2
PrecursorMZ: 315.0869
Instrument_type: LC-ESI-TOF
Instrument: impact HD
Ion_mode: N
Collision_energy: 20
Formula: C17H16O6
MW: 316
ExactMass: 316.09468823199995
Comments: "computed SMILES=O=C1C2=C(O)C(O)=CC=C2OC(C3=CC=C(OC)C(OC)=C3)C1" "computed InChI=InChI=1S/C17H16O6/c1-21-12-5-3-9(7-15(12)22-2)14-8-11(19)16-13(23-14)6-4-10(18)17(16)20/h3-7,14,18,20H,8H2,1-2H3" "license=License CC-BY-NC-SA 4.0 International" "author=Plant Biology, The Noble Foundation, Ardmore, OK, US/Dennis Fine, Daniel Wherritt, and Lloyd Sumner" "ionization=ESI" "isolation width=5" "collision gas=Nitrogen" "peak width=0.011" "date=2013-11-24 03:13:17+01:00" "column=Waters Acquity BEH C18 1.7um x 2.1 x 150 mm" "retention time=700.8" "raw data file=C:\Data\Confirmed Standards\Confirmed stds MSMS 22Nov13\56Dihydroxy3'4'dimethoxy MSMS.d" "computed mass accuracy=1.625684850587738" "computed mass error=-5.122319999486535E-4" "SPLASH=splash10-01b9-0189000000-168ac7e87b3115e83e00" "submitter=Aiko Barsch (Bruker)" "MoNA Rating=4.583333333333334"
Num Peaks: 11
150.0000 28.928929
230.0592 43.243243
256.0742 37.037037
272.0687 31.831832
273.0774 30.730731
274.0808 39.939940
297.0764 25.625626
300.0657 37.237237
313.0675 28.628629
315.0869 100.000000
316.0971 43.243243


Name: 5,6-Dihydroxy-3',4'-dimethoxyflavanone
Synon: $:00in-source
DB#: MetaboBASE0536
InChIKey: IXPQVGYEEBKAPR-UHFFFAOYSA-N
Instrument_type: LC-ESI-TOF
Instrument: impact HD
Ion_mode: N
Formula: C17H16O6
MW: 316
ExactMass: 316.09468823199995
Comments: "computed SMILES=O=C1C2=C(O)C(O)=CC=C2OC(C3=CC=C(OC)C(OC)=C3)C1" "computed InChI=InChI=1S/C17H16O6/c1-21-12-5-3-9(7-15(12)22-2)14-8-11(19)16-13(23-14)6-4-10(18)17(16)20/h3-7,14,18,20H,8H2,1-2H3" "license=License CC-BY-NC-SA 4.0 International" "author=Plant Biology, The Noble Foundation, Ardmore, OK, US/Dennis Fine, Daniel Wherritt, and Lloyd Sumner" "ionization=ESI" "collision gas=Nitrogen" "peak width=0.014" "date=2013-11-24 03:13:17+01:00" "column=Waters Acquity BEH C18 1.7um x 2.1 x 150 mm" "retention time=700.8" "raw data file=C:\Data\Confirmed Standards\Confirmed stds MSMS 22Nov13\56Dihydroxy3'4'dimethoxy MSMS.d" "SPLASH=splash10-014i-0009003000-b9c32a5ecebef16a62fe" "submitter=Aiko Barsch (Bruker)" "MoNA Rating=3.888888888888889"
Num Peaks: 9
116.9287 12.612613
273.0769 9.009009
300.0641 8.308308
313.0708 7.807808
315.0875 100.000000
316.0898 16.416416
383.0746 9.509510
653.1645 36.536537
654.1668 12.912913


Name: 5,7-Dihydroxy-3',4'-dimethoxyflavanone
Synon: $:00in-source
DB#: MetaboBASE0537
InChIKey: HRFSSDXPHTZMLA-UHFFFAOYSA-N
Instrument_type: LC-ESI-TOF
Instrument: impact HD
Ion_mode: N
Collision_energy: 10
Formula: C17H16O6
MW: 316
ExactMass: 316.09468823199995
Comments: "computed SMILES=O=C1C=2C(O)=CC(O)=CC2OC(C3=CC=C(OC)C(OC)=C3)C1" "computed InChI=InChI=1S/C17H16O6/c1-21-13-4-3-9(5-15(13)22-2)14-8-12(20)17-11(19)6-10(18)7-16(17)23-14/h3-7,14,18-19H,8H2,1-2H3" "license=License CC-BY-NC-SA 4.0 International" "author=Plant Biology, The Noble Foundation, Ardmore, OK, US/Dennis Fine, Daniel Wherritt, and Lloyd Sumner" "ionization=ESI" "collision gas=Nitrogen" "peak width=0.012" "date=2013-11-22 02:46:03+01:00" "column=Waters Acquity BEH C18 1.7um x 2.1 x 150 mm" "retention time=745.2" "raw data file=C:\Data\Confirmed Standards\Confirmed Stds 21Nov13\57Dihydroxy3'4'dimethoxyfl dil.d" "SPLASH=splash10-014i-0009000000-4783bbaf65824c3af404" "submitter=Aiko Barsch (Bruker)" "MoNA Rating=4.444444444444445"
Num Peaks: 3
315.0893 100.000000
316.0925 15.515516
317.0946 1.801802


Name: 5,7-Dihydroxy-3',4'-dimethoxyflavanone
Synon: $:00in-source
DB#: MetaboBASE0538
InChIKey: HRFSSDXPHTZMLA-UHFFFAOYSA-N
Precursor_type: [M-H]-
Spectrum_type: MS2
PrecursorMZ: 315.0869
Instrument_type: LC-ESI-TOF
Instrument: impact HD
Ion_mode: N
Collision_energy: 30
Formula: C17H16O6
MW: 316
ExactMass: 316.09468823199995
Comments: "computed SMILES=O=C1C=2C(O)=CC(O)=CC2OC(C3=CC=C(OC)C(OC)=C3)C1" "computed InChI=InChI=1S/C17H16O6/c1-21-13-4-3-9(5-15(13)22-2)14-8-12(20)17-11(19)6-10(18)7-16(17)23-14/h3-7,14,18-19H,8H2,1-2H3" "license=License CC-BY-NC-SA 4.0 International" "author=Plant Biology, The Noble Foundation, Ardmore, OK, US/Dennis Fine, Daniel Wherritt, and Lloyd Sumner" "ionization=ESI" "isolation width=5" "collision gas=Nitrogen" "peak width=0.015" "date=2013-11-24 03:54:01+01:00" "column=Waters Acquity BEH C18 1.7um x 2.1 x 150 mm" "retention time=742.2" "raw data file=C:\Data\Confirmed Standards\Confirmed stds MSMS 22Nov13\57Dihydroxy3'4'dimethoxyf MSMS.d" "computed mass accuracy=1.625684850587738" "computed mass error=-5.122319999486535E-4" "SPLASH=splash10-03y1-0973000000-8ffe3ebf2f444bde8fca" "submitter=Aiko Barsch (Bruker)" "MoNA Rating=4.583333333333334"
Num Peaks: 44
107.0137 3.603604
108.0207 10.210210
123.0067 5.905906
124.0149 14.114114
125.0235 4.304304
136.0145 28.028028
151.0014 12.012012
152.0088 17.817818
164.0098 100.000000
165.0141 7.907908
177.0183 3.303303
195.9998 27.227227
197.0014 3.403403
199.0383 4.504505
205.0864 2.302302
213.0520 2.402402
215.0359 2.202202
217.0480 2.202202
227.0708 2.402402
229.0488 3.903904
229.0887 2.102102
230.0609 3.703704
231.0602 2.402402
241.0500 6.206206
243.0303 3.303303
245.0811 3.103103
247.0954 2.102102
253.0745 2.202202
255.0673 2.302302
257.0456 10.210210
258.0522 7.907908
259.0533 2.602603
271.0616 14.014014
272.0663 2.502503
273.0769 20.520521
274.0820 3.303303
281.0473 3.903904
285.0409 50.750751
286.0448 4.704705
299.0551 27.027027
300.0629 24.924925
301.0671 4.104104
315.0869 51.151151
316.0891 7.207207


Name: 5,7-Dihydroxy-3',4'-dimethoxyflavanone
Synon: $:00in-source
DB#: MetaboBASE0539
InChIKey: HRFSSDXPHTZMLA-UHFFFAOYSA-N
Precursor_type: [M-H]-
Spectrum_type: MS2
PrecursorMZ: 315.09
Instrument_type: LC-ESI-TOF
Instrument: impact HD
Ion_mode: N
Collision_energy: 40
Formula: C17H16O6
MW: 316
ExactMass: 316.09468823199995
Comments: "computed SMILES=O=C1C=2C(O)=CC(O)=CC2OC(C3=CC=C(OC)C(OC)=C3)C1" "computed InChI=InChI=1S/C17H16O6/c1-21-13-4-3-9(5-15(13)22-2)14-8-12(20)17-11(19)6-10(18)7-16(17)23-14/h3-7,14,18-19H,8H2,1-2H3" "license=License CC-BY-NC-SA 4.0 International" "author=Plant Biology, The Noble Foundation, Ardmore, OK, US/Dennis Fine, Daniel Wherritt, and Lloyd Sumner" "ionization=ESI" "isolation width=5" "collision gas=Nitrogen" "peak width=0.014" "date=2013-11-24 03:54:01+01:00" "column=Waters Acquity BEH C18 1.7um x 2.1 x 150 mm" "retention time=742.2" "raw data file=C:\Data\Confirmed Standards\Confirmed stds MSMS 22Nov13\57Dihydroxy3'4'dimethoxyf MSMS.d" "computed mass accuracy=8.212789996547487" "computed mass error=0.0025877680000121472" "SPLASH=splash10-0a4r-0930000000-523d684d8f49390fccf3" "submitter=Aiko Barsch (Bruker)" "MoNA Rating=4.545454545454546"
Num Peaks: 37
107.0138 21.721722
108.0212 100.000000
119.0513 12.512513
123.0069 22.722723
124.0162 30.530531
125.0233 11.111111
133.0289 9.009009
135.0438 13.513514
136.0150 83.983984
147.0440 10.210210
151.0021 35.835836
152.0086 9.209209
155.0486 7.207207
164.0096 75.475475
165.0139 7.607608
174.0352 7.507508
175.0378 13.613614
185.0591 8.008008
189.0529 12.812813
196.0002 25.725726
199.0378 17.217217
200.0435 9.509510
213.0548 8.608609
215.0332 7.807808
216.0405 6.506507
217.0484 10.710711
227.0712 17.217217
229.0496 9.209209
230.0569 6.606607
241.0489 14.514515
243.0314 12.312312
255.0639 8.608609
257.0445 34.134134
258.0482 10.810811
271.0619 18.418418
285.0407 31.631632
299.0574 19.119119


Name: 5,7-Dihydroxy-3',4'-dimethoxyflavanone
Synon: $:00in-source
DB#: MetaboBASE0540
InChIKey: HRFSSDXPHTZMLA-UHFFFAOYSA-N
Instrument_type: LC-ESI-TOF
Instrument: impact HD
Ion_mode: N
Formula: C17H16O6
MW: 316
ExactMass: 316.09468823199995
Comments: "computed SMILES=O=C1C=2C(O)=CC(O)=CC2OC(C3=CC=C(OC)C(OC)=C3)C1" "computed InChI=InChI=1S/C17H16O6/c1-21-13-4-3-9(5-15(13)22-2)14-8-12(20)17-11(19)6-10(18)7-16(17)23-14/h3-7,14,18-19H,8H2,1-2H3" "license=License CC-BY-NC-SA 4.0 International" "author=Plant Biology, The Noble Foundation, Ardmore, OK, US/Dennis Fine, Daniel Wherritt, and Lloyd Sumner" "ionization=ESI" "collision gas=Nitrogen" "peak width=0.015" "date=2013-11-24 03:54:01+01:00" "column=Waters Acquity BEH C18 1.7um x 2.1 x 150 mm" "retention time=742.2" "raw data file=C:\Data\Confirmed Standards\Confirmed stds MSMS 22Nov13\57Dihydroxy3'4'dimethoxyf MSMS.d" "SPLASH=splash10-014i-0009000000-3f21d4dffd2d5009c51f" "submitter=Aiko Barsch (Bruker)" "MoNA Rating=3.888888888888889"
Num Peaks: 24
112.9858 0.300300
116.9286 0.200200
235.9261 0.100100
242.9431 0.300300
248.9602 0.300300
304.9145 0.100100
310.9326 0.200200
315.0882 100.000000
316.0914 14.714715
317.0934 1.701702
318.0971 0.100100
351.0637 0.200200
353.0598 0.100100
378.9188 0.100100
383.0745 1.401401
384.0768 0.300300
445.0443 0.200200
451.0608 0.200200
506.0137 0.200200
631.1829 4.904905
632.1869 1.701702
633.1887 0.400400
666.0193 0.100100
715.1337 0.100100


Name: Aspalathin
Synon: $:00in-source
DB#: MetaboBASE0541
InChIKey: VCPUQYKWJRESOC-VJXVFPJBSA-N
Precursor_type: [M-H]-
Spectrum_type: MS2
PrecursorMZ: 451.1264
Instrument_type: LC-ESI-TOF
Instrument: impact HD
Ion_mode: N
Collision_energy: 20
Formula: C21H24O11
MW: 452
ExactMass: 452.131861588
Comments: "cas number=6027-43-6" "SMILES=O=C(c1c(O)c(c(O)cc1O)[C@@H]2O[C@@H]([C@@H](O)[C@H](O)[C@H]2O)CO)CCc3ccc(O)c(O)c3" "InChI=InChI=1S/C21H24O11/c22-7-14-17(28)19(30)20(31)21(32-14)16-13(27)6-12(26)15(18(16)29)10(24)4-2-8-1-3-9(23)11(25)5-8/h1,3,5-6,14,17,19-23,25-31H,2,4,7H2/t14-,17-,19+,20-,21+/m1/s1" "computed SMILES=O=C(C1=C(O)C=C(O)C(=C1O)C2OC(CO)C(O)C(O)C2O)CCC3=CC=C(O)C(O)=C3" "computed InChI=InChI=1S/C21H24O11/c22-7-14-17(28)19(30)20(31)21(32-14)16-13(27)6-12(26)15(18(16)29)10(24)4-2-8-1-3-9(23)11(25)5-8/h1,3,5-6,14,17,19-23,25-31H,2,4,7H2" "license=License CC-BY-NC-SA 4.0 International" "author=Plant Biology, The Noble Foundation, Ardmore, OK, US/Dennis Fine, Daniel Wherritt, and Lloyd Sumner" "ionization=ESI" "isolation width=5" "collision gas=Nitrogen" "peak width=0.015" "date=2013-11-23 18:23:32+01:00" "column=Waters Acquity BEH C18 1.7um x 2.1 x 150 mm" "retention time=279.6" "raw data file=C:\Data\Confirmed Standards\Confirmed stds MSMS 22Nov13\Aspalathin (vial 277) MSMS.d" "computed mass accuracy=4.021959255737288" "computed mass error=0.001814411999987442" "SPLASH=splash10-001i-0009000000-01e32f1179b48e5ee0e9" "submitter=Aiko Barsch (Bruker)" "MoNA Rating=4.583333333333334"
Num Peaks: 22
167.0352 0.800801
193.0148 1.401401
209.0457 0.700701
223.0240 0.900901
239.0556 0.600601
289.0733 1.101101
313.0716 0.500501
329.0678 17.017017
330.0706 3.403403
331.0838 100.000000
332.0872 12.512513
333.0892 1.601602
343.0837 0.600601
359.0786 4.004004
360.0821 1.001001
361.0946 16.616617
362.0977 2.602603
373.0952 0.800801
433.1151 1.601602
449.1094 0.900901
451.1264 4.004004
452.1302 0.900901


Name: Aspalathin
Synon: $:00in-source
DB#: MetaboBASE0542
InChIKey: VCPUQYKWJRESOC-VJXVFPJBSA-N
Precursor_type: [M-H]-
Spectrum_type: MS2
PrecursorMZ: 451.1219
Instrument_type: LC-ESI-TOF
Instrument: impact HD
Ion_mode: N
Collision_energy: 30
Formula: C21H24O11
MW: 452
ExactMass: 452.131861588
Comments: "cas number=6027-43-6" "SMILES=O=C(c1c(O)c(c(O)cc1O)[C@@H]2O[C@@H]([C@@H](O)[C@H](O)[C@H]2O)CO)CCc3ccc(O)c(O)c3" "InChI=InChI=1S/C21H24O11/c22-7-14-17(28)19(30)20(31)21(32-14)16-13(27)6-12(26)15(18(16)29)10(24)4-2-8-1-3-9(23)11(25)5-8/h1,3,5-6,14,17,19-23,25-31H,2,4,7H2/t14-,17-,19+,20-,21+/m1/s1" "computed SMILES=O=C(C1=C(O)C=C(O)C(=C1O)C2OC(CO)C(O)C(O)C2O)CCC3=CC=C(O)C(O)=C3" "computed InChI=InChI=1S/C21H24O11/c22-7-14-17(28)19(30)20(31)21(32-14)16-13(27)6-12(26)15(18(16)29)10(24)4-2-8-1-3-9(23)11(25)5-8/h1,3,5-6,14,17,19-23,25-31H,2,4,7H2" "license=License CC-BY-NC-SA 4.0 International" "author=Plant Biology, The Noble Foundation, Ardmore, OK, US/Dennis Fine, Daniel Wherritt, and Lloyd Sumner" "ionization=ESI" "isolation width=5" "collision gas=Nitrogen" "peak width=0.016" "date=2013-11-23 18:23:32+01:00" "column=Waters Acquity BEH C18 1.7um x 2.1 x 150 mm" "retention time=279.6" "raw data file=C:\Data\Confirmed Standards\Confirmed stds MSMS 22Nov13\Aspalathin (vial 277) MSMS.d" "computed mass accuracy=5.9531315150513295" "computed mass error=-0.002685588000019834" "SPLASH=splash10-001i-0339000000-31d4a128639c39235860" "submitter=Aiko Barsch (Bruker)" "MoNA Rating=4.545454545454546"
Num Peaks: 26
125.0247 5.405405
135.0457 8.908909
151.0045 2.302302
165.0560 1.701702
167.0353 20.720721
179.0359 1.701702
193.0144 16.416416
194.0184 1.901902
197.0451 3.203203
209.0459 25.825826
210.0488 3.003003
221.0457 3.903904
223.0250 7.307307
239.0562 13.513514
289.0725 6.106106
301.0713 1.601602
313.0716 3.003003
329.0674 8.008008
330.0722 2.302302
331.0839 100.000000
332.0871 13.213213
333.0886 1.701702
343.0818 1.501502
359.0811 3.003003
361.0948 21.421421
362.0981 4.104104


Name: Aspalathin
Synon: $:00in-source
DB#: MetaboBASE0543
InChIKey: VCPUQYKWJRESOC-VJXVFPJBSA-N
Instrument_type: LC-ESI-TOF
Instrument: impact HD
Ion_mode: N
Collision_energy: 10
Formula: C21H24O11
MW: 452
ExactMass: 452.131861588
Comments: "cas number=6027-43-6" "SMILES=O=C(c1c(O)c(c(O)cc1O)[C@@H]2O[C@@H]([C@@H](O)[C@H](O)[C@H]2O)CO)CCc3ccc(O)c(O)c3" "InChI=InChI=1S/C21H24O11/c22-7-14-17(28)19(30)20(31)21(32-14)16-13(27)6-12(26)15(18(16)29)10(24)4-2-8-1-3-9(23)11(25)5-8/h1,3,5-6,14,17,19-23,25-31H,2,4,7H2/t14-,17-,19+,20-,21+/m1/s1" "computed SMILES=O=C(C1=C(O)C=C(O)C(=C1O)C2OC(CO)C(O)C(O)C2O)CCC3=CC=C(O)C(O)=C3" "computed InChI=InChI=1S/C21H24O11/c22-7-14-17(28)19(30)20(31)21(32-14)16-13(27)6-12(26)15(18(16)29)10(24)4-2-8-1-3-9(23)11(25)5-8/h1,3,5-6,14,17,19-23,25-31H,2,4,7H2" "license=License CC-BY-NC-SA 4.0 International" "author=Plant Biology, The Noble Foundation, Ardmore, OK, US/Dennis Fine, Daniel Wherritt, and Lloyd Sumner" "ionization=ESI" "collision gas=Nitrogen" "peak width=0.015" "date=2013-11-20 16:01:25+01:00" "column=Waters Acquity BEH C18 1.7um x 2.1 x 150 mm" "retention time=279.6" "raw data file=C:\Data\Confirmed Standards\Confirmed Stds 19Nov13\Aspalathin (vial 277).d" "SPLASH=splash10-0ue9-0006900002-cf233a9ccd98352bf5d0" "submitter=Aiko Barsch (Bruker)" "MoNA Rating=4.444444444444445"
Num Peaks: 23
329.0675 36.536537
330.0703 5.205205
331.0832 71.571572
332.0863 11.111111
333.0879 1.501502
359.0780 5.505506
360.0812 1.001001
361.0936 7.707708
362.0973 1.301301
433.1142 1.801802
449.1097 57.557558
450.1128 11.611612
451.1253 100.000000
452.1286 19.619620
453.1305 3.203203
901.2413 8.608609
902.2449 3.403403
903.2572 21.321321
904.2597 8.808809
905.2626 2.202202
925.2349 1.001001
1353.3696 1.401401
1355.3839 1.301301


Name: Aspalathin
Synon: $:00in-source
DB#: MetaboBASE0544
InChIKey: VCPUQYKWJRESOC-VJXVFPJBSA-N
Instrument_type: LC-ESI-TOF
Instrument: impact HD
Ion_mode: N
Formula: C21H24O11
MW: 452
ExactMass: 452.131861588
Comments: "cas number=6027-43-6" "SMILES=O=C(c1c(O)c(c(O)cc1O)[C@@H]2O[C@@H]([C@@H](O)[C@H](O)[C@H]2O)CO)CCc3ccc(O)c(O)c3" "InChI=InChI=1S/C21H24O11/c22-7-14-17(28)19(30)20(31)21(32-14)16-13(27)6-12(26)15(18(16)29)10(24)4-2-8-1-3-9(23)11(25)5-8/h1,3,5-6,14,17,19-23,25-31H,2,4,7H2/t14-,17-,19+,20-,21+/m1/s1" "computed SMILES=O=C(C1=C(O)C=C(O)C(=C1O)C2OC(CO)C(O)C(O)C2O)CCC3=CC=C(O)C(O)=C3" "computed InChI=InChI=1S/C21H24O11/c22-7-14-17(28)19(30)20(31)21(32-14)16-13(27)6-12(26)15(18(16)29)10(24)4-2-8-1-3-9(23)11(25)5-8/h1,3,5-6,14,17,19-23,25-31H,2,4,7H2" "license=License CC-BY-NC-SA 4.0 International" "author=Plant Biology, The Noble Foundation, Ardmore, OK, US/Dennis Fine, Daniel Wherritt, and Lloyd Sumner" "ionization=ESI" "collision gas=Nitrogen" "peak width=0.012" "date=2013-11-23 18:23:32+01:00" "column=Waters Acquity BEH C18 1.7um x 2.1 x 150 mm" "retention time=279.6" "raw data file=C:\Data\Confirmed Standards\Confirmed stds MSMS 22Nov13\Aspalathin (vial 277) MSMS.d" "SPLASH=splash10-0udi-0000900003-937a6dc7eeca063a4fc9" "submitter=Aiko Barsch (Bruker)" "MoNA Rating=3.888888888888889"
Num Peaks: 22
329.0676 2.302302
331.0832 2.702703
449.1111 40.340340
450.1145 6.806807
451.1267 100.000000
452.1301 17.117117
453.1323 2.502503
467.1198 0.700701
899.2278 2.902903
900.2320 1.101101
901.2431 21.421421
902.2467 9.109109
903.2575 26.726727
904.2615 9.009009
905.2662 2.502503
1352.3643 0.600601
1353.3761 2.502503
1353.8745 0.700701
1354.3843 2.302302
1354.8849 1.101101
1355.3896 2.302302
1356.3987 1.301301


Name: Aspalathin
Synon: $:00in-source
DB#: MetaboBASE0545
InChIKey: VCPUQYKWJRESOC-VJXVFPJBSA-N
Precursor_type: [M-H]-
Spectrum_type: MS2
PrecursorMZ: 451.1268
Instrument_type: LC-ESI-TOF
Instrument: impact HD
Ion_mode: N
Collision_energy: 10
Formula: C21H24O11
MW: 452
ExactMass: 452.131861588
Comments: "cas number=6027-43-6" "SMILES=O=C(c1c(O)c(c(O)cc1O)[C@@H]2O[C@@H]([C@@H](O)[C@H](O)[C@H]2O)CO)CCc3ccc(O)c(O)c3" "InChI=InChI=1S/C21H24O11/c22-7-14-17(28)19(30)20(31)21(32-14)16-13(27)6-12(26)15(18(16)29)10(24)4-2-8-1-3-9(23)11(25)5-8/h1,3,5-6,14,17,19-23,25-31H,2,4,7H2/t14-,17-,19+,20-,21+/m1/s1" "computed SMILES=O=C(C1=C(O)C=C(O)C(=C1O)C2OC(CO)C(O)C(O)C2O)CCC3=CC=C(O)C(O)=C3" "computed InChI=InChI=1S/C21H24O11/c22-7-14-17(28)19(30)20(31)21(32-14)16-13(27)6-12(26)15(18(16)29)10(24)4-2-8-1-3-9(23)11(25)5-8/h1,3,5-6,14,17,19-23,25-31H,2,4,7H2" "license=License CC-BY-NC-SA 4.0 International" "author=Plant Biology, The Noble Foundation, Ardmore, OK, US/Dennis Fine, Daniel Wherritt, and Lloyd Sumner" "ionization=ESI" "isolation width=5" "collision gas=Nitrogen" "peak width=0.013" "date=2013-11-23 18:23:32+01:00" "column=Waters Acquity BEH C18 1.7um x 2.1 x 150 mm" "retention time=279.6" "raw data file=C:\Data\Confirmed Standards\Confirmed stds MSMS 22Nov13\Aspalathin (vial 277) MSMS.d" "computed mass accuracy=4.908624360159318" "computed mass error=0.0022144120000007206" "SPLASH=splash10-0udi-0004900000-8a9fed14120bd0eec309" "submitter=Aiko Barsch (Bruker)" "MoNA Rating=4.583333333333334"
Num Peaks: 14
329.0676 14.514515
330.0704 3.003003
331.0837 40.040040
332.0866 6.606607
333.0893 0.700701
359.0785 1.601602
361.0937 3.003003
362.0968 0.600601
433.1165 0.600601
449.1116 16.916917
450.1145 4.304304
451.1268 100.000000
452.1300 13.613614
453.1316 2.202202


Name: Aspalathin
Synon: $:00in-source
DB#: MetaboBASE0546
InChIKey: VCPUQYKWJRESOC-VJXVFPJBSA-N
Precursor_type: [M-H]-
Spectrum_type: MS2
PrecursorMZ: 451.13
Instrument_type: LC-ESI-TOF
Instrument: impact HD
Ion_mode: N
Collision_energy: 40
Formula: C21H24O11
MW: 452
ExactMass: 452.131861588
Comments: "cas number=6027-43-6" "SMILES=O=C(c1c(O)c(c(O)cc1O)[C@@H]2O[C@@H]([C@@H](O)[C@H](O)[C@H]2O)CO)CCc3ccc(O)c(O)c3" "InChI=InChI=1S/C21H24O11/c22-7-14-17(28)19(30)20(31)21(32-14)16-13(27)6-12(26)15(18(16)29)10(24)4-2-8-1-3-9(23)11(25)5-8/h1,3,5-6,14,17,19-23,25-31H,2,4,7H2/t14-,17-,19+,20-,21+/m1/s1" "computed SMILES=O=C(C1=C(O)C=C(O)C(=C1O)C2OC(CO)C(O)C(O)C2O)CCC3=CC=C(O)C(O)=C3" "computed InChI=InChI=1S/C21H24O11/c22-7-14-17(28)19(30)20(31)21(32-14)16-13(27)6-12(26)15(18(16)29)10(24)4-2-8-1-3-9(23)11(25)5-8/h1,3,5-6,14,17,19-23,25-31H,2,4,7H2" "license=License CC-BY-NC-SA 4.0 International" "author=Plant Biology, The Noble Foundation, Ardmore, OK, US/Dennis Fine, Daniel Wherritt, and Lloyd Sumner" "ionization=ESI" "isolation width=5" "collision gas=Nitrogen" "peak width=0.016" "date=2013-11-23 18:23:32+01:00" "column=Waters Acquity BEH C18 1.7um x 2.1 x 150 mm" "retention time=279.6" "raw data file=C:\Data\Confirmed Standards\Confirmed stds MSMS 22Nov13\Aspalathin (vial 277) MSMS.d" "computed mass accuracy=12.001888590856877" "computed mass error=0.005414411999993263" "SPLASH=splash10-0699-0930000000-293fd3162e6a0e0b8698" "submitter=Aiko Barsch (Bruker)" "MoNA Rating=4.545454545454546"
Num Peaks: 21
109.0298 9.309309
121.0297 5.005005
123.0451 13.113113
125.0247 43.443443
135.0455 52.052052
137.0247 5.605606
137.0605 9.009009
151.0034 7.507508
165.0210 6.606607
165.0561 7.207207
167.0354 100.000000
168.0388 6.506507
179.0358 12.112112
193.0142 17.517518
197.0451 7.407407
209.0457 71.671672
210.0493 6.606607
221.0462 7.007007
223.0255 7.507508
239.0567 16.916917
331.0839 13.413413


Name: Aspalathin
Synon: $:00in-source
DB#: MetaboBASE0547
InChIKey: VCPUQYKWJRESOC-VJXVFPJBSA-N
Precursor_type: [M-H]-
Spectrum_type: MS2
PrecursorMZ: 451.13
Instrument_type: LC-ESI-TOF
Instrument: impact HD
Ion_mode: N
Collision_energy: 50
Formula: C21H24O11
MW: 452
ExactMass: 452.131861588
Comments: "cas number=6027-43-6" "SMILES=O=C(c1c(O)c(c(O)cc1O)[C@@H]2O[C@@H]([C@@H](O)[C@H](O)[C@H]2O)CO)CCc3ccc(O)c(O)c3" "InChI=InChI=1S/C21H24O11/c22-7-14-17(28)19(30)20(31)21(32-14)16-13(27)6-12(26)15(18(16)29)10(24)4-2-8-1-3-9(23)11(25)5-8/h1,3,5-6,14,17,19-23,25-31H,2,4,7H2/t14-,17-,19+,20-,21+/m1/s1" "computed SMILES=O=C(C1=C(O)C=C(O)C(=C1O)C2OC(CO)C(O)C(O)C2O)CCC3=CC=C(O)C(O)=C3" "computed InChI=InChI=1S/C21H24O11/c22-7-14-17(28)19(30)20(31)21(32-14)16-13(27)6-12(26)15(18(16)29)10(24)4-2-8-1-3-9(23)11(25)5-8/h1,3,5-6,14,17,19-23,25-31H,2,4,7H2" "license=License CC-BY-NC-SA 4.0 International" "author=Plant Biology, The Noble Foundation, Ardmore, OK, US/Dennis Fine, Daniel Wherritt, and Lloyd Sumner" "ionization=ESI" "isolation width=5" "collision gas=Nitrogen" "peak width=0.018" "date=2013-11-23 18:23:32+01:00" "column=Waters Acquity BEH C18 1.7um x 2.1 x 150 mm" "retention time=279.6" "raw data file=C:\Data\Confirmed Standards\Confirmed stds MSMS 22Nov13\Aspalathin (vial 277) MSMS.d" "computed mass accuracy=12.001888590856877" "computed mass error=0.005414411999993263" "SPLASH=splash10-00n0-0900000000-317267c2e005616454de" "submitter=Aiko Barsch (Bruker)" "MoNA Rating=4.545454545454546"
Num Peaks: 14
109.0299 19.519520
121.0300 10.610611
123.0454 36.236236
125.0247 58.358358
135.0452 88.588589
136.0497 7.107107
137.0244 13.713714
137.0605 21.621622
151.0035 8.608609
165.0557 8.408408
167.0355 100.000000
179.0348 18.118118
193.0149 7.807808
209.0461 25.225225


Name: Tectochrysin
Synon: 5-hydroxy-7-methoxyflavone
Synon: $:00in-source
DB#: MetaboBASE0548
InChIKey: IRZVHDLBAYNPCT-UHFFFAOYSA-N
Precursor_type: [M-H]-
Spectrum_type: MS2
PrecursorMZ: 267.0659
Instrument_type: LC-ESI-TOF
Instrument: impact HD
Ion_mode: N
Collision_energy: 10
Formula: C16H12O4
MW: 268
ExactMass: 268.073558864
Comments: "cas number=520-28-5" "SMILES=COc1cc(c2c(=O)cc(oc2c1)c3ccccc3)O" "InChI=InChI=1S/C16H12O4/c1-19-11-7-12(17)16-13(18)9-14(20-15(16)8-11)10-5-3-2-4-6-10/h2-9,17H,1H3" "computed SMILES=O=C1C=C(OC=2C=C(OC)C=C(O)C12)C=3C=CC=CC3" "license=License CC-BY-NC-SA 4.0 International" "author=Plant Biology, The Noble Foundation, Ardmore, OK, US/Dennis Fine, Daniel Wherritt, and Lloyd Sumner" "ionization=ESI" "isolation width=5" "collision gas=Nitrogen" "peak width=0.017" "date=2013-11-24 00:30:19+01:00" "column=Waters Acquity BEH C18 1.7um x 2.1 x 150 mm" "retention time=1133.4" "raw data file=C:\Data\Confirmed Standards\Confirmed stds MSMS 22Nov13\Tectochrysin (vial 290) MSMS.d" "computed mass accuracy=1.433593731047375" "computed mass error=-3.828640000165251E-4" "SPLASH=splash10-014i-0090000000-a719cab05eda0631c8cf" "submitter=Aiko Barsch (Bruker)" "MoNA Rating=4.583333333333334"
Num Peaks: 4
252.0408 5.305305
267.0659 100.000000
268.0684 10.810811
269.0648 7.207207


Name: Tectochrysin
Synon: 5-hydroxy-7-methoxyflavone
Synon: $:00in-source
DB#: MetaboBASE0549
InChIKey: IRZVHDLBAYNPCT-UHFFFAOYSA-N
Precursor_type: [M-H]-
Spectrum_type: MS2
PrecursorMZ: 267
Instrument_type: LC-ESI-TOF
Instrument: impact HD
Ion_mode: N
Collision_energy: 30
Formula: C16H12O4
MW: 268
ExactMass: 268.073558864
Comments: "cas number=520-28-5" "SMILES=COc1cc(c2c(=O)cc(oc2c1)c3ccccc3)O" "InChI=InChI=1S/C16H12O4/c1-19-11-7-12(17)16-13(18)9-14(20-15(16)8-11)10-5-3-2-4-6-10/h2-9,17H,1H3" "computed SMILES=O=C1C=C(OC=2C=C(OC)C=C(O)C12)C=3C=CC=CC3" "license=License CC-BY-NC-SA 4.0 International" "author=Plant Biology, The Noble Foundation, Ardmore, OK, US/Dennis Fine, Daniel Wherritt, and Lloyd Sumner" "ionization=ESI" "isolation width=5" "collision gas=Nitrogen" "peak width=0.011" "date=2013-11-24 00:30:19+01:00" "column=Waters Acquity BEH C18 1.7um x 2.1 x 150 mm" "retention time=1133.4" "raw data file=C:\Data\Confirmed Standards\Confirmed stds MSMS 22Nov13\Tectochrysin (vial 290) MSMS.d" "computed mass accuracy=248.25042696635094" "computed mass error=-0.0662828640000157" "SPLASH=splash10-00di-0190000000-fd05faedd737e8aadb8e" "submitter=Aiko Barsch (Bruker)" "MoNA Rating=4.545454545454546"
Num Peaks: 7
122.0006 9.609610
180.0585 20.320320
223.0421 21.321321
224.0470 100.000000
225.0506 21.221221
252.0367 19.519520
252.0509 14.414414


Name: Tectochrysin
Synon: 5-hydroxy-7-methoxyflavone
Synon: $:00in-source
DB#: MetaboBASE0550
InChIKey: IRZVHDLBAYNPCT-UHFFFAOYSA-N
Precursor_type: [M-H]-
Spectrum_type: MS2
PrecursorMZ: 267.0638
Instrument_type: LC-ESI-TOF
Instrument: impact HD
Ion_mode: N
Collision_energy: 20
Formula: C16H12O4
MW: 268
ExactMass: 268.073558864
Comments: "cas number=520-28-5" "SMILES=COc1cc(c2c(=O)cc(oc2c1)c3ccccc3)O" "InChI=InChI=1S/C16H12O4/c1-19-11-7-12(17)16-13(18)9-14(20-15(16)8-11)10-5-3-2-4-6-10/h2-9,17H,1H3" "computed SMILES=O=C1C=C(OC=2C=C(OC)C=C(O)C12)C=3C=CC=CC3" "license=License CC-BY-NC-SA 4.0 International" "author=Plant Biology, The Noble Foundation, Ardmore, OK, US/Dennis Fine, Daniel Wherritt, and Lloyd Sumner" "ionization=ESI" "isolation width=5" "collision gas=Nitrogen" "peak width=0.014" "date=2013-11-24 00:30:19+01:00" "column=Waters Acquity BEH C18 1.7um x 2.1 x 150 mm" "retention time=1133.4" "raw data file=C:\Data\Confirmed Standards\Confirmed stds MSMS 22Nov13\Tectochrysin (vial 290) MSMS.d" "computed mass accuracy=9.296894599721014" "computed mass error=-0.0024828640000009727" "SPLASH=splash10-01b9-0090000000-ac1e2e9664313fedb1dd" "submitter=Aiko Barsch (Bruker)" "MoNA Rating=4.545454545454546"
Num Peaks: 9
165.0194 10.210210
223.7428 7.007007
224.0472 69.069069
225.0511 5.005005
226.0490 7.807808
252.0406 55.155155
253.0434 9.309309
267.0638 100.000000
268.0685 16.216216


Name: Tectochrysin
Synon: 5-hydroxy-7-methoxyflavone
Synon: $:00in-source
DB#: MetaboBASE0551
InChIKey: IRZVHDLBAYNPCT-UHFFFAOYSA-N
Instrument_type: LC-ESI-TOF
Instrument: impact HD
Ion_mode: N
Formula: C16H12O4
MW: 268
ExactMass: 268.073558864
Comments: "cas number=520-28-5" "SMILES=COc1cc(c2c(=O)cc(oc2c1)c3ccccc3)O" "InChI=InChI=1S/C16H12O4/c1-19-11-7-12(17)16-13(18)9-14(20-15(16)8-11)10-5-3-2-4-6-10/h2-9,17H,1H3" "computed SMILES=O=C1C=C(OC=2C=C(OC)C=C(O)C12)C=3C=CC=CC3" "license=License CC-BY-NC-SA 4.0 International" "author=Plant Biology, The Noble Foundation, Ardmore, OK, US/Dennis Fine, Daniel Wherritt, and Lloyd Sumner" "ionization=ESI" "collision gas=Nitrogen" "peak width=0.015" "date=2013-11-24 00:30:19+01:00" "column=Waters Acquity BEH C18 1.7um x 2.1 x 150 mm" "retention time=1133.4" "raw data file=C:\Data\Confirmed Standards\Confirmed stds MSMS 22Nov13\Tectochrysin (vial 290) MSMS.d" "SPLASH=splash10-0a4i-0040090010-e8e129c134ca3ac3aaee" "submitter=Aiko Barsch (Bruker)" "MoNA Rating=3.888888888888889"
Num Peaks: 14
112.9854 4.204204
242.9427 4.304304
248.9598 5.105105
267.0658 52.552553
268.0685 7.607608
335.0536 13.113113
541.1471 3.603604
557.1207 100.000000
558.1236 28.628629
559.1265 5.005005
680.0669 5.005005
841.1625 4.404404
847.1804 12.912913
848.1848 6.506507


Name: Tectochrysin
Synon: 5-hydroxy-7-methoxyflavone
Synon: $:00in-source
DB#: MetaboBASE0552
InChIKey: IRZVHDLBAYNPCT-UHFFFAOYSA-N
Instrument_type: LC-ESI-TOF
Instrument: impact HD
Ion_mode: N
Collision_energy: 10
Formula: C16H12O4
MW: 268
ExactMass: 268.073558864
Comments: "cas number=520-28-5" "SMILES=COc1cc(c2c(=O)cc(oc2c1)c3ccccc3)O" "InChI=InChI=1S/C16H12O4/c1-19-11-7-12(17)16-13(18)9-14(20-15(16)8-11)10-5-3-2-4-6-10/h2-9,17H,1H3" "computed SMILES=O=C1C=C(OC=2C=C(OC)C=C(O)C12)C=3C=CC=CC3" "license=License CC-BY-NC-SA 4.0 International" "author=Plant Biology, The Noble Foundation, Ardmore, OK, US/Dennis Fine, Daniel Wherritt, and Lloyd Sumner" "ionization=ESI" "collision gas=Nitrogen" "peak width=0.017" "date=2013-11-22 00:03:03+01:00" "column=Waters Acquity BEH C18 1.7um x 2.1 x 150 mm" "retention time=1133.4" "raw data file=C:\Data\Confirmed Standards\Confirmed Stds 21Nov13\Tectochrysin (vial 290).d" "SPLASH=splash10-066r-0090050000-7d2f57f39c92f3d1078f" "submitter=Aiko Barsch (Bruker)" "MoNA Rating=4.444444444444445"
Num Peaks: 20
224.0480 2.702703
252.0433 5.105105
267.0674 100.000000
268.0703 13.813814
269.0727 1.601602
335.0543 6.306306
336.0574 1.101101
389.1030 1.301301
541.1469 3.103103
542.1503 1.101101
556.0020 3.003003
557.1221 49.049049
558.1251 14.314314
559.1284 2.702703
625.1100 1.801802
841.1607 1.901902
847.1786 7.507508
848.1808 3.603604
1131.2216 1.601602
1132.2262 1.101101


Name: Isosakuranetin
Synon: $:00in-source
DB#: MetaboBASE0553
InChIKey: HMUJXQRRKBLVOO-AWEZNQCLSA-N
Precursor_type: [M-H]-
Spectrum_type: MS2
PrecursorMZ: 285.0776
Instrument_type: LC-ESI-TOF
Instrument: impact HD
Ion_mode: N
Collision_energy: 20
Formula: C16H14O5
MW: 286
ExactMass: 286.084123548
Comments: "cas number=480-43-3" "SMILES=COc1ccc(cc1)[C@@H]2CC(=O)c3c(cc(cc3O2)O)O" "InChI=InChI=1S/C16H14O5/c1-20-11-4-2-9(3-5-11)14-8-13(19)16-12(18)6-10(17)7-15(16)21-14/h2-7,14,17-18H,8H2,1H3/t14-/m0/s1" "computed SMILES=O=C1C=2C(O)=CC(O)=CC2OC(C3=CC=C(OC)C=C3)C1" "computed InChI=InChI=1S/C16H14O5/c1-20-11-4-2-9(3-5-11)14-8-13(19)16-12(18)6-10(17)7-15(16)21-14/h2-7,14,17-18H,8H2,1H3" "license=License CC-BY-NC-SA 4.0 International" "author=Plant Biology, The Noble Foundation, Ardmore, OK, US/Dennis Fine, Daniel Wherritt, and Lloyd Sumner" "ionization=ESI" "isolation width=5" "collision gas=Nitrogen" "peak width=0.015" "date=2013-11-24 01:11:01+01:00" "column=Waters Acquity BEH C18 1.7um x 2.1 x 150 mm" "retention time=838.2" "raw data file=C:\Data\Confirmed Standards\Confirmed stds MSMS 22Nov13\Isosakuranetin (vial 291) MSMS.d" "computed mass accuracy=2.6394637811908925" "computed mass error=7.524520000288248E-4" "SPLASH=splash10-000i-0090000000-0e910cfc6d99a17b66ad" "submitter=Aiko Barsch (Bruker)" "MoNA Rating=4.583333333333334"
Num Peaks: 27
108.0216 0.100100
136.0173 0.400400
151.0043 1.401401
164.0124 4.704705
165.0158 0.300300
175.0765 0.300300
177.0206 0.100100
196.0020 1.401401
197.0057 0.100100
199.0758 0.200200
201.0550 0.100100
217.0870 0.300300
225.0555 0.100100
226.0638 0.300300
227.0350 0.100100
228.0434 0.200200
241.0868 0.700701
242.0915 0.100100
243.0668 5.705706
244.0703 0.600601
257.0821 0.200200
269.0468 0.100100
270.0536 4.104104
271.0572 0.600601
285.0776 100.000000
286.0810 10.710711
287.0823 1.001001


Name: Isosakuranetin
Synon: $:00in-source
DB#: MetaboBASE0554
InChIKey: HMUJXQRRKBLVOO-AWEZNQCLSA-N
Instrument_type: LC-ESI-TOF
Instrument: impact HD
Ion_mode: N
Formula: C16H14O5
MW: 286
ExactMass: 286.084123548
Comments: "cas number=480-43-3" "SMILES=COc1ccc(cc1)[C@@H]2CC(=O)c3c(cc(cc3O2)O)O" "InChI=InChI=1S/C16H14O5/c1-20-11-4-2-9(3-5-11)14-8-13(19)16-12(18)6-10(17)7-15(16)21-14/h2-7,14,17-18H,8H2,1H3/t14-/m0/s1" "computed SMILES=O=C1C=2C(O)=CC(O)=CC2OC(C3=CC=C(OC)C=C3)C1" "computed InChI=InChI=1S/C16H14O5/c1-20-11-4-2-9(3-5-11)14-8-13(19)16-12(18)6-10(17)7-15(16)21-14/h2-7,14,17-18H,8H2,1H3" "license=License CC-BY-NC-SA 4.0 International" "author=Plant Biology, The Noble Foundation, Ardmore, OK, US/Dennis Fine, Daniel Wherritt, and Lloyd Sumner" "ionization=ESI" "collision gas=Nitrogen" "peak width=0.016" "date=2013-11-24 01:11:01+01:00" "column=Waters Acquity BEH C18 1.7um x 2.1 x 150 mm" "retention time=838.2" "raw data file=C:\Data\Confirmed Standards\Confirmed stds MSMS 22Nov13\Isosakuranetin (vial 291) MSMS.d" "SPLASH=splash10-000i-0090000000-21fdbc76b9e4cd3f8755" "submitter=Aiko Barsch (Bruker)" "MoNA Rating=3.888888888888889"
Num Peaks: 12
285.0457 0.100100
285.0782 100.000000
286.0809 19.719720
287.0833 1.801802
288.0861 0.200200
321.0545 0.200200
353.0644 0.600601
354.0688 0.100100
571.1628 4.204204
572.1653 1.301301
573.1675 0.200200
593.1471 0.200200


Name: Isosakuranetin
Synon: $:00in-source
DB#: MetaboBASE0555
InChIKey: HMUJXQRRKBLVOO-AWEZNQCLSA-N
Precursor_type: [M-H]-
Spectrum_type: MS2
PrecursorMZ: 285.0775
Instrument_type: LC-ESI-TOF
Instrument: impact HD
Ion_mode: N
Collision_energy: 30
Formula: C16H14O5
MW: 286
ExactMass: 286.084123548
Comments: "cas number=480-43-3" "SMILES=COc1ccc(cc1)[C@@H]2CC(=O)c3c(cc(cc3O2)O)O" "InChI=InChI=1S/C16H14O5/c1-20-11-4-2-9(3-5-11)14-8-13(19)16-12(18)6-10(17)7-15(16)21-14/h2-7,14,17-18H,8H2,1H3/t14-/m0/s1" "computed SMILES=O=C1C=2C(O)=CC(O)=CC2OC(C3=CC=C(OC)C=C3)C1" "computed InChI=InChI=1S/C16H14O5/c1-20-11-4-2-9(3-5-11)14-8-13(19)16-12(18)6-10(17)7-15(16)21-14/h2-7,14,17-18H,8H2,1H3" "license=License CC-BY-NC-SA 4.0 International" "author=Plant Biology, The Noble Foundation, Ardmore, OK, US/Dennis Fine, Daniel Wherritt, and Lloyd Sumner" "ionization=ESI" "isolation width=5" "collision gas=Nitrogen" "peak width=0.016" "date=2013-11-24 01:11:01+01:00" "column=Waters Acquity BEH C18 1.7um x 2.1 x 150 mm" "retention time=838.2" "raw data file=C:\Data\Confirmed Standards\Confirmed stds MSMS 22Nov13\Isosakuranetin (vial 291) MSMS.d" "computed mass accuracy=2.2886829020076416" "computed mass error=6.524519999970835E-4" "SPLASH=splash10-03dr-0940000000-0c0252ae639ca43fe84f" "submitter=Aiko Barsch (Bruker)" "MoNA Rating=4.583333333333334"
Num Peaks: 73
107.0144 6.306306
108.0220 11.711712
109.0268 1.101101
119.0502 0.600601
120.0225 0.800801
122.0024 0.800801
123.0089 3.603604
124.0173 2.702703
125.0237 0.900901
132.0575 0.800801
133.0312 0.500501
134.0379 0.600601
136.0173 35.735736
137.0213 2.802803
145.0297 0.700701
149.0264 0.500501
151.0043 38.838839
152.0073 2.702703
153.0082 0.900901
156.0588 0.800801
158.0361 0.600601
159.0458 1.701702
160.0531 1.401401
161.0558 0.500501
164.0125 100.000000
165.0159 7.707708
166.0167 0.700701
169.0149 0.500501
171.0453 0.600601
172.0539 0.500501
175.0772 8.608609
176.0793 0.600601
177.0201 2.702703
178.0225 0.700701
183.0466 0.900901
184.0540 1.301301
186.0333 3.703704
187.0406 2.402402
196.0021 30.230230
197.0052 1.701702
197.0624 0.500501
198.0083 0.700701
198.0683 2.602603
199.0773 3.103103
200.0484 1.901902
200.0818 0.700701
201.0564 4.904905
202.0645 1.601602
215.0731 2.802803
216.0753 0.500501
217.0868 2.902903
223.0772 0.600601
225.0554 2.002002
226.0638 3.903904
227.0349 4.604605
227.0703 0.500501
228.0428 6.406406
229.0472 1.001001
241.0495 0.800801
241.0875 3.703704
242.0581 2.002002
242.0941 0.500501
243.0669 32.832833
244.0708 3.203203
245.0734 0.500501
252.0443 0.500501
257.0828 1.901902
269.0459 1.901902
270.0538 11.411411
271.0562 1.801802
285.0775 47.747748
286.0803 8.208208
287.0838 1.001001


Name: Isosakuranetin
Synon: $:00in-source
DB#: MetaboBASE0556
InChIKey: HMUJXQRRKBLVOO-AWEZNQCLSA-N
Precursor_type: [M-H]-
Spectrum_type: MS2
PrecursorMZ: 285.0779
Instrument_type: LC-ESI-TOF
Instrument: impact HD
Ion_mode: N
Collision_energy: 10
Formula: C16H14O5
MW: 286
ExactMass: 286.084123548
Comments: "cas number=480-43-3" "SMILES=COc1ccc(cc1)[C@@H]2CC(=O)c3c(cc(cc3O2)O)O" "InChI=InChI=1S/C16H14O5/c1-20-11-4-2-9(3-5-11)14-8-13(19)16-12(18)6-10(17)7-15(16)21-14/h2-7,14,17-18H,8H2,1H3/t14-/m0/s1" "computed SMILES=O=C1C=2C(O)=CC(O)=CC2OC(C3=CC=C(OC)C=C3)C1" "computed InChI=InChI=1S/C16H14O5/c1-20-11-4-2-9(3-5-11)14-8-13(19)16-12(18)6-10(17)7-15(16)21-14/h2-7,14,17-18H,8H2,1H3" "license=License CC-BY-NC-SA 4.0 International" "author=Plant Biology, The Noble Foundation, Ardmore, OK, US/Dennis Fine, Daniel Wherritt, and Lloyd Sumner" "ionization=ESI" "isolation width=5" "collision gas=Nitrogen" "peak width=0.011" "date=2013-11-24 01:11:01+01:00" "column=Waters Acquity BEH C18 1.7um x 2.1 x 150 mm" "retention time=838.2" "raw data file=C:\Data\Confirmed Standards\Confirmed stds MSMS 22Nov13\Isosakuranetin (vial 291) MSMS.d" "computed mass accuracy=3.6918049417733263" "computed mass error=0.001052452000010362" "SPLASH=splash10-000i-0090000000-785674d6bf94ae089323" "submitter=Aiko Barsch (Bruker)" "MoNA Rating=4.583333333333334"
Num Peaks: 6
243.0664 0.200200
270.0546 0.100100
285.0493 0.100100
285.0779 100.000000
286.0808 12.712713
287.0827 1.301301


Name: Isosakuranetin
Synon: $:00in-source
DB#: MetaboBASE0557
InChIKey: HMUJXQRRKBLVOO-AWEZNQCLSA-N
Instrument_type: LC-ESI-TOF
Instrument: impact HD
Ion_mode: N
Collision_energy: 10
Formula: C16H14O5
MW: 286
ExactMass: 286.084123548
Comments: "cas number=480-43-3" "SMILES=COc1ccc(cc1)[C@@H]2CC(=O)c3c(cc(cc3O2)O)O" "InChI=InChI=1S/C16H14O5/c1-20-11-4-2-9(3-5-11)14-8-13(19)16-12(18)6-10(17)7-15(16)21-14/h2-7,14,17-18H,8H2,1H3/t14-/m0/s1" "computed SMILES=O=C1C=2C(O)=CC(O)=CC2OC(C3=CC=C(OC)C=C3)C1" "computed InChI=InChI=1S/C16H14O5/c1-20-11-4-2-9(3-5-11)14-8-13(19)16-12(18)6-10(17)7-15(16)21-14/h2-7,14,17-18H,8H2,1H3" "license=License CC-BY-NC-SA 4.0 International" "author=Plant Biology, The Noble Foundation, Ardmore, OK, US/Dennis Fine, Daniel Wherritt, and Lloyd Sumner" "ionization=ESI" "collision gas=Nitrogen" "peak width=0.017" "date=2013-11-22 00:43:47+01:00" "column=Waters Acquity BEH C18 1.7um x 2.1 x 150 mm" "retention time=841.8" "raw data file=C:\Data\Confirmed Standards\Confirmed Stds 21Nov13\Isosakuranetin (vial 291) dil.d" "SPLASH=splash10-000i-0090000000-6b480121a203275eec5c" "submitter=Aiko Barsch (Bruker)" "MoNA Rating=4.444444444444445"
Num Peaks: 3
285.0760 100.000000
286.0786 20.420420
287.0807 2.002002


Name: Isosakuranetin
Synon: $:00in-source
DB#: MetaboBASE0558
InChIKey: HMUJXQRRKBLVOO-AWEZNQCLSA-N
Precursor_type: [M-H]-
Spectrum_type: MS2
PrecursorMZ: 285
Instrument_type: LC-ESI-TOF
Instrument: impact HD
Ion_mode: N
Collision_energy: 50
Formula: C16H14O5
MW: 286
ExactMass: 286.084123548
Comments: "cas number=480-43-3" "SMILES=COc1ccc(cc1)[C@@H]2CC(=O)c3c(cc(cc3O2)O)O" "InChI=InChI=1S/C16H14O5/c1-20-11-4-2-9(3-5-11)14-8-13(19)16-12(18)6-10(17)7-15(16)21-14/h2-7,14,17-18H,8H2,1H3/t14-/m0/s1" "computed SMILES=O=C1C=2C(O)=CC(O)=CC2OC(C3=CC=C(OC)C=C3)C1" "computed InChI=InChI=1S/C16H14O5/c1-20-11-4-2-9(3-5-11)14-8-13(19)16-12(18)6-10(17)7-15(16)21-14/h2-7,14,17-18H,8H2,1H3" "license=License CC-BY-NC-SA 4.0 International" "author=Plant Biology, The Noble Foundation, Ardmore, OK, US/Dennis Fine, Daniel Wherritt, and Lloyd Sumner" "ionization=ESI" "isolation width=5" "collision gas=Nitrogen" "peak width=0.018" "date=2013-11-24 01:11:01+01:00" "column=Waters Acquity BEH C18 1.7um x 2.1 x 150 mm" "retention time=838.2" "raw data file=C:\Data\Confirmed Standards\Confirmed stds MSMS 22Nov13\Isosakuranetin (vial 291) MSMS.d" "computed mass accuracy=269.640519298208" "computed mass error=-0.07684754799998927" "SPLASH=splash10-0a4i-0900000000-f896370800d2b1338680" "submitter=Aiko Barsch (Bruker)" "MoNA Rating=4.166666666666666"
Num Peaks: 22
107.0146 10.010010
108.0222 100.000000
109.0259 6.906907
116.0281 6.406406
117.0352 22.422422
119.0505 20.920921
123.0100 7.307307
124.0176 5.605606
130.0417 5.405405
136.0176 47.947948
151.0043 12.212212
156.0581 5.805806
159.0450 27.027027
164.0120 7.007007
183.0478 8.708709
185.0256 5.805806
186.0331 9.809810
187.0402 5.605606
199.0409 9.009009
200.0473 5.705706
225.0565 5.505506
227.0352 19.119119


Name: Isosakuranetin
Synon: $:00in-source
DB#: MetaboBASE0559
InChIKey: HMUJXQRRKBLVOO-AWEZNQCLSA-N
Precursor_type: [M-H]-
Spectrum_type: MS2
PrecursorMZ: 285
Instrument_type: LC-ESI-TOF
Instrument: impact HD
Ion_mode: N
Collision_energy: 40
Formula: C16H14O5
MW: 286
ExactMass: 286.084123548
Comments: "cas number=480-43-3" "SMILES=COc1ccc(cc1)[C@@H]2CC(=O)c3c(cc(cc3O2)O)O" "InChI=InChI=1S/C16H14O5/c1-20-11-4-2-9(3-5-11)14-8-13(19)16-12(18)6-10(17)7-15(16)21-14/h2-7,14,17-18H,8H2,1H3/t14-/m0/s1" "computed SMILES=O=C1C=2C(O)=CC(O)=CC2OC(C3=CC=C(OC)C=C3)C1" "computed InChI=InChI=1S/C16H14O5/c1-20-11-4-2-9(3-5-11)14-8-13(19)16-12(18)6-10(17)7-15(16)21-14/h2-7,14,17-18H,8H2,1H3" "license=License CC-BY-NC-SA 4.0 International" "author=Plant Biology, The Noble Foundation, Ardmore, OK, US/Dennis Fine, Daniel Wherritt, and Lloyd Sumner" "ionization=ESI" "isolation width=5" "collision gas=Nitrogen" "peak width=0.016" "date=2013-11-24 01:11:01+01:00" "column=Waters Acquity BEH C18 1.7um x 2.1 x 150 mm" "retention time=838.2" "raw data file=C:\Data\Confirmed Standards\Confirmed stds MSMS 22Nov13\Isosakuranetin (vial 291) MSMS.d" "computed mass accuracy=269.640519298208" "computed mass error=-0.07684754799998927" "SPLASH=splash10-0a4r-0910000000-96aedfe6b6e0bdb90d27" "submitter=Aiko Barsch (Bruker)" "MoNA Rating=4.166666666666666"
Num Peaks: 47
107.0141 12.812813
108.0220 96.496496
109.0253 6.706707
117.0355 6.406406
119.0503 10.210210
121.0305 2.402402
122.0010 2.202202
123.0094 18.618619
124.0170 8.208208
130.0425 3.703704
132.0230 2.202202
132.0601 3.603604
136.0172 100.000000
137.0219 6.206206
143.0498 2.202202
145.0308 7.207207
151.0042 46.146146
152.0081 3.703704
156.0583 5.605606
157.0556 2.502503
158.0370 3.803804
159.0461 17.117117
160.0520 6.006006
164.0124 62.262262
165.0150 4.104104
175.0776 10.110110
177.0197 6.706707
183.0457 5.105105
184.0537 3.303303
185.0268 2.502503
185.0578 2.202202
186.0331 16.116116
187.0403 4.504505
188.0448 2.202202
196.0019 18.118118
198.0690 4.904905
199.0401 5.305305
200.0485 10.910911
201.0566 4.904905
215.0733 4.504505
217.0896 2.302302
225.0565 4.004004
226.0637 2.902903
227.0350 14.814815
228.0434 8.508509
243.0650 7.207207
269.0447 2.202202


Name: Kaempferol-3,7,4'-trimethyl ether
Synon: $:00in-source
DB#: MetaboBASE0560
InChIKey: WSQWAMGRHJQANC-UHFFFAOYSA-N
Instrument_type: LC-ESI-TOF
Instrument: impact HD
Ion_mode: N
Collision_energy: 10
Formula: C18H16O6
MW: 328
ExactMass: 328.09468823199995
Comments: "cas number=15486-34-7" "SMILES=COc1ccc(cc1)c2c(c(=O)c3c(cc(cc3o2)OC)O)OC" "InChI=InChI=1S/C18H16O6/c1-21-11-6-4-10(5-7-11)17-18(23-3)16(20)15-13(19)8-12(22-2)9-14(15)24-17/h4-9,19H,1-3H3" "computed SMILES=O=C1C(OC)=C(OC=2C=C(OC)C=C(O)C12)C=3C=CC(OC)=CC3" "license=License CC-BY-NC-SA 4.0 International" "author=Plant Biology, The Noble Foundation, Ardmore, OK, US/Dennis Fine, Daniel Wherritt, and Lloyd Sumner" "ionization=ESI" "collision gas=Nitrogen" "peak width=0.015" "date=2013-11-21 20:01:53+01:00" "column=Waters Acquity BEH C18 1.7um x 2.1 x 150 mm" "retention time=1224.6" "raw data file=C:\Data\Confirmed Standards\Confirmed Stds 21Nov13\Kaempferol374'trimethyle 3 uL.d" "SPLASH=splash10-004i-2009008000-c0ecc35af6fac75ef63b" "submitter=Aiko Barsch (Bruker)" "MoNA Rating=4.444444444444445"
Num Peaks: 43
112.9853 1.001001
116.9286 3.103103
128.0098 2.102102
269.0462 8.508509
270.0496 1.201201
284.0698 2.102102
312.0649 4.104104
315.2552 1.301301
327.0882 100.000000
328.0915 15.815816
329.0934 2.602603
395.0746 13.413413
396.0777 2.802803
457.0457 3.003003
557.0044 1.401401
655.1857 4.204204
656.1878 1.601602
661.1920 5.305305
662.1948 2.002002
677.1671 92.892893
678.1699 31.231231
679.1714 6.006006
680.1732 1.201201
739.1367 2.802803
740.1427 1.101101
745.1550 3.303303
746.1580 1.201201
983.2820 1.301301
1005.2593 1.201201
1021.2289 7.707708
1022.2346 3.803804
1023.2331 1.801802
1027.2465 7.407407
1028.2496 3.803804
1029.2574 1.301301
1039.2019 2.402402
1040.2053 1.301301
1041.1997 1.201201
1095.2306 1.101101
1371.3149 1.101101
1377.3254 1.501502
1378.3341 1.101101
1389.2872 1.201201


Name: Sakuranetin
Synon: $:00in-source
DB#: MetaboBASE0561
InChIKey: DJOJDHGQRNZXQQ-UHFFFAOYSA-N
Precursor_type: [M-H]-
Spectrum_type: MS2
PrecursorMZ: 285
Instrument_type: LC-ESI-TOF
Instrument: impact HD
Ion_mode: N
Collision_energy: 30
Formula: C16H14O5
MW: 286
ExactMass: 286.084123548
Comments: "cas number=2957-21-3" "SMILES=COc1cc(c2c(c1)OC(CC2=O)c3ccc(cc3)O)O" "InChI=InChI=1S/C16H14O5/c1-20-11-6-12(18)16-13(19)8-14(21-15(16)7-11)9-2-4-10(17)5-3-9/h2-7,14,17-18H,8H2,1H3" "computed SMILES=O=C1C=2C(O)=CC(OC)=CC2OC(C3=CC=C(O)C=C3)C1" "license=License CC-BY-NC-SA 4.0 International" "author=Plant Biology, The Noble Foundation, Ardmore, OK, US/Dennis Fine, Daniel Wherritt, and Lloyd Sumner" "ionization=ESI" "isolation width=5" "collision gas=Nitrogen" "peak width=0.013" "date=2013-11-24 01:51:45+01:00" "column=Waters Acquity BEH C18 1.7um x 2.1 x 150 mm" "retention time=837" "raw data file=C:\Data\Confirmed Standards\Confirmed stds MSMS 22Nov13\Sakuranetin (vial 292) MSMS.d" "computed mass accuracy=269.640519298208" "computed mass error=-0.07684754799998927" "SPLASH=splash10-014i-0900000000-00444bc044647f8197d3" "submitter=Aiko Barsch (Bruker)" "MoNA Rating=4.166666666666666"
Num Peaks: 8
117.0347 0.500501
119.0507 100.000000
120.0540 5.605606
121.0299 2.302302
149.9962 3.603604
164.0128 0.900901
165.0200 14.814815
166.0232 1.001001


Name: Sakuranetin
Synon: $:00in-source
DB#: MetaboBASE0562
InChIKey: DJOJDHGQRNZXQQ-UHFFFAOYSA-N
Precursor_type: [M-H]-
Spectrum_type: MS2
PrecursorMZ: 285.0774
Instrument_type: LC-ESI-TOF
Instrument: impact HD
Ion_mode: N
Collision_energy: 10
Formula: C16H14O5
MW: 286
ExactMass: 286.084123548
Comments: "cas number=2957-21-3" "SMILES=COc1cc(c2c(c1)OC(CC2=O)c3ccc(cc3)O)O" "InChI=InChI=1S/C16H14O5/c1-20-11-6-12(18)16-13(19)8-14(21-15(16)7-11)9-2-4-10(17)5-3-9/h2-7,14,17-18H,8H2,1H3" "computed SMILES=O=C1C=2C(O)=CC(OC)=CC2OC(C3=CC=C(O)C=C3)C1" "license=License CC-BY-NC-SA 4.0 International" "author=Plant Biology, The Noble Foundation, Ardmore, OK, US/Dennis Fine, Daniel Wherritt, and Lloyd Sumner" "ionization=ESI" "isolation width=5" "collision gas=Nitrogen" "peak width=0.0098" "date=2013-11-24 01:51:45+01:00" "column=Waters Acquity BEH C18 1.7um x 2.1 x 150 mm" "retention time=837" "raw data file=C:\Data\Confirmed Standards\Confirmed stds MSMS 22Nov13\Sakuranetin (vial 292) MSMS.d" "computed mass accuracy=1.9379017769286007" "computed mass error=5.524520000221855E-4" "SPLASH=splash10-000i-0090000000-b09e2e82b4900ca90690" "submitter=Aiko Barsch (Bruker)" "MoNA Rating=4.583333333333334"
Num Peaks: 7
119.0506 0.900901
165.0199 3.803804
166.0233 0.200200
191.0343 0.200200
285.0774 100.000000
286.0804 11.311311
287.0823 1.101101


Name: Sakuranetin
Synon: $:00in-source
DB#: MetaboBASE0563
InChIKey: DJOJDHGQRNZXQQ-UHFFFAOYSA-N
Precursor_type: [M-H]-
Spectrum_type: MS2
PrecursorMZ: 285.0768
Instrument_type: LC-ESI-TOF
Instrument: impact HD
Ion_mode: N
Collision_energy: 20
Formula: C16H14O5
MW: 286
ExactMass: 286.084123548
Comments: "cas number=2957-21-3" "SMILES=COc1cc(c2c(c1)OC(CC2=O)c3ccc(cc3)O)O" "InChI=InChI=1S/C16H14O5/c1-20-11-6-12(18)16-13(19)8-14(21-15(16)7-11)9-2-4-10(17)5-3-9/h2-7,14,17-18H,8H2,1H3" "computed SMILES=O=C1C=2C(O)=CC(OC)=CC2OC(C3=CC=C(O)C=C3)C1" "license=License CC-BY-NC-SA 4.0 International" "author=Plant Biology, The Noble Foundation, Ardmore, OK, US/Dennis Fine, Daniel Wherritt, and Lloyd Sumner" "ionization=ESI" "isolation width=5" "collision gas=Nitrogen" "peak width=0.015" "date=2013-11-24 01:51:45+01:00" "column=Waters Acquity BEH C18 1.7um x 2.1 x 150 mm" "retention time=837" "raw data file=C:\Data\Confirmed Standards\Confirmed stds MSMS 22Nov13\Sakuranetin (vial 292) MSMS.d" "computed mass accuracy=0.16679014215724466" "computed mass error=-4.7547999997732404E-5" "SPLASH=splash10-014i-0910000000-a98cffa7a8dab691512c" "submitter=Aiko Barsch (Bruker)" "MoNA Rating=4.615384615384616"
Num Peaks: 11
119.0506 98.998999
120.0541 5.805806
121.0298 1.601602
145.0293 1.101101
149.9959 1.501502
165.0202 100.000000
166.0233 6.606607
179.0344 0.900901
191.0358 1.201201
285.0768 22.022022
286.0803 2.902903


Name: Sakuranetin
Synon: $:00in-source
DB#: MetaboBASE0564
InChIKey: DJOJDHGQRNZXQQ-UHFFFAOYSA-N
Precursor_type: [M-H]-
Spectrum_type: MS2
PrecursorMZ: 285
Instrument_type: LC-ESI-TOF
Instrument: impact HD
Ion_mode: N
Collision_energy: 40
Formula: C16H14O5
MW: 286
ExactMass: 286.084123548
Comments: "cas number=2957-21-3" "SMILES=COc1cc(c2c(c1)OC(CC2=O)c3ccc(cc3)O)O" "InChI=InChI=1S/C16H14O5/c1-20-11-6-12(18)16-13(19)8-14(21-15(16)7-11)9-2-4-10(17)5-3-9/h2-7,14,17-18H,8H2,1H3" "computed SMILES=O=C1C=2C(O)=CC(OC)=CC2OC(C3=CC=C(O)C=C3)C1" "license=License CC-BY-NC-SA 4.0 International" "author=Plant Biology, The Noble Foundation, Ardmore, OK, US/Dennis Fine, Daniel Wherritt, and Lloyd Sumner" "ionization=ESI" "isolation width=5" "collision gas=Nitrogen" "peak width=0.014" "date=2013-11-24 01:51:45+01:00" "column=Waters Acquity BEH C18 1.7um x 2.1 x 150 mm" "retention time=837" "raw data file=C:\Data\Confirmed Standards\Confirmed stds MSMS 22Nov13\Sakuranetin (vial 292) MSMS.d" "computed mass accuracy=269.640519298208" "computed mass error=-0.07684754799998927" "SPLASH=splash10-014i-0900000000-7535b8883dd8a23b0d03" "submitter=Aiko Barsch (Bruker)" "MoNA Rating=4.166666666666666"
Num Peaks: 20
108.0205 0.400400
117.0351 1.201201
118.0390 0.200200
119.0507 100.000000
120.0540 6.506507
121.0301 1.701702
121.0567 0.300300
122.0022 0.300300
124.0174 0.200200
136.0175 0.300300
145.0313 0.200200
148.0173 0.200200
149.9963 2.502503
151.0012 0.100100
164.0108 0.300300
165.0199 2.202202
166.0239 0.200200
180.0585 0.200200
252.0398 0.200200
269.0461 0.200200


Name: Sakuranetin
Synon: $:00in-source
DB#: MetaboBASE0565
InChIKey: DJOJDHGQRNZXQQ-UHFFFAOYSA-N
Instrument_type: LC-ESI-TOF
Instrument: impact HD
Ion_mode: N
Formula: C16H14O5
MW: 286
ExactMass: 286.084123548
Comments: "cas number=2957-21-3" "SMILES=COc1cc(c2c(c1)OC(CC2=O)c3ccc(cc3)O)O" "InChI=InChI=1S/C16H14O5/c1-20-11-6-12(18)16-13(19)8-14(21-15(16)7-11)9-2-4-10(17)5-3-9/h2-7,14,17-18H,8H2,1H3" "computed SMILES=O=C1C=2C(O)=CC(OC)=CC2OC(C3=CC=C(O)C=C3)C1" "license=License CC-BY-NC-SA 4.0 International" "author=Plant Biology, The Noble Foundation, Ardmore, OK, US/Dennis Fine, Daniel Wherritt, and Lloyd Sumner" "ionization=ESI" "collision gas=Nitrogen" "peak width=0.015" "date=2013-11-24 01:51:45+01:00" "column=Waters Acquity BEH C18 1.7um x 2.1 x 150 mm" "retention time=837" "raw data file=C:\Data\Confirmed Standards\Confirmed stds MSMS 22Nov13\Sakuranetin (vial 292) MSMS.d" "SPLASH=splash10-000i-0090000000-8b78f2568eb290f48f16" "submitter=Aiko Barsch (Bruker)" "MoNA Rating=3.888888888888889"
Num Peaks: 12
165.0200 0.200200
285.0780 100.000000
286.0805 24.724725
287.0828 2.202202
288.0854 0.200200
321.0535 0.300300
331.0822 0.200200
571.1632 1.701702
572.1664 0.500501
573.1667 0.100100
593.1453 0.300300
901.2062 0.100100


Name: Sakuranetin
Synon: $:00in-source
DB#: MetaboBASE0566
InChIKey: DJOJDHGQRNZXQQ-UHFFFAOYSA-N
Instrument_type: LC-ESI-TOF
Instrument: impact HD
Ion_mode: N
Collision_energy: 10
Formula: C16H14O5
MW: 286
ExactMass: 286.084123548
Comments: "cas number=2957-21-3" "SMILES=COc1cc(c2c(c1)OC(CC2=O)c3ccc(cc3)O)O" "InChI=InChI=1S/C16H14O5/c1-20-11-6-12(18)16-13(19)8-14(21-15(16)7-11)9-2-4-10(17)5-3-9/h2-7,14,17-18H,8H2,1H3" "computed SMILES=O=C1C=2C(O)=CC(OC)=CC2OC(C3=CC=C(O)C=C3)C1" "license=License CC-BY-NC-SA 4.0 International" "author=Plant Biology, The Noble Foundation, Ardmore, OK, US/Dennis Fine, Daniel Wherritt, and Lloyd Sumner" "ionization=ESI" "collision gas=Nitrogen" "peak width=0.014" "date=2013-11-22 01:24:30+01:00" "column=Waters Acquity BEH C18 1.7um x 2.1 x 150 mm" "retention time=837" "raw data file=C:\Data\Confirmed Standards\Confirmed Stds 21Nov13\Sakuranetin (vial 292) dil.d" "SPLASH=splash10-000i-0090000000-a1ced9ba4246f19b5424" "submitter=Aiko Barsch (Bruker)" "MoNA Rating=4.444444444444445"
Num Peaks: 5
165.0188 5.905906
285.0794 100.000000
286.0823 15.915916
287.0843 1.601602
571.1616 1.201201


Name: Scutellarein-7-glucuronide
Synon: $:00in-source
DB#: MetaboBASE0567
InChIKey: DJOJDHGQRNZXQQ-AWEZNQCLSA-N
Precursor_type: [M-H]-
Spectrum_type: MS2
PrecursorMZ: 461
Instrument_type: LC-ESI-TOF
Instrument: impact HD
Ion_mode: N
Collision_energy: 20
Formula: C21H18O12
MW: 462
ExactMass: 462.07982601599997
Comments: "cas number=2957-21-3" "SMILES=COc1cc(c2c(c1)O[C@@H](CC2=O)c3ccc(cc3)O)O" "InChI=InChI=1S/C16H14O5/c1-20-11-6-12(18)16-13(19)8-14(21-15(16)7-11)9-2-4-10(17)5-3-9/h2-7,14,17-18H,8H2,1H3/t14-/m0/s1" "computed SMILES=O=C(O)C1OC(OC=2C=C3OC(=CC(=O)C3=C(O)C2O)C=4C=CC(O)=CC4)C(O)C(O)C1O" "computed InChI=InChI=1S/C21H18O12/c22-8-3-1-7(2-4-8)10-5-9(23)13-11(31-10)6-12(14(24)15(13)25)32-21-18(28)16(26)17(27)19(33-21)20(29)30/h1-6,16-19,21-22,24-28H,(H,29,30)/t16-,17-,18+,19-,21+/m0/s1" "license=License CC-BY-NC-SA 4.0 International" "author=Plant Biology, The Noble Foundation, Ardmore, OK, US/Dennis Fine, Daniel Wherritt, and Lloyd Sumner" "ionization=ESI" "isolation width=5" "collision gas=Nitrogen" "peak width=0.012" "date=2013-11-23 23:49:30+01:00" "column=Waters Acquity BEH C18 1.7um x 2.1 x 150 mm" "retention time=301.8" "raw data file=C:\Data\Confirmed Standards\Confirmed stds MSMS 22Nov13\Scutellarein7glucuronide  MSMS.d" "computed mass accuracy=157.37530585678888" "computed mass error=-0.07255001599997968" "SPLASH=splash10-001r-0090000000-49587f0add16cb052c45" "submitter=Aiko Barsch (Bruker)" "MoNA Rating=4.166666666666666"
Num Peaks: 6
113.0248 10.210210
283.0236 100.000000
284.0293 28.928929
285.0400 78.178178
286.0403 15.115115
287.0487 8.108108


Name: Scutellarein-7-glucuronide
Synon: $:00in-source
DB#: MetaboBASE0568
InChIKey: DJOJDHGQRNZXQQ-AWEZNQCLSA-N
Precursor_type: [M-H]-
Spectrum_type: MS2
PrecursorMZ: 461
Instrument_type: LC-ESI-TOF
Instrument: impact HD
Ion_mode: N
Collision_energy: 40
Formula: C21H18O12
MW: 462
ExactMass: 462.07982601599997
Comments: "cas number=2957-21-3" "SMILES=COc1cc(c2c(c1)O[C@@H](CC2=O)c3ccc(cc3)O)O" "InChI=InChI=1S/C16H14O5/c1-20-11-6-12(18)16-13(19)8-14(21-15(16)7-11)9-2-4-10(17)5-3-9/h2-7,14,17-18H,8H2,1H3/t14-/m0/s1" "computed SMILES=O=C(O)C1OC(OC=2C=C3OC(=CC(=O)C3=C(O)C2O)C=4C=CC(O)=CC4)C(O)C(O)C1O" "computed InChI=InChI=1S/C21H18O12/c22-8-3-1-7(2-4-8)10-5-9(23)13-11(31-10)6-12(14(24)15(13)25)32-21-18(28)16(26)17(27)19(33-21)20(29)30/h1-6,16-19,21-22,24-28H,(H,29,30)/t16-,17-,18+,19-,21+/m0/s1" "license=License CC-BY-NC-SA 4.0 International" "author=Plant Biology, The Noble Foundation, Ardmore, OK, US/Dennis Fine, Daniel Wherritt, and Lloyd Sumner" "ionization=ESI" "isolation width=5" "collision gas=Nitrogen" "peak width=0.017" "date=2013-11-23 23:49:30+01:00" "column=Waters Acquity BEH C18 1.7um x 2.1 x 150 mm" "retention time=301.8" "raw data file=C:\Data\Confirmed Standards\Confirmed stds MSMS 22Nov13\Scutellarein7glucuronide  MSMS.d" "computed mass accuracy=157.37530585678888" "computed mass error=-0.07255001599997968" "SPLASH=splash10-0a5i-0090000000-885e8c0348e5b1dc57a8" "submitter=Aiko Barsch (Bruker)" "MoNA Rating=4.166666666666666"
Num Peaks: 11
136.9886 10.710711
239.0315 9.309309
255.0300 100.000000
256.0336 25.025025
258.0448 10.210210
283.0241 53.653654
284.0314 18.318318
285.0416 87.987988
286.0413 9.809810
286.0469 9.409409
287.0379 8.908909


Name: Scutellarein-7-glucuronide
Synon: $:00in-source
DB#: MetaboBASE0569
InChIKey: DJOJDHGQRNZXQQ-AWEZNQCLSA-N
Instrument_type: LC-ESI-TOF
Instrument: impact HD
Ion_mode: N
Formula: C21H18O12
MW: 462
ExactMass: 462.07982601599997
Comments: "cas number=2957-21-3" "SMILES=COc1cc(c2c(c1)O[C@@H](CC2=O)c3ccc(cc3)O)O" "InChI=InChI=1S/C16H14O5/c1-20-11-6-12(18)16-13(19)8-14(21-15(16)7-11)9-2-4-10(17)5-3-9/h2-7,14,17-18H,8H2,1H3/t14-/m0/s1" "computed SMILES=O=C(O)C1OC(OC=2C=C3OC(=CC(=O)C3=C(O)C2O)C=4C=CC(O)=CC4)C(O)C(O)C1O" "computed InChI=InChI=1S/C21H18O12/c22-8-3-1-7(2-4-8)10-5-9(23)13-11(31-10)6-12(14(24)15(13)25)32-21-18(28)16(26)17(27)19(33-21)20(29)30/h1-6,16-19,21-22,24-28H,(H,29,30)/t16-,17-,18+,19-,21+/m0/s1" "license=License CC-BY-NC-SA 4.0 International" "author=Plant Biology, The Noble Foundation, Ardmore, OK, US/Dennis Fine, Daniel Wherritt, and Lloyd Sumner" "ionization=ESI" "collision gas=Nitrogen" "peak width=0.015" "date=2013-11-23 23:49:30+01:00" "column=Waters Acquity BEH C18 1.7um x 2.1 x 150 mm" "retention time=301.8" "raw data file=C:\Data\Confirmed Standards\Confirmed stds MSMS 22Nov13\Scutellarein7glucuronide  MSMS.d" "SPLASH=splash10-0a4i-0010900000-4cdc316401227b75afa8" "submitter=Aiko Barsch (Bruker)" "MoNA Rating=3.5"
Num Peaks: 15
283.0249 29.529530
284.0281 4.404404
459.0579 100.000000
460.0616 17.617618
461.0717 29.629630
462.0757 5.305305
477.0686 11.511512
478.0701 3.003003
483.0561 1.901902
499.0494 2.102102
527.0436 3.203203
921.1374 2.002002
937.1327 1.901902
939.1550 3.703704
955.1450 3.003003


Name: Scutellarein-7-glucuronide
Synon: $:00in-source
DB#: MetaboBASE0570
InChIKey: DJOJDHGQRNZXQQ-AWEZNQCLSA-N
Instrument_type: LC-ESI-TOF
Instrument: impact HD
Ion_mode: N
Collision_energy: 10
Formula: C21H18O12
MW: 462
ExactMass: 462.07982601599997
Comments: "cas number=2957-21-3" "SMILES=COc1cc(c2c(c1)O[C@@H](CC2=O)c3ccc(cc3)O)O" "InChI=InChI=1S/C16H14O5/c1-20-11-6-12(18)16-13(19)8-14(21-15(16)7-11)9-2-4-10(17)5-3-9/h2-7,14,17-18H,8H2,1H3/t14-/m0/s1" "computed SMILES=O=C(O)C1OC(OC=2C=C3OC(=CC(=O)C3=C(O)C2O)C=4C=CC(O)=CC4)C(O)C(O)C1O" "computed InChI=InChI=1S/C21H18O12/c22-8-3-1-7(2-4-8)10-5-9(23)13-11(31-10)6-12(14(24)15(13)25)32-21-18(28)16(26)17(27)19(33-21)20(29)30/h1-6,16-19,21-22,24-28H,(H,29,30)/t16-,17-,18+,19-,21+/m0/s1" "license=License CC-BY-NC-SA 4.0 International" "author=Plant Biology, The Noble Foundation, Ardmore, OK, US/Dennis Fine, Daniel Wherritt, and Lloyd Sumner" "ionization=ESI" "collision gas=Nitrogen" "peak width=0.016" "date=2013-11-21 23:22:16+01:00" "column=Waters Acquity BEH C18 1.7um x 2.1 x 150 mm" "retention time=301.8" "raw data file=C:\Data\Confirmed Standards\Confirmed Stds 21Nov13\Scutellarein7glucuronide dil.d" "SPLASH=splash10-001i-0090200001-1fed467f6f098908a2b6" "submitter=Aiko Barsch (Bruker)" "MoNA Rating=4.0"
Num Peaks: 24
175.0251 1.101101
255.0300 2.402402
283.0251 100.000000
284.0283 13.113113
285.0402 25.725726
286.0435 3.603604
301.0354 1.101101
459.0581 5.605606
460.0613 1.201201
461.0737 21.521522
462.0769 3.803804
481.0395 1.501502
483.0549 3.203203
499.0488 1.801802
556.0020 4.004004
921.1421 3.703704
922.1435 1.601602
923.1573 6.206206
924.1596 2.402402
937.1351 1.601602
939.1513 5.105105
940.1567 1.801802
943.1244 1.001001
955.1489 1.601602


Name: Scutellarein-7-glucuronide
Synon: $:00in-source
DB#: MetaboBASE0571
InChIKey: DJOJDHGQRNZXQQ-AWEZNQCLSA-N
Precursor_type: [M-H]-
Spectrum_type: MS2
PrecursorMZ: 461.0715
Instrument_type: LC-ESI-TOF
Instrument: impact HD
Ion_mode: N
Collision_energy: 10
Formula: C21H18O12
MW: 462
ExactMass: 462.07982601599997
Comments: "cas number=2957-21-3" "SMILES=COc1cc(c2c(c1)O[C@@H](CC2=O)c3ccc(cc3)O)O" "InChI=InChI=1S/C16H14O5/c1-20-11-6-12(18)16-13(19)8-14(21-15(16)7-11)9-2-4-10(17)5-3-9/h2-7,14,17-18H,8H2,1H3/t14-/m0/s1" "computed SMILES=O=C(O)C1OC(OC=2C=C3OC(=CC(=O)C3=C(O)C2O)C=4C=CC(O)=CC4)C(O)C(O)C1O" "computed InChI=InChI=1S/C21H18O12/c22-8-3-1-7(2-4-8)10-5-9(23)13-11(31-10)6-12(14(24)15(13)25)32-21-18(28)16(26)17(27)19(33-21)20(29)30/h1-6,16-19,21-22,24-28H,(H,29,30)/t16-,17-,18+,19-,21+/m0/s1" "license=License CC-BY-NC-SA 4.0 International" "author=Plant Biology, The Noble Foundation, Ardmore, OK, US/Dennis Fine, Daniel Wherritt, and Lloyd Sumner" "ionization=ESI" "isolation width=5" "collision gas=Nitrogen" "peak width=0.0096" "date=2013-11-23 23:49:30+01:00" "column=Waters Acquity BEH C18 1.7um x 2.1 x 150 mm" "retention time=301.8" "raw data file=C:\Data\Confirmed Standards\Confirmed stds MSMS 22Nov13\Scutellarein7glucuronide  MSMS.d" "computed mass accuracy=2.27733876408567" "computed mass error=-0.001050015999965126" "SPLASH=splash10-001i-0090300000-8b38f2a1b98430346665" "submitter=Aiko Barsch (Bruker)" "MoNA Rating=4.230769230769231"
Num Peaks: 6
283.0223 100.000000
284.0272 17.617618
285.0398 34.934935
459.0561 10.910911
460.0518 10.810811
461.0715 30.830831


Name: Scutellarein-7-glucuronide
Synon: $:00in-source
DB#: MetaboBASE0572
InChIKey: DJOJDHGQRNZXQQ-AWEZNQCLSA-N
Precursor_type: [M-H]-
Spectrum_type: MS2
PrecursorMZ: 461
Instrument_type: LC-ESI-TOF
Instrument: impact HD
Ion_mode: N
Collision_energy: 30
Formula: C21H18O12
MW: 462
ExactMass: 462.07982601599997
Comments: "cas number=2957-21-3" "SMILES=COc1cc(c2c(c1)O[C@@H](CC2=O)c3ccc(cc3)O)O" "InChI=InChI=1S/C16H14O5/c1-20-11-6-12(18)16-13(19)8-14(21-15(16)7-11)9-2-4-10(17)5-3-9/h2-7,14,17-18H,8H2,1H3/t14-/m0/s1" "computed SMILES=O=C(O)C1OC(OC=2C=C3OC(=CC(=O)C3=C(O)C2O)C=4C=CC(O)=CC4)C(O)C(O)C1O" "computed InChI=InChI=1S/C21H18O12/c22-8-3-1-7(2-4-8)10-5-9(23)13-11(31-10)6-12(14(24)15(13)25)32-21-18(28)16(26)17(27)19(33-21)20(29)30/h1-6,16-19,21-22,24-28H,(H,29,30)/t16-,17-,18+,19-,21+/m0/s1" "license=License CC-BY-NC-SA 4.0 International" "author=Plant Biology, The Noble Foundation, Ardmore, OK, US/Dennis Fine, Daniel Wherritt, and Lloyd Sumner" "ionization=ESI" "isolation width=5" "collision gas=Nitrogen" "peak width=0.016" "date=2013-11-23 23:49:30+01:00" "column=Waters Acquity BEH C18 1.7um x 2.1 x 150 mm" "retention time=301.8" "raw data file=C:\Data\Confirmed Standards\Confirmed stds MSMS 22Nov13\Scutellarein7glucuronide  MSMS.d" "computed mass accuracy=157.37530585678888" "computed mass error=-0.07255001599997968" "SPLASH=splash10-001r-0090000000-97fd63f9597d46d534ef" "submitter=Aiko Barsch (Bruker)" "MoNA Rating=4.166666666666666"
Num Peaks: 9
213.0562 4.904905
255.0293 29.529530
256.0303 5.405405
283.0247 100.000000
283.1043 7.307307
284.0266 22.622623
285.0402 70.070070
286.0420 14.814815
297.0588 5.305305


Name: 5,8-Dihydroxyflavanone
Synon: $:00in-source
DB#: MetaboBASE0573
InChIKey: JJRIYFGZKRETII-UHFFFAOYSA-N
Precursor_type: [M-H]-
Spectrum_type: MS2
PrecursorMZ: 255.0636
Instrument_type: LC-ESI-TOF
Instrument: impact HD
Ion_mode: N
Collision_energy: 20
Formula: C15H12O4
MW: 256
ExactMass: 256.073558864
Comments: "computed SMILES=O=C1C=2C(O)=CC=C(O)C2OC(C=3C=CC=CC3)C1" "computed InChI=InChI=1S/C15H12O4/c16-10-6-7-11(17)15-14(10)12(18)8-13(19-15)9-4-2-1-3-5-9/h1-7,13,16-17H,8H2" "license=License CC-BY-NC-SA 4.0 International" "author=Plant Biology, The Noble Foundation, Ardmore, OK, US/Dennis Fine, Daniel Wherritt, and Lloyd Sumner" "ionization=ESI" "isolation width=5" "collision gas=Nitrogen" "peak width=0.011" "date=2013-11-23 14:59:32+01:00" "column=Waters Acquity BEH C18 1.7um x 2.1 x 150 mm" "retention time=750" "raw data file=C:\Data\Confirmed Standards\Confirmed stds MSMS 22Nov13\5,8Dihydroxyflavanone  MSMS.d" "computed mass accuracy=10.518411878478984" "computed mass error=-0.002682864000007612" "SPLASH=splash10-0a4i-0090000000-03bd317b5b648eec9fff" "submitter=Aiko Barsch (Bruker)" "MoNA Rating=3.846153846153846"
Num Peaks: 2
227.0695 38.838839
255.0636 100.000000


Name: 5,8-Dihydroxyflavanone
Synon: $:00in-source
DB#: MetaboBASE0574
InChIKey: JJRIYFGZKRETII-UHFFFAOYSA-N
Instrument_type: LC-ESI-TOF
Instrument: impact HD
Ion_mode: N
Formula: C15H12O4
MW: 256
ExactMass: 256.073558864
Comments: "computed SMILES=O=C1C=2C(O)=CC=C(O)C2OC(C=3C=CC=CC3)C1" "computed InChI=InChI=1S/C15H12O4/c16-10-6-7-11(17)15-14(10)12(18)8-13(19-15)9-4-2-1-3-5-9/h1-7,13,16-17H,8H2" "license=License CC-BY-NC-SA 4.0 International" "author=Plant Biology, The Noble Foundation, Ardmore, OK, US/Dennis Fine, Daniel Wherritt, and Lloyd Sumner" "ionization=ESI" "collision gas=Nitrogen" "peak width=0.017" "date=2013-11-23 14:59:32+01:00" "column=Waters Acquity BEH C18 1.7um x 2.1 x 150 mm" "retention time=750" "raw data file=C:\Data\Confirmed Standards\Confirmed stds MSMS 22Nov13\5,8Dihydroxyflavanone  MSMS.d" "SPLASH=splash10-0zfr-0190000000-806d108d098fcf94a868" "submitter=Aiko Barsch (Bruker)" "MoNA Rating=3.888888888888889"
Num Peaks: 11
112.9855 18.018018
174.9561 12.812813
235.9261 15.215215
242.9435 17.517518
248.9603 16.216216
253.0507 100.000000
254.0549 15.315315
255.0666 76.976977
256.0698 11.211211
666.0223 13.813814
1076.2064 10.010010


Name: 6-Hydroxyflavanone
Synon: $:00in-source
DB#: MetaboBASE0575
InChIKey: XYHWPQUEOOBIOW-UHFFFAOYSA-N
Instrument_type: LC-ESI-TOF
Instrument: impact HD
Ion_mode: N
Formula: C15H12O3
MW: 240
ExactMass: 240.07864424399997
Comments: "cas number=4250-77-5" "SMILES=c1ccc(cc1)C2CC(=O)c3cc(ccc3O2)O" "InChI=InChI=1S/C15H12O3/c16-11-6-7-14-12(8-11)13(17)9-15(18-14)10-4-2-1-3-5-10/h1-8,15-16H,9H2" "computed SMILES=O=C1C2=CC(O)=CC=C2OC(C=3C=CC=CC3)C1" "license=License CC-BY-NC-SA 4.0 International" "author=Plant Biology, The Noble Foundation, Ardmore, OK, US/Dennis Fine, Daniel Wherritt, and Lloyd Sumner" "ionization=ESI" "collision gas=Nitrogen" "peak width=0.011" "date=2013-11-23 13:38:02+01:00" "column=Waters Acquity BEH C18 1.7um x 2.1 x 150 mm" "retention time=781.2" "raw data file=C:\Data\Confirmed Standards\Confirmed stds MSMS 22Nov13\6-Hydroxyflavanone  MSMS.d" "SPLASH=splash10-000i-0090000000-e91a32775619d1e3fae2" "submitter=Aiko Barsch (Bruker)" "MoNA Rating=3.888888888888889"
Num Peaks: 6
239.0713 100.000000
240.0746 11.111111
241.0775 1.101101
479.1508 1.201201
666.0190 1.201201
1012.2128 1.201201


Name: 6-Hydroxyflavanone
Synon: $:00in-source
DB#: MetaboBASE0576
InChIKey: XYHWPQUEOOBIOW-UHFFFAOYSA-N
Precursor_type: [M-H]-
Spectrum_type: MS2
PrecursorMZ: 239.0693
Instrument_type: LC-ESI-TOF
Instrument: impact HD
Ion_mode: N
Collision_energy: 20
Formula: C15H12O3
MW: 240
ExactMass: 240.07864424399997
Comments: "cas number=4250-77-5" "SMILES=c1ccc(cc1)C2CC(=O)c3cc(ccc3O2)O" "InChI=InChI=1S/C15H12O3/c16-11-6-7-14-12(8-11)13(17)9-15(18-14)10-4-2-1-3-5-10/h1-8,15-16H,9H2" "computed SMILES=O=C1C2=CC(O)=CC=C2OC(C=3C=CC=CC3)C1" "license=License CC-BY-NC-SA 4.0 International" "author=Plant Biology, The Noble Foundation, Ardmore, OK, US/Dennis Fine, Daniel Wherritt, and Lloyd Sumner" "ionization=ESI" "isolation width=5" "collision gas=Nitrogen" "peak width=0.01" "date=2013-11-23 13:38:02+01:00" "column=Waters Acquity BEH C18 1.7um x 2.1 x 150 mm" "retention time=781.2" "raw data file=C:\Data\Confirmed Standards\Confirmed stds MSMS 22Nov13\6-Hydroxyflavanone  MSMS.d" "computed mass accuracy=8.651232090385308" "computed mass error=-0.0020682439999859525" "SPLASH=splash10-052r-0940000000-488248e76f811da01239" "submitter=Aiko Barsch (Bruker)" "MoNA Rating=4.545454545454546"
Num Peaks: 11
107.0129 30.730731
108.0215 100.000000
109.0248 13.913914
135.0081 74.174174
136.0126 12.112112
195.0813 20.720721
197.0581 12.412412
211.0735 17.317317
221.0577 17.817818
239.0693 71.071071
240.0747 11.611612


Name: 6-Hydroxyflavanone
Synon: $:00in-source
DB#: MetaboBASE0577
InChIKey: XYHWPQUEOOBIOW-UHFFFAOYSA-N
Precursor_type: [M-H]-
Spectrum_type: MS2
PrecursorMZ: 239.0709
Instrument_type: LC-ESI-TOF
Instrument: impact HD
Ion_mode: N
Collision_energy: 10
Formula: C15H12O3
MW: 240
ExactMass: 240.078644244
Comments: "cas number=4250-77-5" "SMILES=c1ccc(cc1)C2CC(=O)c3cc(ccc3O2)O" "InChI=InChI=1S/C15H12O3/c16-11-6-7-14-12(8-11)13(17)9-15(18-14)10-4-2-1-3-5-10/h1-8,15-16H,9H2" "computed SMILES=O=C1C2=CC(O)=CC=C2OC(C=3C=CC=CC3)C1" "license=License CC-BY-NC-SA 4.0 International" "author=Plant Biology, The Noble Foundation, Ardmore, OK, US/Dennis Fine, Daniel Wherritt, and Lloyd Sumner" "ionization=ESI" "isolation width=5" "collision gas=Nitrogen" "peak width=0.014" "date=2013-11-23 13:38:02+01:00" "column=Waters Acquity BEH C18 1.7um x 2.1 x 150 mm" "retention time=781.2" "raw data file=C:\Data\Confirmed Standards\Confirmed stds MSMS 22Nov13\6-Hydroxyflavanone  MSMS.d" "computed mass accuracy=1.9585988927054827" "computed mass error=-4.682440000181032E-4" "SPLASH=splash10-000i-0090000000-b727f4d0a2ef7cac026e" "submitter=Aiko Barsch (Bruker)" "MoNA Rating=4.583333333333334"
Num Peaks: 8
108.0223 1.701702
123.0065 0.700701
135.0078 4.304304
195.0830 1.101101
211.0764 1.201201
239.0709 100.000000
240.0744 13.413413
241.0763 1.601602


Name: 3',4'-Dimethoxy-7-hydroxyflavanone
Synon: $:00in-source
DB#: MetaboBASE0578
InChIKey: MEDOAKSPIIOKFU-UHFFFAOYSA-N
Spectrum_type: MS2
PrecursorMZ: 311.0947
Instrument_type: LC-ESI-TOF
Instrument: impact HD
Ion_mode: N
Collision_energy: 10
Formula: C17H14O5
MW: 298
ExactMass: 298.084123548
Comments: "computed SMILES=O=C1C=C(OC2=CC(O)=CC=C12)C=3C=CC(OC)=C(OC)C3" "computed InChI=InChI=1S/C17H14O5/c1-20-14-6-3-10(7-17(14)21-2)15-9-13(19)12-5-4-11(18)8-16(12)22-15/h3-9,18H,1-2H3" "license=License CC-BY-NC-SA 4.0 International" "author=Plant Biology, The Noble Foundation, Ardmore, OK, US/Dennis Fine, Daniel Wherritt, and Lloyd Sumner" "ionization=ESI" "isolation width=5" "collision gas=Nitrogen" "peak width=0.013" "date=2014-01-11 06:40:36+01:00" "column=Waters Acquity BEH C18 1.7um x 2.1 x 150 mm" "retention time=744.6" "raw data file=C:\Data\Confirmed Standards\14Jan10 Confirmed stds MSMS\3'4'Dimethoxy7hydroxyflavanone.d" "SPLASH=splash10-03di-0009000000-12bd868b2de4ab00c501" "submitter=Aiko Barsch (Bruker)" "MoNA Rating=2.7777777777777777"
Num Peaks: 2
311.0947 100.000000
312.0978 13.013013


Name: 3',4'-Dimethoxy-7-hydroxyflavanone
Synon: $:00in-source
DB#: MetaboBASE0579
InChIKey: MEDOAKSPIIOKFU-UHFFFAOYSA-N
Spectrum_type: MS2
PrecursorMZ: 311.0946
Instrument_type: LC-ESI-TOF
Instrument: impact HD
Ion_mode: N
Collision_energy: 20
Formula: C17H14O5
MW: 298
ExactMass: 298.084123548
Comments: "computed SMILES=O=C1C=C(OC2=CC(O)=CC=C12)C=3C=CC(OC)=C(OC)C3" "computed InChI=InChI=1S/C17H14O5/c1-20-14-6-3-10(7-17(14)21-2)15-9-13(19)12-5-4-11(18)8-16(12)22-15/h3-9,18H,1-2H3" "license=License CC-BY-NC-SA 4.0 International" "author=Plant Biology, The Noble Foundation, Ardmore, OK, US/Dennis Fine, Daniel Wherritt, and Lloyd Sumner" "ionization=ESI" "isolation width=5" "collision gas=Nitrogen" "peak width=0.014" "date=2014-01-11 06:40:36+01:00" "column=Waters Acquity BEH C18 1.7um x 2.1 x 150 mm" "retention time=744.6" "raw data file=C:\Data\Confirmed Standards\14Jan10 Confirmed stds MSMS\3'4'Dimethoxy7hydroxyflavanone.d" "SPLASH=splash10-03dj-0097000000-f9644238db05f13f3bb1" "submitter=Aiko Barsch (Bruker)" "MoNA Rating=3.125"
Num Peaks: 9
253.0521 3.303303
267.0675 7.207207
281.0469 19.719720
282.0501 2.602603
295.0624 14.014014
296.0708 76.676677
297.0742 9.009009
311.0946 100.000000
312.0975 12.812813


Name: 3',4'-Dimethoxy-7-hydroxyflavanone
Synon: $:00in-source
DB#: MetaboBASE0580
InChIKey: MEDOAKSPIIOKFU-UHFFFAOYSA-N
Spectrum_type: MS2
PrecursorMZ: 311.1
Instrument_type: LC-ESI-TOF
Instrument: impact HD
Ion_mode: N
Collision_energy: 40
Formula: C17H14O5
MW: 298
ExactMass: 298.084123548
Comments: "computed SMILES=O=C1C=C(OC2=CC(O)=CC=C12)C=3C=CC(OC)=C(OC)C3" "computed InChI=InChI=1S/C17H14O5/c1-20-14-6-3-10(7-17(14)21-2)15-9-13(19)12-5-4-11(18)8-16(12)22-15/h3-9,18H,1-2H3" "license=License CC-BY-NC-SA 4.0 International" "author=Plant Biology, The Noble Foundation, Ardmore, OK, US/Dennis Fine, Daniel Wherritt, and Lloyd Sumner" "ionization=ESI" "isolation width=5" "collision gas=Nitrogen" "peak width=0.015" "date=2014-01-11 06:40:36+01:00" "column=Waters Acquity BEH C18 1.7um x 2.1 x 150 mm" "retention time=744.6" "raw data file=C:\Data\Confirmed Standards\14Jan10 Confirmed stds MSMS\3'4'Dimethoxy7hydroxyflavanone.d" "SPLASH=splash10-0udi-0090000000-14436b3dcc39f33d4e02" "submitter=Aiko Barsch (Bruker)" "MoNA Rating=3.125"
Num Peaks: 8
225.0574 3.803804
253.0523 100.000000
254.0557 9.609610
267.0678 17.917918
268.0710 2.302302
281.0474 11.311311
295.0628 22.322322
296.0671 3.703704


Name: 3',4'-Dimethoxy-7-hydroxyflavanone
Synon: $:00in-source
DB#: MetaboBASE0581
InChIKey: MEDOAKSPIIOKFU-UHFFFAOYSA-N
Instrument_type: LC-ESI-TOF
Instrument: impact HD
Ion_mode: N
Formula: C17H14O5
MW: 298
ExactMass: 298.084123548
Comments: "computed SMILES=O=C1C=C(OC2=CC(O)=CC=C12)C=3C=CC(OC)=C(OC)C3" "computed InChI=InChI=1S/C17H14O5/c1-20-14-6-3-10(7-17(14)21-2)15-9-13(19)12-5-4-11(18)8-16(12)22-15/h3-9,18H,1-2H3" "license=License CC-BY-NC-SA 4.0 International" "author=Plant Biology, The Noble Foundation, Ardmore, OK, US/Dennis Fine, Daniel Wherritt, and Lloyd Sumner" "ionization=ESI" "collision gas=Nitrogen" "peak width=0.013" "date=2014-01-11 06:40:36+01:00" "column=Waters Acquity BEH C18 1.7um x 2.1 x 150 mm" "retention time=744.6" "raw data file=C:\Data\Confirmed Standards\14Jan10 Confirmed stds MSMS\3'4'Dimethoxy7hydroxyflavanone.d" "SPLASH=splash10-03di-0009004000-33f806f55a39f83fd765" "submitter=Aiko Barsch (Bruker)" "MoNA Rating=3.888888888888889"
Num Peaks: 7
311.0947 100.000000
312.0981 16.516517
623.1971 42.742743
624.2007 14.914915
625.2030 3.103103
935.2997 3.903904
936.3026 2.302302


Name: 3',4'-Dimethoxy-7-hydroxyflavanone
Synon: $:00in-source
DB#: MetaboBASE0582
InChIKey: MEDOAKSPIIOKFU-UHFFFAOYSA-N
Instrument_type: LC-ESI-TOF
Instrument: impact HD
Ion_mode: N
Collision_energy: 10
Formula: C17H14O5
MW: 298
ExactMass: 298.084123548
Comments: "computed SMILES=O=C1C=C(OC2=CC(O)=CC=C12)C=3C=CC(OC)=C(OC)C3" "computed InChI=InChI=1S/C17H14O5/c1-20-14-6-3-10(7-17(14)21-2)15-9-13(19)12-5-4-11(18)8-16(12)22-15/h3-9,18H,1-2H3" "license=License CC-BY-NC-SA 4.0 International" "author=Plant Biology, The Noble Foundation, Ardmore, OK, US/Dennis Fine, Daniel Wherritt, and Lloyd Sumner" "ionization=ESI" "collision gas=Nitrogen" "peak width=0.013" "date=2013-11-22 02:05:19+01:00" "column=Waters Acquity BEH C18 1.7um x 2.1 x 150 mm" "retention time=745.2" "raw data file=C:\Data\Confirmed Standards\Confirmed Stds 21Nov13\3'4'Dimethoxy7hydroxyflavanone.d" "SPLASH=splash10-03di-0009000000-fee0a9e3178a94bb0612" "submitter=Aiko Barsch (Bruker)" "MoNA Rating=4.444444444444445"
Num Peaks: 6
296.0676 2.002002
311.0921 100.000000
312.0950 18.118118
313.0970 1.901902
623.1899 3.203203
624.1929 1.101101


Name: 3',4'-Dimethoxy-7-hydroxyflavanone
Synon: $:00in-source
DB#: MetaboBASE0583
InChIKey: MEDOAKSPIIOKFU-UHFFFAOYSA-N
Instrument_type: LC-ESI-TOF
Instrument: impact HD
Ion_mode: N
Formula: C17H14O5
MW: 298
ExactMass: 298.084123548
Comments: "computed SMILES=O=C1C=C(OC2=CC(O)=CC=C12)C=3C=CC(OC)=C(OC)C3" "computed InChI=InChI=1S/C17H14O5/c1-20-14-6-3-10(7-17(14)21-2)15-9-13(19)12-5-4-11(18)8-16(12)22-15/h3-9,18H,1-2H3" "license=License CC-BY-NC-SA 4.0 International" "author=Plant Biology, The Noble Foundation, Ardmore, OK, US/Dennis Fine, Daniel Wherritt, and Lloyd Sumner" "ionization=ESI" "collision gas=Nitrogen" "peak width=0.012" "date=2013-11-24 02:32:34+01:00" "column=Waters Acquity BEH C18 1.7um x 2.1 x 150 mm" "retention time=744" "raw data file=C:\Data\Confirmed Standards\Confirmed stds MSMS 22Nov13\3'4'Dimethoxy7hydroxyfla MSMS.d" "SPLASH=splash10-03di-0009003000-6f9af8876fad5aa91e76" "submitter=Aiko Barsch (Bruker)" "MoNA Rating=3.888888888888889"
Num Peaks: 13
116.9281 0.300300
311.0917 100.000000
312.0951 14.514515
313.0970 1.401401
347.0675 0.500501
379.0794 1.601602
380.0818 0.300300
623.1932 30.030030
624.1965 9.709710
625.1991 1.901902
626.2021 0.300300
935.2916 1.801802
936.2946 0.900901


Name: 3',4'-Dimethoxy-7-hydroxyflavanone
Synon: $:00in-source
DB#: MetaboBASE0584
InChIKey: MEDOAKSPIIOKFU-UHFFFAOYSA-N
Spectrum_type: MS2
PrecursorMZ: 311.0953
Instrument_type: LC-ESI-TOF
Instrument: impact HD
Ion_mode: N
Collision_energy: 30
Formula: C17H14O5
MW: 298
ExactMass: 298.084123548
Comments: "computed SMILES=O=C1C=C(OC2=CC(O)=CC=C12)C=3C=CC(OC)=C(OC)C3" "computed InChI=InChI=1S/C17H14O5/c1-20-14-6-3-10(7-17(14)21-2)15-9-13(19)12-5-4-11(18)8-16(12)22-15/h3-9,18H,1-2H3" "license=License CC-BY-NC-SA 4.0 International" "author=Plant Biology, The Noble Foundation, Ardmore, OK, US/Dennis Fine, Daniel Wherritt, and Lloyd Sumner" "ionization=ESI" "isolation width=5" "collision gas=Nitrogen" "peak width=0.016" "date=2014-01-11 06:40:36+01:00" "column=Waters Acquity BEH C18 1.7um x 2.1 x 150 mm" "retention time=744.6" "raw data file=C:\Data\Confirmed Standards\14Jan10 Confirmed stds MSMS\3'4'Dimethoxy7hydroxyflavanone.d" "SPLASH=splash10-0f7k-0090000000-92d1ea5236da21d510eb" "submitter=Aiko Barsch (Bruker)" "MoNA Rating=3.125"
Num Peaks: 12
253.0522 62.162162
254.0550 7.907908
266.0598 4.704705
267.0680 34.934935
268.0716 4.704705
279.0680 2.502503
281.0474 100.000000
282.0500 11.311311
295.0632 77.577578
296.0699 42.442442
297.0728 4.704705
311.0953 5.605606


Name: 3',4'-Dimethoxy-7-hydroxyflavanone
Synon: $:00in-source
DB#: MetaboBASE0585
InChIKey: MEDOAKSPIIOKFU-UHFFFAOYSA-N
Spectrum_type: MS2
PrecursorMZ: 311.1
Instrument_type: LC-ESI-TOF
Instrument: impact HD
Ion_mode: N
Collision_energy: 50
Formula: C17H14O5
MW: 298
ExactMass: 298.084123548
Comments: "computed SMILES=O=C1C=C(OC2=CC(O)=CC=C12)C=3C=CC(OC)=C(OC)C3" "computed InChI=InChI=1S/C17H14O5/c1-20-14-6-3-10(7-17(14)21-2)15-9-13(19)12-5-4-11(18)8-16(12)22-15/h3-9,18H,1-2H3" "license=License CC-BY-NC-SA 4.0 International" "author=Plant Biology, The Noble Foundation, Ardmore, OK, US/Dennis Fine, Daniel Wherritt, and Lloyd Sumner" "ionization=ESI" "isolation width=5" "collision gas=Nitrogen" "peak width=0.017" "date=2014-01-11 06:40:36+01:00" "column=Waters Acquity BEH C18 1.7um x 2.1 x 150 mm" "retention time=744.6" "raw data file=C:\Data\Confirmed Standards\14Jan10 Confirmed stds MSMS\3'4'Dimethoxy7hydroxyflavanone.d" "SPLASH=splash10-0udi-0090000000-a98d7a5c368ef953911a" "submitter=Aiko Barsch (Bruker)" "MoNA Rating=3.125"
Num Peaks: 10
117.0353 2.002002
149.0257 4.004004
224.0515 2.702703
225.0570 14.214214
237.0577 3.303303
253.0525 100.000000
254.0556 10.310310
265.0522 3.903904
267.0675 9.709710
295.0638 6.406406


Name: 7-Hydroxy-3'-methoxyflavone
Synon: $:00in-source
DB#: MetaboBASE0586
InChIKey: PTXIWVJSAQPKEY-UHFFFAOYSA-N
Precursor_type: [M-H]-
Spectrum_type: MS2
PrecursorMZ: 267.0666
Instrument_type: LC-ESI-TOF
Instrument: impact HD
Ion_mode: N
Collision_energy: 20
Formula: C16H12O4
MW: 268
ExactMass: 268.073558864
Comments: "SMILES=COc1cccc(c1)c2cc(=O)c3ccc(cc3o2)O" "InChI=InChI=1S/C16H12O4/c1-19-12-4-2-3-10(7-12)15-9-14(18)13-6-5-11(17)8-16(13)20-15/h2-9,17H,1H3" "computed SMILES=O=C1C=C(OC2=CC(O)=CC=C12)C=3C=CC=C(OC)C3" "license=License CC-BY-NC-SA 4.0 International" "author=Plant Biology, The Noble Foundation, Ardmore, OK, US/Dennis Fine, Daniel Wherritt, and Lloyd Sumner" "ionization=ESI" "isolation width=5" "collision gas=Nitrogen" "peak width=0.012" "date=2013-11-23 04:07:21+01:00" "column=Waters Acquity BEH C18 1.7um x 2.1 x 150 mm" "retention time=720.6" "raw data file=C:\Data\Confirmed Standards\Confirmed stds MSMS 22Nov13\7Hydroxy3'methoxyflavone MSMS.d" "computed mass accuracy=1.1874790781711033" "computed mass error=3.171359999782908E-4" "SPLASH=splash10-0gb9-0090000000-ef2dc9641eb9eeab5416" "submitter=Aiko Barsch (Bruker)" "MoNA Rating=4.583333333333334"
Num Peaks: 9
223.0412 0.200200
224.0474 7.307307
225.0512 1.101101
252.0430 61.161161
253.0462 6.406406
254.0487 0.800801
267.0666 100.000000
268.0700 10.210210
269.0717 1.401401


Name: 7-Hydroxy-3'-methoxyflavone
Synon: $:00in-source
DB#: MetaboBASE0587
InChIKey: PTXIWVJSAQPKEY-UHFFFAOYSA-N
Precursor_type: [M-H]-
Spectrum_type: MS2
PrecursorMZ: 267.07
Instrument_type: LC-ESI-TOF
Instrument: impact HD
Ion_mode: N
Collision_energy: 40
Formula: C16H12O4
MW: 268
ExactMass: 268.073558864
Comments: "SMILES=COc1cccc(c1)c2cc(=O)c3ccc(cc3o2)O" "InChI=InChI=1S/C16H12O4/c1-19-12-4-2-3-10(7-12)15-9-14(18)13-6-5-11(17)8-16(13)20-15/h2-9,17H,1H3" "computed SMILES=O=C1C=C(OC2=CC(O)=CC=C12)C=3C=CC=C(OC)C3" "license=License CC-BY-NC-SA 4.0 International" "author=Plant Biology, The Noble Foundation, Ardmore, OK, US/Dennis Fine, Daniel Wherritt, and Lloyd Sumner" "ionization=ESI" "isolation width=5" "collision gas=Nitrogen" "peak width=0.017" "date=2013-11-23 04:07:21+01:00" "column=Waters Acquity BEH C18 1.7um x 2.1 x 150 mm" "retention time=720.6" "raw data file=C:\Data\Confirmed Standards\Confirmed stds MSMS 22Nov13\7Hydroxy3'methoxyflavone MSMS.d" "computed mass accuracy=13.91820870924279" "computed mass error=0.0037171359999774722" "SPLASH=splash10-00di-0490000000-28de4f3198bff5e0e40e" "submitter=Aiko Barsch (Bruker)" "MoNA Rating=4.545454545454546"
Num Peaks: 13
135.0086 17.117117
136.0115 1.301301
153.0184 1.301301
167.0498 2.202202
168.0573 1.401401
195.0448 35.635636
196.0495 7.107107
223.0400 5.605606
224.0476 100.000000
225.0510 10.810811
226.0536 1.201201
252.0432 12.312312
253.0468 1.701702


Name: 7-Hydroxy-3'-methoxyflavone
Synon: $:00in-source
DB#: MetaboBASE0588
InChIKey: PTXIWVJSAQPKEY-UHFFFAOYSA-N
Precursor_type: [M-H]-
Spectrum_type: MS2
PrecursorMZ: 267.0662
Instrument_type: LC-ESI-TOF
Instrument: impact HD
Ion_mode: N
Collision_energy: 30
Formula: C16H12O4
MW: 268
ExactMass: 268.073558864
Comments: "SMILES=COc1cccc(c1)c2cc(=O)c3ccc(cc3o2)O" "InChI=InChI=1S/C16H12O4/c1-19-12-4-2-3-10(7-12)15-9-14(18)13-6-5-11(17)8-16(13)20-15/h2-9,17H,1H3" "computed SMILES=O=C1C=C(OC2=CC(O)=CC=C12)C=3C=CC=C(OC)C3" "license=License CC-BY-NC-SA 4.0 International" "author=Plant Biology, The Noble Foundation, Ardmore, OK, US/Dennis Fine, Daniel Wherritt, and Lloyd Sumner" "ionization=ESI" "isolation width=5" "collision gas=Nitrogen" "peak width=0.017" "date=2013-11-23 04:07:21+01:00" "column=Waters Acquity BEH C18 1.7um x 2.1 x 150 mm" "retention time=720.6" "raw data file=C:\Data\Confirmed Standards\Confirmed stds MSMS 22Nov13\7Hydroxy3'methoxyflavone MSMS.d" "computed mass accuracy=0.31027513041705707" "computed mass error=-8.286400003498784E-5" "SPLASH=splash10-0uk9-0090000000-d049bc9ee8220a95711d" "submitter=Aiko Barsch (Bruker)" "MoNA Rating=4.615384615384616"
Num Peaks: 12
135.0089 1.101101
195.0449 3.903904
196.0502 0.800801
223.0399 1.801802
224.0479 92.792793
225.0512 10.010010
226.0538 0.800801
252.0430 100.000000
253.0461 10.510511
254.0486 1.401401
267.0662 10.410410
268.0699 1.501502


Name: 7-Hydroxy-3'-methoxyflavone
Synon: $:00in-source
DB#: MetaboBASE0589
InChIKey: PTXIWVJSAQPKEY-UHFFFAOYSA-N
Instrument_type: LC-ESI-TOF
Instrument: impact HD
Ion_mode: N
Formula: C16H12O4
MW: 268
ExactMass: 268.073558864
Comments: "SMILES=COc1cccc(c1)c2cc(=O)c3ccc(cc3o2)O" "InChI=InChI=1S/C16H12O4/c1-19-12-4-2-3-10(7-12)15-9-14(18)13-6-5-11(17)8-16(13)20-15/h2-9,17H,1H3" "computed SMILES=O=C1C=C(OC2=CC(O)=CC=C12)C=3C=CC=C(OC)C3" "license=License CC-BY-NC-SA 4.0 International" "author=Plant Biology, The Noble Foundation, Ardmore, OK, US/Dennis Fine, Daniel Wherritt, and Lloyd Sumner" "ionization=ESI" "collision gas=Nitrogen" "peak width=0.015" "date=2013-11-23 04:07:21+01:00" "column=Waters Acquity BEH C18 1.7um x 2.1 x 150 mm" "retention time=720.6" "raw data file=C:\Data\Confirmed Standards\Confirmed stds MSMS 22Nov13\7Hydroxy3'methoxyflavone MSMS.d" "SPLASH=splash10-014i-0190000000-04447a8d2a52c21441ea" "submitter=Aiko Barsch (Bruker)" "MoNA Rating=3.888888888888889"
Num Peaks: 26
116.9286 0.600601
135.0085 5.305305
136.0120 0.400400
167.0501 1.801802
195.0450 14.314314
196.0491 2.002002
223.0392 0.900901
224.0476 8.808809
225.0513 1.201201
252.0430 28.228228
253.0461 3.603604
254.0483 0.400400
267.0667 100.000000
268.0698 12.112112
269.0721 1.401401
335.0546 0.600601
366.9925 0.600601
535.1414 2.102102
536.1448 0.800801
557.1237 1.901902
558.1274 0.700701
618.0639 0.400400
857.1360 0.500501
1124.2030 1.701702
1125.2061 1.201201
1126.2125 0.400400


Name: 8-Hydroxy-5-methoxyflavanone
Synon: $:00in-source
DB#: MetaboBASE0590
InChIKey: QKKLESZITVHFQP-UHFFFAOYSA-N
Precursor_type: [M-H]-
Spectrum_type: MS2
PrecursorMZ: 269.0817
Instrument_type: LC-ESI-TOF
Instrument: impact HD
Ion_mode: N
Collision_energy: 10
Formula: C16H14O4
MW: 270
ExactMass: 270.089208928
Comments: "computed SMILES=O=C1C=2C(OC)=CC=C(O)C2OC(C=3C=CC=CC3)C1" "computed InChI=InChI=1S/C16H14O4/c1-19-13-8-7-11(17)16-15(13)12(18)9-14(20-16)10-5-3-2-4-6-10/h2-8,14,17H,9H2,1H3" "license=License CC-BY-NC-SA 4.0 International" "author=Plant Biology, The Noble Foundation, Ardmore, OK, US/Dennis Fine, Daniel Wherritt, and Lloyd Sumner" "ionization=ESI" "isolation width=5" "collision gas=Nitrogen" "peak width=0.015" "date=2013-11-23 09:33:26+01:00" "column=Waters Acquity BEH C18 1.7um x 2.1 x 150 mm" "retention time=576" "raw data file=C:\Data\Confirmed Standards\Confirmed stds MSMS 22Nov13\8Hydroxy5methoxyflav MSMS.d" "computed mass accuracy=0.8656404356098171" "computed mass error=-2.3292800000263014E-4" "SPLASH=splash10-0gb9-0090000000-0d89d853a16369dac62f" "submitter=Aiko Barsch (Bruker)" "MoNA Rating=4.615384615384616"
Num Peaks: 16
149.9957 1.801802
210.0687 5.505506
211.0736 1.001001
225.0921 26.326326
226.0952 3.903904
237.0556 15.115115
238.0603 3.903904
239.0709 5.105105
240.0731 0.800801
254.0580 70.870871
255.0619 8.208208
256.0673 1.301301
269.0453 0.800801
269.0817 100.000000
270.0851 9.309309
271.0875 1.501502


Name: 8-Hydroxy-5-methoxyflavanone
Synon: $:00in-source
DB#: MetaboBASE0591
InChIKey: QKKLESZITVHFQP-UHFFFAOYSA-N
Precursor_type: [M-H]-
Spectrum_type: MS2
PrecursorMZ: 269.0838
Instrument_type: LC-ESI-TOF
Instrument: impact HD
Ion_mode: N
Collision_energy: 20
Formula: C16H14O4
MW: 270
ExactMass: 270.089208928
Comments: "computed SMILES=O=C1C=2C(OC)=CC=C(O)C2OC(C=3C=CC=CC3)C1" "computed InChI=InChI=1S/C16H14O4/c1-19-13-8-7-11(17)16-15(13)12(18)9-14(20-16)10-5-3-2-4-6-10/h2-8,14,17H,9H2,1H3" "license=License CC-BY-NC-SA 4.0 International" "author=Plant Biology, The Noble Foundation, Ardmore, OK, US/Dennis Fine, Daniel Wherritt, and Lloyd Sumner" "ionization=ESI" "isolation width=5" "collision gas=Nitrogen" "peak width=0.016" "date=2013-11-23 09:33:26+01:00" "column=Waters Acquity BEH C18 1.7um x 2.1 x 150 mm" "retention time=576" "raw data file=C:\Data\Confirmed Standards\Confirmed stds MSMS 22Nov13\8Hydroxy5methoxyflav MSMS.d" "computed mass accuracy=6.938626554188017" "computed mass error=0.0018670719999818175" "SPLASH=splash10-0udj-0490000000-a6a6794b2371f156eb32" "submitter=Aiko Barsch (Bruker)" "MoNA Rating=4.545454545454546"
Num Peaks: 15
149.9960 86.886887
150.9993 4.404404
152.0002 2.302302
209.0611 4.704705
210.0681 32.232232
211.0712 4.904905
225.0918 3.503504
226.0639 2.602603
237.0553 17.017017
238.0580 4.404404
239.0708 5.505506
253.0519 2.302302
254.0580 100.000000
255.0619 13.513514
269.0838 5.105105


Name: 8-Hydroxy-5-methoxyflavanone
Synon: $:00in-source
DB#: MetaboBASE0592
InChIKey: QKKLESZITVHFQP-UHFFFAOYSA-N
Instrument_type: LC-ESI-TOF
Instrument: impact HD
Ion_mode: N
Formula: C16H14O4
MW: 270
ExactMass: 270.089208928
Comments: "computed SMILES=O=C1C=2C(OC)=CC=C(O)C2OC(C=3C=CC=CC3)C1" "computed InChI=InChI=1S/C16H14O4/c1-19-13-8-7-11(17)16-15(13)12(18)9-14(20-16)10-5-3-2-4-6-10/h2-8,14,17H,9H2,1H3" "license=License CC-BY-NC-SA 4.0 International" "author=Plant Biology, The Noble Foundation, Ardmore, OK, US/Dennis Fine, Daniel Wherritt, and Lloyd Sumner" "ionization=ESI" "collision gas=Nitrogen" "peak width=0.014" "date=2013-11-23 09:33:26+01:00" "column=Waters Acquity BEH C18 1.7um x 2.1 x 150 mm" "retention time=576" "raw data file=C:\Data\Confirmed Standards\Confirmed stds MSMS 22Nov13\8Hydroxy5methoxyflav MSMS.d" "SPLASH=splash10-014i-0090000000-6b1d79a62327427dc645" "submitter=Aiko Barsch (Bruker)" "MoNA Rating=3.888888888888889"
Num Peaks: 19
210.0687 0.500501
225.0918 3.103103
226.0945 0.500501
237.0551 1.101101
238.0601 0.300300
239.0704 0.400400
254.0582 3.003003
255.0611 0.500501
269.0823 100.000000
270.0853 12.412412
271.0877 1.201201
337.0691 0.400400
539.1730 1.301301
540.1756 0.400400
561.1558 2.202202
562.1576 0.700701
1132.2657 2.502503
1133.2693 1.901902
1134.2715 0.600601


Name: 5,3',4'-Trihydroxyflavone
Synon: $:00in-source
DB#: MetaboBASE0593
InChIKey: KXPQYWKYYDYOCQ-UHFFFAOYSA-N
Precursor_type: [M-H]-
Spectrum_type: MS2
PrecursorMZ: 269.046
Instrument_type: LC-ESI-TOF
Instrument: impact HD
Ion_mode: N
Collision_energy: 40
Formula: C15H10O5
MW: 270
ExactMass: 270.05282342
Comments: "computed SMILES=O=C1C=C(OC=2C=CC=C(O)C12)C=3C=CC(O)=C(O)C3" "computed InChI=InChI=1S/C15H10O5/c16-9-5-4-8(6-11(9)18)14-7-12(19)15-10(17)2-1-3-13(15)20-14/h1-7,16-18H" "license=License CC-BY-NC-SA 4.0 International" "author=Plant Biology, The Noble Foundation, Ardmore, OK, US/Dennis Fine, Daniel Wherritt, and Lloyd Sumner" "ionization=ESI" "isolation width=5" "collision gas=Nitrogen" "peak width=0.016" "date=2013-11-23 11:35:50+01:00" "column=Waters Acquity BEH C18 1.7um x 2.1 x 150 mm" "retention time=705.6" "raw data file=C:\Data\Confirmed Standards\Confirmed stds MSMS 22Nov13\53'4'-Trihydroxyflavone  MSMS.d" "computed mass accuracy=1.6821658749843331" "computed mass error=4.5258000000103493E-4" "SPLASH=splash10-001i-0910000000-8a738877e589ee51204c" "submitter=Aiko Barsch (Bruker)" "MoNA Rating=4.583333333333334"
Num Peaks: 10
115.0188 3.503504
132.0213 12.312312
133.0290 100.000000
134.0316 9.109109
135.0084 6.906907
171.0454 2.902903
201.0216 3.803804
224.0484 3.803804
227.0365 4.104104
269.0460 3.803804


Name: 5,3',4'-Trihydroxyflavone
Synon: $:00in-source
DB#: MetaboBASE0594
InChIKey: KXPQYWKYYDYOCQ-UHFFFAOYSA-N
Precursor_type: [M-H]-
Spectrum_type: MS2
PrecursorMZ: 269.0455
Instrument_type: LC-ESI-TOF
Instrument: impact HD
Ion_mode: N
Collision_energy: 30
Formula: C15H10O5
MW: 270
ExactMass: 270.05282342
Comments: "computed SMILES=O=C1C=C(OC=2C=CC=C(O)C12)C=3C=CC(O)=C(O)C3" "computed InChI=InChI=1S/C15H10O5/c16-9-5-4-8(6-11(9)18)14-7-12(19)15-10(17)2-1-3-13(15)20-14/h1-7,16-18H" "license=License CC-BY-NC-SA 4.0 International" "author=Plant Biology, The Noble Foundation, Ardmore, OK, US/Dennis Fine, Daniel Wherritt, and Lloyd Sumner" "ionization=ESI" "isolation width=5" "collision gas=Nitrogen" "peak width=0.017" "date=2013-11-23 11:35:50+01:00" "column=Waters Acquity BEH C18 1.7um x 2.1 x 150 mm" "retention time=705.6" "raw data file=C:\Data\Confirmed Standards\Confirmed stds MSMS 22Nov13\53'4'-Trihydroxyflavone  MSMS.d" "computed mass accuracy=0.1762527155709411" "computed mass error=-4.741999998714164E-5" "SPLASH=splash10-0159-0590000000-6545d7dadecee8a4f74f" "submitter=Aiko Barsch (Bruker)" "MoNA Rating=4.615384615384616"
Num Peaks: 16
133.0289 72.372372
134.0322 6.106106
135.0078 24.624625
161.0228 2.902903
201.0200 2.902903
213.0567 2.702703
223.0403 5.505506
224.0457 3.003003
225.0544 8.408408
227.0340 16.116116
240.0451 2.602603
241.0511 7.907908
251.0375 5.605606
269.0455 100.000000
270.0485 13.613614
271.0513 2.402402


Name: 5,3',4'-Trihydroxyflavone
Synon: $:00in-source
DB#: MetaboBASE0595
InChIKey: KXPQYWKYYDYOCQ-UHFFFAOYSA-N
Instrument_type: LC-ESI-TOF
Instrument: impact HD
Ion_mode: N
Formula: C15H10O5
MW: 270
ExactMass: 270.05282342
Comments: "computed SMILES=O=C1C=C(OC=2C=CC=C(O)C12)C=3C=CC(O)=C(O)C3" "computed InChI=InChI=1S/C15H10O5/c16-9-5-4-8(6-11(9)18)14-7-12(19)15-10(17)2-1-3-13(15)20-14/h1-7,16-18H" "license=License CC-BY-NC-SA 4.0 International" "author=Plant Biology, The Noble Foundation, Ardmore, OK, US/Dennis Fine, Daniel Wherritt, and Lloyd Sumner" "ionization=ESI" "collision gas=Nitrogen" "peak width=0.01" "date=2013-11-23 11:35:50+01:00" "column=Waters Acquity BEH C18 1.7um x 2.1 x 150 mm" "retention time=705.6" "raw data file=C:\Data\Confirmed Standards\Confirmed stds MSMS 22Nov13\53'4'-Trihydroxyflavone  MSMS.d" "SPLASH=splash10-014i-0090000000-0423a3f6e9a73e567f24" "submitter=Aiko Barsch (Bruker)" "MoNA Rating=3.888888888888889"
Num Peaks: 7
241.0508 0.700701
269.0461 100.000000
270.0495 13.213213
271.0519 1.301301
539.0986 4.704705
540.1028 1.301301
561.0814 0.900901


Name: Artocaprin
Synon: $:00in-source
DB#: MetaboBASE0596
InChIKey: KRGDFVQWQJIMEK-RMKNXTFCSA-N
Precursor_type: [M-H]-
Spectrum_type: MS2
PrecursorMZ: 435.1826
Instrument_type: LC-ESI-TOF
Instrument: impact HD
Ion_mode: N
Collision_energy: 10
Formula: C26H28O6
MW: 436
ExactMass: 436.188588616
Comments: "cas number=7608-44-8" "SMILES=CC(C)/C=C/c1c(cc2c(c1O)c(=O)c(c(o2)c3ccc(cc3O)O)CC=C(C)C)OC" "InChI=InChI=1S/C26H28O6/c1-14(2)6-9-18-21(31-5)13-22-23(24(18)29)25(30)19(10-7-15(3)4)26(32-22)17-11-8-16(27)12-20(17)28/h6-9,11-14,27-29H,10H2,1-5H3/b9-6+" "computed SMILES=O=C1C=2C(O)=C(C=CC(C)C)C(OC)=CC2OC(C=3C=CC(O)=CC3O)=C1CC=C(C)C" "license=License CC-BY-NC-SA 4.0 International" "author=Plant Biology, The Noble Foundation, Ardmore, OK, US/Dennis Fine, Daniel Wherritt, and Lloyd Sumner" "ionization=ESI" "isolation width=5" "collision gas=Nitrogen" "peak width=0.011" "date=2013-11-23 12:57:18+01:00" "column=Waters Acquity BEH C18 1.7um x 2.1 x 150 mm" "retention time=1596" "raw data file=C:\Data\Confirmed Standards\Confirmed stds MSMS 22Nov13\Artocarpin (vial 268)  MSMS.d" "computed mass accuracy=2.958261658360516" "computed mass error=0.0012873839999656411" "SPLASH=splash10-000i-0000900000-0edef93ed272697afd8a" "submitter=Aiko Barsch (Bruker)" "MoNA Rating=4.583333333333334"
Num Peaks: 4
313.1437 1.501502
435.1826 100.000000
436.1858 19.119119
437.1876 2.702703


Name: Artocaprin
Synon: $:00in-source
DB#: MetaboBASE0597
InChIKey: KRGDFVQWQJIMEK-RMKNXTFCSA-N
Precursor_type: [M-H]-
Spectrum_type: MS2
PrecursorMZ: 435.1814
Instrument_type: LC-ESI-TOF
Instrument: impact HD
Ion_mode: N
Collision_energy: 30
Formula: C26H28O6
MW: 436
ExactMass: 436.188588616
Comments: "cas number=7608-44-8" "SMILES=CC(C)/C=C/c1c(cc2c(c1O)c(=O)c(c(o2)c3ccc(cc3O)O)CC=C(C)C)OC" "InChI=InChI=1S/C26H28O6/c1-14(2)6-9-18-21(31-5)13-22-23(24(18)29)25(30)19(10-7-15(3)4)26(32-22)17-11-8-16(27)12-20(17)28/h6-9,11-14,27-29H,10H2,1-5H3/b9-6+" "computed SMILES=O=C1C=2C(O)=C(C=CC(C)C)C(OC)=CC2OC(C=3C=CC(O)=CC3O)=C1CC=C(C)C" "license=License CC-BY-NC-SA 4.0 International" "author=Plant Biology, The Noble Foundation, Ardmore, OK, US/Dennis Fine, Daniel Wherritt, and Lloyd Sumner" "ionization=ESI" "isolation width=5" "collision gas=Nitrogen" "peak width=0.014" "date=2013-11-23 12:57:18+01:00" "column=Waters Acquity BEH C18 1.7um x 2.1 x 150 mm" "retention time=1596" "raw data file=C:\Data\Confirmed Standards\Confirmed stds MSMS 22Nov13\Artocarpin (vial 268)  MSMS.d" "computed mass accuracy=0.20079902308014239" "computed mass error=8.738399998264867E-5" "SPLASH=splash10-03di-0029100000-b05a8e20e23cb267e253" "submitter=Aiko Barsch (Bruker)" "MoNA Rating=4.615384615384616"
Num Peaks: 33
109.0295 7.607608
121.0299 4.004004
227.0704 3.603604
233.0815 5.905906
243.0685 1.101101
255.0653 6.606607
256.0703 1.101101
283.0982 0.700701
297.0427 1.001001
298.1207 14.414414
299.1231 3.103103
313.1448 100.000000
314.1480 17.017017
315.1501 1.401401
323.0561 2.502503
323.0901 0.800801
324.0991 0.800801
325.1451 4.804805
326.1474 1.201201
333.1154 1.501502
338.1141 3.703704
349.1066 1.001001
351.0878 4.704705
352.0901 0.900901
361.1482 0.800801
366.1120 8.808809
367.1170 2.102102
377.1028 2.802803
391.1937 1.101101
417.1738 0.900901
435.1814 15.715716
436.1825 3.703704
437.1909 0.700701


Name: Artocaprin
Synon: $:00in-source
DB#: MetaboBASE0598
InChIKey: KRGDFVQWQJIMEK-RMKNXTFCSA-N
Instrument_type: LC-ESI-TOF
Instrument: impact HD
Ion_mode: N
Formula: C26H28O6
MW: 436
ExactMass: 436.18858861599995
Comments: "cas number=7608-44-8" "SMILES=CC(C)/C=C/c1c(cc2c(c1O)c(=O)c(c(o2)c3ccc(cc3O)O)CC=C(C)C)OC" "InChI=InChI=1S/C26H28O6/c1-14(2)6-9-18-21(31-5)13-22-23(24(18)29)25(30)19(10-7-15(3)4)26(32-22)17-11-8-16(27)12-20(17)28/h6-9,11-14,27-29H,10H2,1-5H3/b9-6+" "computed SMILES=O=C1C=2C(O)=C(C=CC(C)C)C(OC)=CC2OC(C=3C=CC(O)=CC3O)=C1CC=C(C)C" "license=License CC-BY-NC-SA 4.0 International" "author=Plant Biology, The Noble Foundation, Ardmore, OK, US/Dennis Fine, Daniel Wherritt, and Lloyd Sumner" "ionization=ESI" "collision gas=Nitrogen" "peak width=0.016" "date=2013-11-23 12:57:18+01:00" "column=Waters Acquity BEH C18 1.7um x 2.1 x 150 mm" "retention time=1596" "raw data file=C:\Data\Confirmed Standards\Confirmed stds MSMS 22Nov13\Artocarpin (vial 268)  MSMS.d" "SPLASH=splash10-000i-0002900010-8da91c9103874a49a7fa" "submitter=Aiko Barsch (Bruker)" "MoNA Rating=3.888888888888889"
Num Peaks: 11
128.0101 15.515516
279.0095 10.510511
377.2733 24.124124
379.2694 17.417417
430.0102 21.121121
435.1831 100.000000
436.1864 21.821822
491.3608 23.323323
666.0220 16.216216
871.3756 21.521522
872.3786 11.211211


Name: Artocaprin
Synon: $:00in-source
DB#: MetaboBASE0599
InChIKey: KRGDFVQWQJIMEK-RMKNXTFCSA-N
Precursor_type: [M-H]-
Spectrum_type: MS2
PrecursorMZ: 435.18
Instrument_type: LC-ESI-TOF
Instrument: impact HD
Ion_mode: N
Collision_energy: 50
Formula: C26H28O6
MW: 436
ExactMass: 436.18858861599995
Comments: "cas number=7608-44-8" "SMILES=CC(C)/C=C/c1c(cc2c(c1O)c(=O)c(c(o2)c3ccc(cc3O)O)CC=C(C)C)OC" "InChI=InChI=1S/C26H28O6/c1-14(2)6-9-18-21(31-5)13-22-23(24(18)29)25(30)19(10-7-15(3)4)26(32-22)17-11-8-16(27)12-20(17)28/h6-9,11-14,27-29H,10H2,1-5H3/b9-6+" "computed SMILES=O=C1C=2C(O)=C(C=CC(C)C)C(OC)=CC2OC(C=3C=CC(O)=CC3O)=C1CC=C(C)C" "license=License CC-BY-NC-SA 4.0 International" "author=Plant Biology, The Noble Foundation, Ardmore, OK, US/Dennis Fine, Daniel Wherritt, and Lloyd Sumner" "ionization=ESI" "isolation width=5" "collision gas=Nitrogen" "peak width=0.015" "date=2013-11-23 12:57:18+01:00" "column=Waters Acquity BEH C18 1.7um x 2.1 x 150 mm" "retention time=1596" "raw data file=C:\Data\Confirmed Standards\Confirmed stds MSMS 22Nov13\Artocarpin (vial 268)  MSMS.d" "computed mass accuracy=3.0162599383017135" "computed mass error=-0.0013126159999501397" "SPLASH=splash10-0a4i-0191000000-bd435bd5fa1fd964bc2a" "submitter=Aiko Barsch (Bruker)" "MoNA Rating=4.583333333333334"
Num Peaks: 24
109.0287 13.113113
121.0308 4.304304
133.0290 7.607608
175.0021 4.404404
227.0714 6.006006
230.0590 4.104104
233.0821 9.709710
243.0659 17.217217
244.0702 4.804805
255.0657 100.000000
256.0686 14.414414
257.0719 3.103103
268.0338 3.303303
280.0341 8.108108
283.0960 10.010010
291.0313 3.403403
297.1118 6.606607
298.1201 9.509510
299.1230 3.403403
308.0328 5.505506
313.1421 3.903904
323.0940 9.709710
351.0915 6.206206
359.0965 2.802803


Name: Artocaprin
Synon: $:00in-source
DB#: MetaboBASE0600
InChIKey: KRGDFVQWQJIMEK-RMKNXTFCSA-N
Precursor_type: [M-H]-
Spectrum_type: MS2
PrecursorMZ: 435.1825
Instrument_type: LC-ESI-TOF
Instrument: impact HD
Ion_mode: N
Collision_energy: 20
Formula: C26H28O6
MW: 436
ExactMass: 436.18858861599995
Comments: "cas number=7608-44-8" "SMILES=CC(C)/C=C/c1c(cc2c(c1O)c(=O)c(c(o2)c3ccc(cc3O)O)CC=C(C)C)OC" "InChI=InChI=1S/C26H28O6/c1-14(2)6-9-18-21(31-5)13-22-23(24(18)29)25(30)19(10-7-15(3)4)26(32-22)17-11-8-16(27)12-20(17)28/h6-9,11-14,27-29H,10H2,1-5H3/b9-6+" "computed SMILES=O=C1C=2C(O)=C(C=CC(C)C)C(OC)=CC2OC(C=3C=CC(O)=CC3O)=C1CC=C(C)C" "license=License CC-BY-NC-SA 4.0 International" "author=Plant Biology, The Noble Foundation, Ardmore, OK, US/Dennis Fine, Daniel Wherritt, and Lloyd Sumner" "ionization=ESI" "isolation width=5" "collision gas=Nitrogen" "peak width=0.012" "date=2013-11-23 12:57:18+01:00" "column=Waters Acquity BEH C18 1.7um x 2.1 x 150 mm" "retention time=1596" "raw data file=C:\Data\Confirmed Standards\Confirmed stds MSMS 22Nov13\Artocarpin (vial 268)  MSMS.d" "computed mass accuracy=2.7284736864363492" "computed mass error=0.0011873840000475866" "SPLASH=splash10-01p9-0007900000-e9660f3601ab50e32862" "submitter=Aiko Barsch (Bruker)" "MoNA Rating=4.583333333333334"
Num Peaks: 15
109.0292 3.103103
121.0295 3.903904
227.0715 2.102102
233.0809 0.700701
255.0648 1.201201
298.1201 1.601602
313.1443 80.980981
314.1474 11.611612
315.1506 1.101101
325.1440 4.204204
366.1111 3.203203
367.1139 0.600601
435.1825 100.000000
436.1850 20.920921
437.1880 3.303303


Name: Artocaprin
Synon: $:00in-source
DB#: MetaboBASE0601
InChIKey: KRGDFVQWQJIMEK-RMKNXTFCSA-N
Precursor_type: [M-H]-
Spectrum_type: MS2
PrecursorMZ: 435.18
Instrument_type: LC-ESI-TOF
Instrument: impact HD
Ion_mode: N
Collision_energy: 40
Formula: C26H28O6
MW: 436
ExactMass: 436.18858861599995
Comments: "cas number=7608-44-8" "SMILES=CC(C)/C=C/c1c(cc2c(c1O)c(=O)c(c(o2)c3ccc(cc3O)O)CC=C(C)C)OC" "InChI=InChI=1S/C26H28O6/c1-14(2)6-9-18-21(31-5)13-22-23(24(18)29)25(30)19(10-7-15(3)4)26(32-22)17-11-8-16(27)12-20(17)28/h6-9,11-14,27-29H,10H2,1-5H3/b9-6+" "computed SMILES=O=C1C=2C(O)=C(C=CC(C)C)C(OC)=CC2OC(C=3C=CC(O)=CC3O)=C1CC=C(C)C" "license=License CC-BY-NC-SA 4.0 International" "author=Plant Biology, The Noble Foundation, Ardmore, OK, US/Dennis Fine, Daniel Wherritt, and Lloyd Sumner" "ionization=ESI" "isolation width=5" "collision gas=Nitrogen" "peak width=0.014" "date=2013-11-23 12:57:18+01:00" "column=Waters Acquity BEH C18 1.7um x 2.1 x 150 mm" "retention time=1596" "raw data file=C:\Data\Confirmed Standards\Confirmed stds MSMS 22Nov13\Artocarpin (vial 268)  MSMS.d" "computed mass accuracy=3.0162599383017135" "computed mass error=-0.0013126159999501397" "SPLASH=splash10-0bt9-0095000000-af0abacc4b61c8c1f999" "submitter=Aiko Barsch (Bruker)" "MoNA Rating=4.583333333333334"
Num Peaks: 35
109.0297 17.917918
121.0296 5.705706
133.0299 3.903904
177.0953 2.502503
227.0724 7.407407
233.0812 27.427427
234.0855 4.004004
243.0660 19.719720
244.0666 5.605606
255.0663 100.000000
256.0687 19.419419
267.0659 6.706707
280.0319 2.802803
283.0962 7.907908
297.0394 4.404404
297.1132 6.206206
298.1207 55.455455
299.1218 12.812813
308.0340 5.505506
309.1136 3.003003
313.1438 64.264264
314.1470 12.212212
323.0571 8.308308
323.0918 10.810811
324.0945 2.902903
325.1469 3.503504
333.1115 3.603604
338.1183 8.408408
349.1098 5.305305
351.0869 17.217217
352.0939 2.802803
359.0961 2.602603
365.1016 3.103103
366.1098 5.605606
377.1007 10.110110


Name: Eupatilin
Synon: $:00in-source
DB#: MetaboBASE0602
InChIKey: DRRWBCNQOKKKOL-UHFFFAOYSA-N
Precursor_type: [M-H]-
Spectrum_type: MS2
PrecursorMZ: 343.0816
Instrument_type: LC-ESI-TOF
Instrument: impact HD
Ion_mode: N
Collision_energy: 20
Formula: C18H16O7
MW: 344
ExactMass: 344.089602852
Comments: "cas number=22368-21-4" "SMILES=COc1ccc(cc1OC)c2cc(=O)c3c(o2)cc(c(c3O)OC)O" "InChI=InChI=1S/C18H16O7/c1-22-12-5-4-9(6-14(12)23-2)13-7-10(19)16-15(25-13)8-11(20)18(24-3)17(16)21/h4-8,20-21H,1-3H3" "computed SMILES=O=C1C=C(OC2=CC(O)=C(OC)C(O)=C12)C=3C=CC(OC)=C(OC)C3" "license=License CC-BY-NC-SA 4.0 International" "author=Plant Biology, The Noble Foundation, Ardmore, OK, US/Dennis Fine, Daniel Wherritt, and Lloyd Sumner" "ionization=ESI" "isolation width=5" "collision gas=Nitrogen" "peak width=0.014" "date=2013-11-23 15:40:18+01:00" "column=Waters Acquity BEH C18 1.7um x 2.1 x 150 mm" "retention time=808.2" "raw data file=C:\Data\Confirmed Standards\Confirmed stds MSMS 22Nov13\Eupatilin (vial 272) MSMS.d" "computed mass accuracy=2.118598024533749" "computed mass error=-7.268520000138778E-4" "SPLASH=splash10-004i-0009000000-49ab4bc3de4a48b20802" "submitter=Aiko Barsch (Bruker)" "MoNA Rating=4.583333333333334"
Num Peaks: 7
313.0370 29.029029
314.0366 7.207207
328.0601 100.000000
329.0626 8.908909
330.0625 3.803804
343.0816 35.135135
344.0854 5.205205


Name: Eupatilin
Synon: $:00in-source
DB#: MetaboBASE0603
InChIKey: DRRWBCNQOKKKOL-UHFFFAOYSA-N
Precursor_type: [M-H]-
Spectrum_type: MS2
PrecursorMZ: 343.08
Instrument_type: LC-ESI-TOF
Instrument: impact HD
Ion_mode: N
Collision_energy: 50
Formula: C18H16O7
MW: 344
ExactMass: 344.089602852
Comments: "cas number=22368-21-4" "SMILES=COc1ccc(cc1OC)c2cc(=O)c3c(o2)cc(c(c3O)OC)O" "InChI=InChI=1S/C18H16O7/c1-22-12-5-4-9(6-14(12)23-2)13-7-10(19)16-15(25-13)8-11(20)18(24-3)17(16)21/h4-8,20-21H,1-3H3" "computed SMILES=O=C1C=C(OC2=CC(O)=C(OC)C(O)=C12)C=3C=CC(OC)=C(OC)C3" "license=License CC-BY-NC-SA 4.0 International" "author=Plant Biology, The Noble Foundation, Ardmore, OK, US/Dennis Fine, Daniel Wherritt, and Lloyd Sumner" "ionization=ESI" "isolation width=5" "collision gas=Nitrogen" "peak width=0.015" "date=2013-11-23 15:40:18+01:00" "column=Waters Acquity BEH C18 1.7um x 2.1 x 150 mm" "retention time=808.2" "raw data file=C:\Data\Confirmed Standards\Confirmed stds MSMS 22Nov13\Eupatilin (vial 272) MSMS.d" "computed mass accuracy=6.782243208610671" "computed mass error=-0.002326852000010149" "SPLASH=splash10-00dl-0190000000-38950da50de81e298c12" "submitter=Aiko Barsch (Bruker)" "MoNA Rating=4.545454545454546"
Num Peaks: 12
132.0222 22.022022
163.0050 17.317317
164.9869 20.520521
214.0297 21.821822
226.0260 21.821822
241.0139 23.723724
242.0229 62.462462
257.0093 21.021021
269.0112 24.324324
270.0166 100.000000
285.0359 17.617618
298.0119 49.249249


Name: Eupatilin
Synon: $:00in-source
DB#: MetaboBASE0604
InChIKey: DRRWBCNQOKKKOL-UHFFFAOYSA-N
Precursor_type: [M-H]-
Spectrum_type: MS2
PrecursorMZ: 343.08
Instrument_type: LC-ESI-TOF
Instrument: impact HD
Ion_mode: N
Collision_energy: 30
Formula: C18H16O7
MW: 344
ExactMass: 344.089602852
Comments: "cas number=22368-21-4" "SMILES=COc1ccc(cc1OC)c2cc(=O)c3c(o2)cc(c(c3O)OC)O" "InChI=InChI=1S/C18H16O7/c1-22-12-5-4-9(6-14(12)23-2)13-7-10(19)16-15(25-13)8-11(20)18(24-3)17(16)21/h4-8,20-21H,1-3H3" "computed SMILES=O=C1C=C(OC2=CC(O)=C(OC)C(O)=C12)C=3C=CC(OC)=C(OC)C3" "license=License CC-BY-NC-SA 4.0 International" "author=Plant Biology, The Noble Foundation, Ardmore, OK, US/Dennis Fine, Daniel Wherritt, and Lloyd Sumner" "ionization=ESI" "isolation width=5" "collision gas=Nitrogen" "peak width=0.012" "date=2013-11-23 15:40:18+01:00" "column=Waters Acquity BEH C18 1.7um x 2.1 x 150 mm" "retention time=808.2" "raw data file=C:\Data\Confirmed Standards\Confirmed stds MSMS 22Nov13\Eupatilin (vial 272) MSMS.d" "computed mass accuracy=6.782243208610671" "computed mass error=-0.002326852000010149" "SPLASH=splash10-03di-0029000000-97a3b9b712001536c733" "submitter=Aiko Barsch (Bruker)" "MoNA Rating=4.545454545454546"
Num Peaks: 11
242.0191 4.704705
270.0182 10.510511
283.0237 3.403403
285.0395 3.503504
298.0134 14.614615
299.0118 5.705706
313.0358 100.000000
314.0393 13.713714
327.0501 3.103103
328.0593 24.724725
329.0603 2.702703


Name: Eupatilin
Synon: $:00in-source
DB#: MetaboBASE0605
InChIKey: DRRWBCNQOKKKOL-UHFFFAOYSA-N
Precursor_type: [M-H]-
Spectrum_type: MS2
PrecursorMZ: 343.08
Instrument_type: LC-ESI-TOF
Instrument: impact HD
Ion_mode: N
Collision_energy: 40
Formula: C18H16O7
MW: 344
ExactMass: 344.089602852
Comments: "cas number=22368-21-4" "SMILES=COc1ccc(cc1OC)c2cc(=O)c3c(o2)cc(c(c3O)OC)O" "InChI=InChI=1S/C18H16O7/c1-22-12-5-4-9(6-14(12)23-2)13-7-10(19)16-15(25-13)8-11(20)18(24-3)17(16)21/h4-8,20-21H,1-3H3" "computed SMILES=O=C1C=C(OC2=CC(O)=C(OC)C(O)=C12)C=3C=CC(OC)=C(OC)C3" "license=License CC-BY-NC-SA 4.0 International" "author=Plant Biology, The Noble Foundation, Ardmore, OK, US/Dennis Fine, Daniel Wherritt, and Lloyd Sumner" "ionization=ESI" "isolation width=5" "collision gas=Nitrogen" "peak width=0.013" "date=2013-11-23 15:40:18+01:00" "column=Waters Acquity BEH C18 1.7um x 2.1 x 150 mm" "retention time=808.2" "raw data file=C:\Data\Confirmed Standards\Confirmed stds MSMS 22Nov13\Eupatilin (vial 272) MSMS.d" "computed mass accuracy=6.782243208610671" "computed mass error=-0.002326852000010149" "SPLASH=splash10-01ot-0093000000-e9d84a364e774239b476" "submitter=Aiko Barsch (Bruker)" "MoNA Rating=4.545454545454546"
Num Peaks: 9
226.0256 10.710711
242.0217 18.418418
269.0102 10.810811
270.0150 47.547548
285.0450 23.423423
298.0128 100.000000
299.0197 13.413413
313.0346 79.379379
314.0382 11.311311


Name: Eupatilin
Synon: $:00in-source
DB#: MetaboBASE0606
InChIKey: DRRWBCNQOKKKOL-UHFFFAOYSA-N
Precursor_type: [M-H]-
Spectrum_type: MS2
PrecursorMZ: 343.0839
Instrument_type: LC-ESI-TOF
Instrument: impact HD
Ion_mode: N
Collision_energy: 10
Formula: C18H16O7
MW: 344
ExactMass: 344.089602852
Comments: "cas number=22368-21-4" "SMILES=COc1ccc(cc1OC)c2cc(=O)c3c(o2)cc(c(c3O)OC)O" "InChI=InChI=1S/C18H16O7/c1-22-12-5-4-9(6-14(12)23-2)13-7-10(19)16-15(25-13)8-11(20)18(24-3)17(16)21/h4-8,20-21H,1-3H3" "computed SMILES=O=C1C=C(OC2=CC(O)=C(OC)C(O)=C12)C=3C=CC(OC)=C(OC)C3" "license=License CC-BY-NC-SA 4.0 International" "author=Plant Biology, The Noble Foundation, Ardmore, OK, US/Dennis Fine, Daniel Wherritt, and Lloyd Sumner" "ionization=ESI" "isolation width=5" "collision gas=Nitrogen" "peak width=0.016" "date=2013-11-23 15:40:18+01:00" "column=Waters Acquity BEH C18 1.7um x 2.1 x 150 mm" "retention time=808.2" "raw data file=C:\Data\Confirmed Standards\Confirmed stds MSMS 22Nov13\Eupatilin (vial 272) MSMS.d" "computed mass accuracy=4.5853157202481745" "computed mass error=0.0015731480000340525" "SPLASH=splash10-0006-0009000000-ed31e8ea447863ac91b0" "submitter=Aiko Barsch (Bruker)" "MoNA Rating=4.583333333333334"
Num Peaks: 4
328.0615 3.403403
343.0839 100.000000
344.0862 13.813814
345.0905 2.902903


Name: Eupatilin
Synon: $:00in-source
DB#: MetaboBASE0607
InChIKey: DRRWBCNQOKKKOL-UHFFFAOYSA-N
Instrument_type: LC-ESI-TOF
Instrument: impact HD
Ion_mode: N
Formula: C18H16O7
MW: 344
ExactMass: 344.089602852
Comments: "cas number=22368-21-4" "SMILES=COc1ccc(cc1OC)c2cc(=O)c3c(o2)cc(c(c3O)OC)O" "InChI=InChI=1S/C18H16O7/c1-22-12-5-4-9(6-14(12)23-2)13-7-10(19)16-15(25-13)8-11(20)18(24-3)17(16)21/h4-8,20-21H,1-3H3" "computed SMILES=O=C1C=C(OC2=CC(O)=C(OC)C(O)=C12)C=3C=CC(OC)=C(OC)C3" "license=License CC-BY-NC-SA 4.0 International" "author=Plant Biology, The Noble Foundation, Ardmore, OK, US/Dennis Fine, Daniel Wherritt, and Lloyd Sumner" "ionization=ESI" "collision gas=Nitrogen" "peak width=0.016" "date=2013-11-23 15:40:18+01:00" "column=Waters Acquity BEH C18 1.7um x 2.1 x 150 mm" "retention time=808.2" "raw data file=C:\Data\Confirmed Standards\Confirmed stds MSMS 22Nov13\Eupatilin (vial 272) MSMS.d" "SPLASH=splash10-0006-0009000000-2dbf9806041cf0da0dd2" "submitter=Aiko Barsch (Bruker)" "MoNA Rating=3.888888888888889"
Num Peaks: 16
112.9859 2.802803
116.9290 1.401401
174.9571 1.201201
235.9258 2.002002
242.9433 3.003003
248.9604 2.802803
304.9143 1.401401
310.9303 1.401401
316.9493 1.301301
343.0836 100.000000
344.0870 15.315315
345.0872 2.202202
378.9214 0.900901
411.0698 3.603604
412.0712 1.301301
666.0228 2.102102


Name: Gardenin A
Synon: $:00in-source
DB#: MetaboBASE0608
InChIKey: MQBFFYQCZCKSBX-UHFFFAOYSA-N
Spectrum_type: MS2
PrecursorMZ: 313.0713
Instrument_type: LC-ESI-TOF
Instrument: impact HD
Ion_mode: N
Collision_energy: 10
Formula: C21H22O9
MW: 418
ExactMass: 418.126382284
Comments: "cas number=21187-73-5" "SMILES=COc1cc(cc(c1OC)OC)c2cc(=O)c3c(c(c(c(c3o2)OC)OC)OC)O" "InChI=InChI=1S/C21H22O9/c1-24-13-7-10(8-14(25-2)17(13)26-3)12-9-11(22)15-16(23)19(27-4)21(29-6)20(28-5)18(15)30-12/h7-9,23H,1-6H3" "computed SMILES=O=C1C=C(OC2=C(OC)C(OC)=C(OC)C(O)=C12)C=3C=C(OC)C(OC)=C(OC)C3" "license=License CC-BY-NC-SA 4.0 International" "author=Plant Biology, The Noble Foundation, Ardmore, OK, US/Dennis Fine, Daniel Wherritt, and Lloyd Sumner" "ionization=ESI" "isolation width=5" "collision gas=Nitrogen" "peak width=0.014" "date=2013-11-23 21:06:31+01:00" "column=Waters Acquity BEH C18 1.7um x 2.1 x 150 mm" "retention time=768" "raw data file=C:\Data\Confirmed Standards\Confirmed stds MSMS 22Nov13\Gardenin A (vial 285) MSMS.d" "SPLASH=splash10-03di-0009000000-0a4078adee6e50cab185" "submitter=Aiko Barsch (Bruker)" "MoNA Rating=3.125"
Num Peaks: 6
283.0211 1.701702
298.0474 2.602603
299.0568 1.301301
313.0713 100.000000
314.0755 14.114114
315.0774 2.302302


Name: Gardenin A
Synon: $:00in-source
DB#: MetaboBASE0609
InChIKey: MQBFFYQCZCKSBX-UHFFFAOYSA-N
Spectrum_type: MS2
PrecursorMZ: 313.0703
Instrument_type: LC-ESI-TOF
Instrument: impact HD
Ion_mode: N
Collision_energy: 20
Formula: C21H22O9
MW: 418
ExactMass: 418.126382284
Comments: "cas number=21187-73-5" "SMILES=COc1cc(cc(c1OC)OC)c2cc(=O)c3c(c(c(c(c3o2)OC)OC)OC)O" "InChI=InChI=1S/C21H22O9/c1-24-13-7-10(8-14(25-2)17(13)26-3)12-9-11(22)15-16(23)19(27-4)21(29-6)20(28-5)18(15)30-12/h7-9,23H,1-6H3" "computed SMILES=O=C1C=C(OC2=C(OC)C(OC)=C(OC)C(O)=C12)C=3C=C(OC)C(OC)=C(OC)C3" "license=License CC-BY-NC-SA 4.0 International" "author=Plant Biology, The Noble Foundation, Ardmore, OK, US/Dennis Fine, Daniel Wherritt, and Lloyd Sumner" "ionization=ESI" "isolation width=5" "collision gas=Nitrogen" "peak width=0.014" "date=2013-11-23 21:06:31+01:00" "column=Waters Acquity BEH C18 1.7um x 2.1 x 150 mm" "retention time=768" "raw data file=C:\Data\Confirmed Standards\Confirmed stds MSMS 22Nov13\Gardenin A (vial 285) MSMS.d" "SPLASH=splash10-01ot-0096000000-2ea0b99e7858e0d167db" "submitter=Aiko Barsch (Bruker)" "MoNA Rating=3.125"
Num Peaks: 12
255.0307 5.605606
268.0404 4.304304
269.0460 13.613614
270.0471 2.302302
283.0229 27.127127
284.0288 6.306306
297.0399 18.418418
298.0481 91.191191
299.0502 14.414414
313.0703 100.000000
314.0741 18.818819
315.0751 6.906907


Name: Gardenin A
Synon: $:00in-source
DB#: MetaboBASE0610
InChIKey: MQBFFYQCZCKSBX-UHFFFAOYSA-N
Spectrum_type: MS2
PrecursorMZ: 315.09
Instrument_type: LC-ESI-TOF
Instrument: impact HD
Ion_mode: N
Collision_energy: 40
Formula: C21H22O9
MW: 418
ExactMass: 418.126382284
Comments: "cas number=21187-73-5" "SMILES=COc1cc(cc(c1OC)OC)c2cc(=O)c3c(c(c(c(c3o2)OC)OC)OC)O" "InChI=InChI=1S/C21H22O9/c1-24-13-7-10(8-14(25-2)17(13)26-3)12-9-11(22)15-16(23)19(27-4)21(29-6)20(28-5)18(15)30-12/h7-9,23H,1-6H3" "computed SMILES=O=C1C=C(OC2=C(OC)C(OC)=C(OC)C(O)=C12)C=3C=C(OC)C(OC)=C(OC)C3" "license=License CC-BY-NC-SA 4.0 International" "author=Plant Biology, The Noble Foundation, Ardmore, OK, US/Dennis Fine, Daniel Wherritt, and Lloyd Sumner" "ionization=ESI" "isolation width=5" "collision gas=Nitrogen" "peak width=0.015" "date=2013-11-23 21:06:31+01:00" "column=Waters Acquity BEH C18 1.7um x 2.1 x 150 mm" "retention time=768" "raw data file=C:\Data\Confirmed Standards\Confirmed stds MSMS 22Nov13\Gardenin A (vial 285) MSMS.d" "SPLASH=splash10-0a4i-0090000000-3c035a754493656dc09e" "submitter=Aiko Barsch (Bruker)" "MoNA Rating=3.125"
Num Peaks: 11
225.0548 2.302302
240.0398 2.702703
255.0291 100.000000
256.0333 17.517518
257.0361 2.802803
269.0453 15.215215
281.0461 2.602603
283.0236 13.113113
295.0236 3.303303
297.0391 25.825826
298.0439 5.005005


Name: Gardenin A
Synon: $:00in-source
DB#: MetaboBASE0611
InChIKey: MQBFFYQCZCKSBX-UHFFFAOYSA-N
Spectrum_type: MS2
PrecursorMZ: 315.09
Instrument_type: LC-ESI-TOF
Instrument: impact HD
Ion_mode: N
Collision_energy: 30
Formula: C21H22O9
MW: 418
ExactMass: 418.126382284
Comments: "cas number=21187-73-5" "SMILES=COc1cc(cc(c1OC)OC)c2cc(=O)c3c(c(c(c(c3o2)OC)OC)OC)O" "InChI=InChI=1S/C21H22O9/c1-24-13-7-10(8-14(25-2)17(13)26-3)12-9-11(22)15-16(23)19(27-4)21(29-6)20(28-5)18(15)30-12/h7-9,23H,1-6H3" "computed SMILES=O=C1C=C(OC2=C(OC)C(OC)=C(OC)C(O)=C12)C=3C=C(OC)C(OC)=C(OC)C3" "license=License CC-BY-NC-SA 4.0 International" "author=Plant Biology, The Noble Foundation, Ardmore, OK, US/Dennis Fine, Daniel Wherritt, and Lloyd Sumner" "ionization=ESI" "isolation width=5" "collision gas=Nitrogen" "peak width=0.015" "date=2013-11-23 21:06:31+01:00" "column=Waters Acquity BEH C18 1.7um x 2.1 x 150 mm" "retention time=768" "raw data file=C:\Data\Confirmed Standards\Confirmed stds MSMS 22Nov13\Gardenin A (vial 285) MSMS.d" "SPLASH=splash10-0532-0090000000-71066dbdd3367e8634e3" "submitter=Aiko Barsch (Bruker)" "MoNA Rating=3.125"
Num Peaks: 13
255.0292 77.977978
256.0321 11.411411
268.0363 8.508509
269.0446 47.947948
270.0457 7.607608
281.0449 3.703704
283.0240 100.000000
284.0280 17.917918
285.0305 5.205205
297.0398 97.497497
298.0458 45.345345
299.0499 10.610611
313.0706 11.211211


Name: Gardenin A
Synon: $:00in-source
DB#: MetaboBASE0612
InChIKey: MQBFFYQCZCKSBX-UHFFFAOYSA-N
Instrument_type: LC-ESI-TOF
Instrument: impact HD
Ion_mode: N
Formula: C21H22O9
MW: 418
ExactMass: 418.126382284
Comments: "cas number=21187-73-5" "SMILES=COc1cc(cc(c1OC)OC)c2cc(=O)c3c(c(c(c(c3o2)OC)OC)OC)O" "InChI=InChI=1S/C21H22O9/c1-24-13-7-10(8-14(25-2)17(13)26-3)12-9-11(22)15-16(23)19(27-4)21(29-6)20(28-5)18(15)30-12/h7-9,23H,1-6H3" "computed SMILES=O=C1C=C(OC2=C(OC)C(OC)=C(OC)C(O)=C12)C=3C=C(OC)C(OC)=C(OC)C3" "license=License CC-BY-NC-SA 4.0 International" "author=Plant Biology, The Noble Foundation, Ardmore, OK, US/Dennis Fine, Daniel Wherritt, and Lloyd Sumner" "ionization=ESI" "collision gas=Nitrogen" "peak width=0.016" "date=2013-11-23 21:06:31+01:00" "column=Waters Acquity BEH C18 1.7um x 2.1 x 150 mm" "retention time=768" "raw data file=C:\Data\Confirmed Standards\Confirmed stds MSMS 22Nov13\Gardenin A (vial 285) MSMS.d" "SPLASH=splash10-03di-0009000000-3392b930c7dbdf6b9413" "submitter=Aiko Barsch (Bruker)" "MoNA Rating=3.888888888888889"
Num Peaks: 15
112.9857 1.101101
116.9283 1.001001
221.0820 0.900901
235.9251 1.001001
242.9427 1.301301
248.9588 1.101101
289.0687 1.001001
304.9133 0.700701
313.0716 100.000000
314.0749 11.911912
315.0773 1.901902
349.0490 0.700701
381.0592 2.002002
627.1506 7.607608
628.1547 2.402402


Name: Hispidulin
Synon: $:00in-source
DB#: MetaboBASE0613
InChIKey: IHFBPDAQLQOCBX-UHFFFAOYSA-N
Precursor_type: [M-H]-
Spectrum_type: MS2
PrecursorMZ: 299.0565
Instrument_type: LC-ESI-TOF
Instrument: impact HD
Ion_mode: N
Collision_energy: 10
Formula: C16H12O6
MW: 300
ExactMass: 300.06338810399996
Comments: "cas number=1447-88-7" "SMILES=COc1c(cc2c(c1O)c(=O)cc(o2)c3ccc(cc3)O)O" "InChI=InChI=1S/C16H12O6/c1-21-16-11(19)7-13-14(15(16)20)10(18)6-12(22-13)8-2-4-9(17)5-3-8/h2-7,17,19-20H,1H3" "computed SMILES=O=C1C=C(OC2=CC(O)=C(OC)C(O)=C12)C=3C=CC(O)=CC3" "license=License CC-BY-NC-SA 4.0 International" "author=Plant Biology, The Noble Foundation, Ardmore, OK, US/Dennis Fine, Daniel Wherritt, and Lloyd Sumner" "ionization=ESI" "isolation width=5" "collision gas=Nitrogen" "peak width=0.011" "date=2013-11-23 12:16:34+01:00" "column=Waters Acquity BEH C18 1.7um x 2.1 x 150 mm" "retention time=621" "raw data file=C:\Data\Confirmed Standards\Confirmed stds MSMS 22Nov13\Hispidulin (vial 267) MSMS.d" "computed mass accuracy=1.2970659392569377" "computed mass error=3.878960000633924E-4" "SPLASH=splash10-0002-0091000000-2e3c06a38cc742c5a900" "submitter=Aiko Barsch (Bruker)" "MoNA Rating=4.583333333333334"
Num Peaks: 7
284.0327 11.411411
285.0360 2.002002
286.0385 0.200200
299.0565 100.000000
300.0596 12.012012
301.0616 1.501502
302.0622 0.200200


Name: Hispidulin
Synon: $:00in-source
DB#: MetaboBASE0614
InChIKey: IHFBPDAQLQOCBX-UHFFFAOYSA-N
Precursor_type: [M-H]-
Spectrum_type: MS2
PrecursorMZ: 299.0562
Instrument_type: LC-ESI-TOF
Instrument: impact HD
Ion_mode: N
Collision_energy: 20
Formula: C16H12O6
MW: 300
ExactMass: 300.06338810399996
Comments: "cas number=1447-88-7" "SMILES=COc1c(cc2c(c1O)c(=O)cc(o2)c3ccc(cc3)O)O" "InChI=InChI=1S/C16H12O6/c1-21-16-11(19)7-13-14(15(16)20)10(18)6-12(22-13)8-2-4-9(17)5-3-8/h2-7,17,19-20H,1H3" "computed SMILES=O=C1C=C(OC2=CC(O)=C(OC)C(O)=C12)C=3C=CC(O)=CC3" "license=License CC-BY-NC-SA 4.0 International" "author=Plant Biology, The Noble Foundation, Ardmore, OK, US/Dennis Fine, Daniel Wherritt, and Lloyd Sumner" "ionization=ESI" "isolation width=5" "collision gas=Nitrogen" "peak width=0.015" "date=2013-11-23 12:16:34+01:00" "column=Waters Acquity BEH C18 1.7um x 2.1 x 150 mm" "retention time=621" "raw data file=C:\Data\Confirmed Standards\Confirmed stds MSMS 22Nov13\Hispidulin (vial 267) MSMS.d" "computed mass accuracy=0.29391131173676305" "computed mass error=8.789600002501174E-5" "SPLASH=splash10-001i-0090000000-4a82ea952bce7ac89d70" "submitter=Aiko Barsch (Bruker)" "MoNA Rating=4.615384615384616"
Num Peaks: 13
136.9888 0.200200
227.0356 0.300300
228.0431 0.200200
233.2150 0.100100
255.0299 0.100100
256.0378 0.200200
283.0253 0.400400
284.0331 100.000000
285.0363 9.909910
286.0385 1.601602
299.0562 10.810811
300.0593 1.501502
301.0624 0.200200


Name: Hispidulin
Synon: $:00in-source
DB#: MetaboBASE0615
InChIKey: IHFBPDAQLQOCBX-UHFFFAOYSA-N
Precursor_type: [M-H]-
Spectrum_type: MS2
PrecursorMZ: 299.05
Instrument_type: LC-ESI-TOF
Instrument: impact HD
Ion_mode: N
Collision_energy: 40
Formula: C16H12O6
MW: 300
ExactMass: 300.06338810399996
Comments: "cas number=1447-88-7" "SMILES=COc1c(cc2c(c1O)c(=O)cc(o2)c3ccc(cc3)O)O" "InChI=InChI=1S/C16H12O6/c1-21-16-11(19)7-13-14(15(16)20)10(18)6-12(22-13)8-2-4-9(17)5-3-8/h2-7,17,19-20H,1H3" "computed SMILES=O=C1C=C(OC2=CC(O)=C(OC)C(O)=C12)C=3C=CC(O)=CC3" "license=License CC-BY-NC-SA 4.0 International" "author=Plant Biology, The Noble Foundation, Ardmore, OK, US/Dennis Fine, Daniel Wherritt, and Lloyd Sumner" "ionization=ESI" "isolation width=5" "collision gas=Nitrogen" "peak width=0.017" "date=2013-11-23 12:16:34+01:00" "column=Waters Acquity BEH C18 1.7um x 2.1 x 150 mm" "retention time=621" "raw data file=C:\Data\Confirmed Standards\Confirmed stds MSMS 22Nov13\Hispidulin (vial 267) MSMS.d" "computed mass accuracy=20.438401604927044" "computed mass error=-0.006112103999953433" "SPLASH=splash10-0040-0690000000-5fbad78704cd6c99bdca" "submitter=Aiko Barsch (Bruker)" "MoNA Rating=4.545454545454546"
Num Peaks: 11
117.0350 28.628629
136.9878 100.000000
156.0562 19.519520
183.0447 23.423423
186.0334 22.222222
211.0398 19.619620
227.0350 56.156156
228.0426 26.626627
255.0297 26.026026
283.0259 47.247247
284.0327 81.881882


Name: Hispidulin
Synon: $:00in-source
DB#: MetaboBASE0616
InChIKey: IHFBPDAQLQOCBX-UHFFFAOYSA-N
Precursor_type: [M-H]-
Spectrum_type: MS2
PrecursorMZ: 299.0566
Instrument_type: LC-ESI-TOF
Instrument: impact HD
Ion_mode: N
Collision_energy: 30
Formula: C16H12O6
MW: 300
ExactMass: 300.06338810399996
Comments: "cas number=1447-88-7" "SMILES=COc1c(cc2c(c1O)c(=O)cc(o2)c3ccc(cc3)O)O" "InChI=InChI=1S/C16H12O6/c1-21-16-11(19)7-13-14(15(16)20)10(18)6-12(22-13)8-2-4-9(17)5-3-8/h2-7,17,19-20H,1H3" "computed SMILES=O=C1C=C(OC2=CC(O)=C(OC)C(O)=C12)C=3C=CC(O)=CC3" "license=License CC-BY-NC-SA 4.0 International" "author=Plant Biology, The Noble Foundation, Ardmore, OK, US/Dennis Fine, Daniel Wherritt, and Lloyd Sumner" "ionization=ESI" "isolation width=5" "collision gas=Nitrogen" "collision energy 2=30" "peak width=0.014" "date=2013-11-23 12:16:34+01:00" "column=Waters Acquity BEH C18 1.7um x 2.1 x 150 mm" "raw data file=C:\Data\Confirmed Standards\Confirmed stds MSMS 22Nov13\Hispidulin (vial 267) MSMS.d" "computed mass accuracy=1.6314503677173162" "computed mass error=4.8789600003829037E-4" "SPLASH=splash10-001i-0090000000-5978ba0a9b9e42e72060" "submitter=Aiko Barsch (Bruker)" "MoNA Rating=4.090909090909091"
Num Peaks: 30
117.0354 0.600601
136.9876 8.508509
137.9912 1.001001
149.9952 0.400400
159.0463 0.400400
164.0108 0.700701
165.9917 0.600601
183.0463 0.400400
184.0527 0.500501
186.0335 1.001001
200.0497 1.101101
211.0399 0.600601
212.0485 2.102102
214.0303 0.400400
227.0354 5.205205
228.0424 4.404404
229.0461 0.500501
238.0280 0.400400
239.0359 1.301301
240.0415 0.900901
255.0303 1.401401
256.0375 3.503504
257.0379 0.400400
260.0352 0.500501
266.0232 0.900901
283.0258 5.505506
284.0330 100.000000
285.0359 10.810811
286.0366 1.401401
299.0566 0.400400


Name: Hispidulin
Synon: $:00in-source
DB#: MetaboBASE0617
InChIKey: IHFBPDAQLQOCBX-UHFFFAOYSA-N
Precursor_type: [M-H]-
Spectrum_type: MS2
PrecursorMZ: 299.05
Instrument_type: LC-ESI-TOF
Instrument: impact HD
Ion_mode: N
Collision_energy: 50
Formula: C16H12O6
MW: 300
ExactMass: 300.06338810399996
Comments: "cas number=1447-88-7" "SMILES=COc1c(cc2c(c1O)c(=O)cc(o2)c3ccc(cc3)O)O" "InChI=InChI=1S/C16H12O6/c1-21-16-11(19)7-13-14(15(16)20)10(18)6-12(22-13)8-2-4-9(17)5-3-8/h2-7,17,19-20H,1H3" "computed SMILES=O=C1C=C(OC2=CC(O)=C(OC)C(O)=C12)C=3C=CC(O)=CC3" "license=License CC-BY-NC-SA 4.0 International" "author=Plant Biology, The Noble Foundation, Ardmore, OK, US/Dennis Fine, Daniel Wherritt, and Lloyd Sumner" "ionization=ESI" "isolation width=5" "collision gas=Nitrogen" "peak width=0.012" "date=2013-11-23 12:16:34+01:00" "column=Waters Acquity BEH C18 1.7um x 2.1 x 150 mm" "retention time=621" "raw data file=C:\Data\Confirmed Standards\Confirmed stds MSMS 22Nov13\Hispidulin (vial 267) MSMS.d" "computed mass accuracy=20.438401604927044" "computed mass error=-0.006112103999953433" "SPLASH=splash10-015i-0920000000-8775d11ac816cea8c962" "submitter=Aiko Barsch (Bruker)" "MoNA Rating=4.545454545454546"
Num Peaks: 17
116.0269 28.428428
117.0350 100.000000
118.0383 16.616617
119.0157 15.515516
130.0412 19.319319
136.9879 43.743744
139.0032 14.814815
143.0510 15.815816
158.0347 22.622623
167.0005 16.216216
183.0449 43.743744
185.0259 29.329329
199.0394 19.919920
200.0463 17.617618
227.0358 51.851852
239.0384 16.716717
283.0253 22.722723


Name: Hispidulin
Synon: $:00in-source
DB#: MetaboBASE0618
InChIKey: IHFBPDAQLQOCBX-UHFFFAOYSA-N
Instrument_type: LC-ESI-TOF
Instrument: impact HD
Ion_mode: N
Formula: C16H12O6
MW: 300
ExactMass: 300.06338810399996
Comments: "cas number=1447-88-7" "SMILES=COc1c(cc2c(c1O)c(=O)cc(o2)c3ccc(cc3)O)O" "InChI=InChI=1S/C16H12O6/c1-21-16-11(19)7-13-14(15(16)20)10(18)6-12(22-13)8-2-4-9(17)5-3-8/h2-7,17,19-20H,1H3" "computed SMILES=O=C1C=C(OC2=CC(O)=C(OC)C(O)=C12)C=3C=CC(O)=CC3" "license=License CC-BY-NC-SA 4.0 International" "author=Plant Biology, The Noble Foundation, Ardmore, OK, US/Dennis Fine, Daniel Wherritt, and Lloyd Sumner" "ionization=ESI" "collision gas=Nitrogen" "peak width=0.014" "date=2013-11-23 12:16:34+01:00" "column=Waters Acquity BEH C18 1.7um x 2.1 x 150 mm" "retention time=621" "raw data file=C:\Data\Confirmed Standards\Confirmed stds MSMS 22Nov13\Hispidulin (vial 267) MSMS.d" "SPLASH=splash10-0002-0091000000-9cb8af9b78593515a786" "submitter=Aiko Barsch (Bruker)" "MoNA Rating=3.888888888888889"
Num Peaks: 25
112.9867 0.200200
116.9286 0.300300
174.9561 0.200200
235.9266 0.300300
242.9442 0.200200
248.9615 0.200200
284.0325 1.101101
285.0339 0.200200
299.0566 100.000000
300.0599 12.812813
301.0617 1.401401
302.0654 0.200200
304.9160 0.200200
335.0319 0.200200
367.0424 0.700701
368.0461 0.200200
429.0133 0.200200
489.9844 0.100100
599.1196 1.001001
600.1261 0.300300
621.1014 0.100100
666.0230 0.300300
683.0712 0.200200
689.0901 0.100100
744.0479 0.100100


Name: Isosakuranin
Synon: $:00in-source
DB#: MetaboBASE0619
InChIKey: KEEWIHDTSNESJZ-NKGQIIMOSA-N
Spectrum_type: MS2
PrecursorMZ: 285.0771
Instrument_type: LC-ESI-TOF
Instrument: impact HD
Ion_mode: N
Collision_energy: 10
Formula: C22H24O10
MW: 448
ExactMass: 448.13694696799996
Comments: "cas number=491-69-0" "computed SMILES=O=C1C2=C(O)C=C(OC3OC(CO)C(O)C(O)C3O)C=C2OC(C4=CC=C(OC)C=C4)C1" "computed InChI=InChI=1S/C22H24O10/c1-29-11-4-2-10(3-5-11)15-8-14(25)18-13(24)6-12(7-16(18)31-15)30-22-21(28)20(27)19(26)17(9-23)32-22/h2-7,15,17,19-24,26-28H,8-9H2,1H3" "license=License CC-BY-NC-SA 4.0 International" "author=Plant Biology, The Noble Foundation, Ardmore, OK, US/Dennis Fine, Daniel Wherritt, and Lloyd Sumner" "ionization=ESI" "isolation width=5" "collision gas=Nitrogen" "peak width=0.015" "date=2014-08-07 00:51:00+02:00" "column=Waters Acquity BEH C18 1.7um x 2.1 x 150 mm" "retention time=603" "raw data file=C:\Data\Confirmed standards 24_July_2014\MSMS\Isosakuranin vial 274_1-C,4_01_559.d" "SPLASH=splash10-000i-0090000000-882bca1db2a722caca30" "submitter=Aiko Barsch (Bruker)" "MoNA Rating=3.125"
Num Peaks: 5
243.0645 0.400400
270.0541 0.500501
285.0771 100.000000
286.0798 15.615616
287.0815 1.401401


Name: Isosakuranin
Synon: $:00in-source
DB#: MetaboBASE0620
InChIKey: KEEWIHDTSNESJZ-NKGQIIMOSA-N
Spectrum_type: MS2
PrecursorMZ: 283.06
Instrument_type: LC-ESI-TOF
Instrument: impact HD
Ion_mode: N
Collision_energy: 10
Formula: C22H24O10
MW: 448
ExactMass: 448.13694696799996
Comments: "cas number=491-69-0" "computed SMILES=O=C1C2=C(O)C=C(OC3OC(CO)C(O)C(O)C3O)C=C2OC(C4=CC=C(OC)C=C4)C1" "computed InChI=InChI=1S/C22H24O10/c1-29-11-4-2-10(3-5-11)15-8-14(25)18-13(24)6-12(7-16(18)31-15)30-22-21(28)20(27)19(26)17(9-23)32-22/h2-7,15,17,19-24,26-28H,8-9H2,1H3" "license=License CC-BY-NC-SA 4.0 International" "author=Plant Biology, The Noble Foundation, Ardmore, OK, US/Dennis Fine, Daniel Wherritt, and Lloyd Sumner" "ionization=ESI" "isolation width=5" "collision gas=Nitrogen" "peak width=0.018" "date=2014-07-26 12:46:39+02:00" "column=Waters Acquity BEH C18 1.7um x 2.1 x 150 mm" "retention time=603" "raw data file=C:\Data\Confirmed standards 24_July_2014\MSMS\Isosakuranin vial 274_1-C,4_01_501.d" "SPLASH=splash10-000i-0090000000-76254d826a5c69c4f88a" "submitter=Aiko Barsch (Bruker)" "MoNA Rating=3.125"
Num Peaks: 5
243.0501 0.700701
270.0429 0.600601
285.0638 100.000000
285.1056 0.500501
286.0673 7.307307


Name: Isosakuranin
Synon: $:00in-source
DB#: MetaboBASE0621
InChIKey: KEEWIHDTSNESJZ-NKGQIIMOSA-N
Instrument_type: LC-ESI-TOF
Instrument: impact HD
Ion_mode: N
Formula: C22H24O10
MW: 448
ExactMass: 448.13694696799996
Comments: "cas number=491-69-0" "computed SMILES=O=C1C2=C(O)C=C(OC3OC(CO)C(O)C(O)C3O)C=C2OC(C4=CC=C(OC)C=C4)C1" "computed InChI=InChI=1S/C22H24O10/c1-29-11-4-2-10(3-5-11)15-8-14(25)18-13(24)6-12(7-16(18)31-15)30-22-21(28)20(27)19(26)17(9-23)32-22/h2-7,15,17,19-24,26-28H,8-9H2,1H3" "license=License CC-BY-NC-SA 4.0 International" "author=Plant Biology, The Noble Foundation, Ardmore, OK, US/Dennis Fine, Daniel Wherritt, and Lloyd Sumner" "ionization=ESI" "collision gas=Nitrogen" "peak width=0.014" "date=2014-01-11 05:19:03+01:00" "column=Waters Acquity BEH C18 1.7um x 2.1 x 150 mm" "retention time=603" "raw data file=C:\Data\Confirmed Standards\14Jan10 Confirmed stds MSMS\Isosakuranin (vial 274).d" "SPLASH=splash10-0006-0000900002-957a3621e281450c1951" "submitter=Aiko Barsch (Bruker)" "MoNA Rating=3.888888888888889"
Num Peaks: 16
112.9856 1.001001
285.0773 4.304304
447.1301 16.616617
448.1323 3.403403
493.1358 100.000000
494.1390 23.423423
495.1420 3.203203
561.1210 1.201201
895.2676 1.001001
941.2715 22.722723
942.2751 10.210210
943.2759 3.003003
963.2549 1.101101
1343.3994 1.201201
1389.4083 2.302302
1390.4153 1.601602


Name: Isosakuranin
Synon: $:00in-source
DB#: MetaboBASE0622
InChIKey: KEEWIHDTSNESJZ-NKGQIIMOSA-N
Spectrum_type: MS2
PrecursorMZ: 285.08
Instrument_type: LC-ESI-TOF
Instrument: impact HD
Ion_mode: N
Collision_energy: 50
Formula: C22H24O10
MW: 448
ExactMass: 448.13694696799996
Comments: "cas number=491-69-0" "computed SMILES=O=C1C2=C(O)C=C(OC3OC(CO)C(O)C(O)C3O)C=C2OC(C4=CC=C(OC)C=C4)C1" "computed InChI=InChI=1S/C22H24O10/c1-29-11-4-2-10(3-5-11)15-8-14(25)18-13(24)6-12(7-16(18)31-15)30-22-21(28)20(27)19(26)17(9-23)32-22/h2-7,15,17,19-24,26-28H,8-9H2,1H3" "license=License CC-BY-NC-SA 4.0 International" "author=Plant Biology, The Noble Foundation, Ardmore, OK, US/Dennis Fine, Daniel Wherritt, and Lloyd Sumner" "ionization=ESI" "isolation width=5" "collision gas=Nitrogen" "peak width=0.017" "date=2014-08-07 00:51:00+02:00" "column=Waters Acquity BEH C18 1.7um x 2.1 x 150 mm" "retention time=603" "raw data file=C:\Data\Confirmed standards 24_July_2014\MSMS\Isosakuranin vial 274_1-C,4_01_559.d" "SPLASH=splash10-0a4r-0900000000-be8adaf5843bd1f00dca" "submitter=Aiko Barsch (Bruker)" "MoNA Rating=3.125"
Num Peaks: 12
107.0141 17.917918
108.0213 100.000000
117.0362 25.425425
119.0494 33.433433
130.0408 11.811812
136.0165 82.982983
151.0030 17.717718
159.0452 30.030030
164.0096 15.815816
186.0319 17.417417
227.0342 28.928929
1446.6490 12.112112


Name: Isosakuranin
Synon: $:00in-source
DB#: MetaboBASE0623
InChIKey: KEEWIHDTSNESJZ-NKGQIIMOSA-N
Spectrum_type: MS2
PrecursorMZ: 283.06
Instrument_type: LC-ESI-TOF
Instrument: impact HD
Ion_mode: N
Collision_energy: 40
Formula: C22H24O10
MW: 448
ExactMass: 448.13694696799996
Comments: "cas number=491-69-0" "computed SMILES=O=C1C2=C(O)C=C(OC3OC(CO)C(O)C(O)C3O)C=C2OC(C4=CC=C(OC)C=C4)C1" "computed InChI=InChI=1S/C22H24O10/c1-29-11-4-2-10(3-5-11)15-8-14(25)18-13(24)6-12(7-16(18)31-15)30-22-21(28)20(27)19(26)17(9-23)32-22/h2-7,15,17,19-24,26-28H,8-9H2,1H3" "license=License CC-BY-NC-SA 4.0 International" "author=Plant Biology, The Noble Foundation, Ardmore, OK, US/Dennis Fine, Daniel Wherritt, and Lloyd Sumner" "ionization=ESI" "isolation width=5" "collision gas=Nitrogen" "peak width=0.02" "date=2014-07-26 12:46:39+02:00" "column=Waters Acquity BEH C18 1.7um x 2.1 x 150 mm" "retention time=603" "raw data file=C:\Data\Confirmed standards 24_July_2014\MSMS\Isosakuranin vial 274_1-C,4_01_501.d" "SPLASH=splash10-0a4r-0920000000-02eef09c1de0afd9f9ec" "submitter=Aiko Barsch (Bruker)" "MoNA Rating=3.125"
Num Peaks: 11
107.0117 23.223223
108.0188 96.396396
136.0192 100.000000
151.0040 30.130130
159.0457 27.627628
164.0102 72.572573
195.9916 19.819820
200.0373 28.928929
227.0217 53.253253
243.0518 15.215215
285.0633 14.014014


Name: Isosakuranin
Synon: $:00in-source
DB#: MetaboBASE0624
InChIKey: KEEWIHDTSNESJZ-NKGQIIMOSA-N
Spectrum_type: MS2
PrecursorMZ: 283.06
Instrument_type: LC-ESI-TOF
Instrument: impact HD
Ion_mode: N
Collision_energy: 20
Formula: C22H24O10
MW: 448
ExactMass: 448.13694696799996
Comments: "cas number=491-69-0" "computed SMILES=O=C1C2=C(O)C=C(OC3OC(CO)C(O)C(O)C3O)C=C2OC(C4=CC=C(OC)C=C4)C1" "computed InChI=InChI=1S/C22H24O10/c1-29-11-4-2-10(3-5-11)15-8-14(25)18-13(24)6-12(7-16(18)31-15)30-22-21(28)20(27)19(26)17(9-23)32-22/h2-7,15,17,19-24,26-28H,8-9H2,1H3" "license=License CC-BY-NC-SA 4.0 International" "author=Plant Biology, The Noble Foundation, Ardmore, OK, US/Dennis Fine, Daniel Wherritt, and Lloyd Sumner" "ionization=ESI" "isolation width=5" "collision gas=Nitrogen" "peak width=0.019" "date=2014-07-26 12:46:39+02:00" "column=Waters Acquity BEH C18 1.7um x 2.1 x 150 mm" "retention time=603" "raw data file=C:\Data\Confirmed standards 24_July_2014\MSMS\Isosakuranin vial 274_1-C,4_01_501.d" "SPLASH=splash10-000i-0090000000-52054424b425b99a9610" "submitter=Aiko Barsch (Bruker)" "MoNA Rating=3.125"
Num Peaks: 10
151.0054 2.802803
164.0104 4.904905
195.9919 1.701702
217.0699 0.900901
241.0719 1.901902
243.0498 11.011011
244.0541 0.900901
270.0388 6.206206
285.0631 100.000000
286.0666 9.009009


Name: Isosakuranin
Synon: $:00in-source
DB#: MetaboBASE0625
InChIKey: KEEWIHDTSNESJZ-NKGQIIMOSA-N
Spectrum_type: MS2
PrecursorMZ: 283.06
Instrument_type: LC-ESI-TOF
Instrument: impact HD
Ion_mode: N
Collision_energy: 30
Formula: C22H24O10
MW: 448
ExactMass: 448.13694696799996
Comments: "cas number=491-69-0" "computed SMILES=O=C1C2=C(O)C=C(OC3OC(CO)C(O)C(O)C3O)C=C2OC(C4=CC=C(OC)C=C4)C1" "computed InChI=InChI=1S/C22H24O10/c1-29-11-4-2-10(3-5-11)15-8-14(25)18-13(24)6-12(7-16(18)31-15)30-22-21(28)20(27)19(26)17(9-23)32-22/h2-7,15,17,19-24,26-28H,8-9H2,1H3" "license=License CC-BY-NC-SA 4.0 International" "author=Plant Biology, The Noble Foundation, Ardmore, OK, US/Dennis Fine, Daniel Wherritt, and Lloyd Sumner" "ionization=ESI" "isolation width=5" "collision gas=Nitrogen" "peak width=0.02" "date=2014-07-26 12:46:39+02:00" "column=Waters Acquity BEH C18 1.7um x 2.1 x 150 mm" "retention time=603" "raw data file=C:\Data\Confirmed standards 24_July_2014\MSMS\Isosakuranin vial 274_1-C,4_01_501.d" "SPLASH=splash10-01p9-0980000000-e00546511431edc95095" "submitter=Aiko Barsch (Bruker)" "MoNA Rating=3.125"
Num Peaks: 19
107.0100 7.707708
108.0187 23.623624
123.0106 5.905906
136.0200 47.747748
151.0062 39.639640
164.0108 100.000000
175.0736 10.210210
195.9912 19.819820
198.0611 6.206206
201.0486 10.310310
225.0422 7.407407
227.0210 17.517518
228.0272 15.415415
241.0709 9.409409
243.0527 56.456456
269.0305 8.008008
270.0378 21.821822
285.0631 87.087087
286.0678 7.807808


Name: Isosakuranin
Synon: $:00in-source
DB#: MetaboBASE0626
InChIKey: KEEWIHDTSNESJZ-NKGQIIMOSA-N
Spectrum_type: MS2
PrecursorMZ: 285.0767
Instrument_type: LC-ESI-TOF
Instrument: impact HD
Ion_mode: N
Collision_energy: 20
Formula: C22H24O10
MW: 448
ExactMass: 448.13694696799996
Comments: "cas number=491-69-0" "computed SMILES=O=C1C2=C(O)C=C(OC3OC(CO)C(O)C(O)C3O)C=C2OC(C4=CC=C(OC)C=C4)C1" "computed InChI=InChI=1S/C22H24O10/c1-29-11-4-2-10(3-5-11)15-8-14(25)18-13(24)6-12(7-16(18)31-15)30-22-21(28)20(27)19(26)17(9-23)32-22/h2-7,15,17,19-24,26-28H,8-9H2,1H3" "license=License CC-BY-NC-SA 4.0 International" "author=Plant Biology, The Noble Foundation, Ardmore, OK, US/Dennis Fine, Daniel Wherritt, and Lloyd Sumner" "ionization=ESI" "isolation width=5" "collision gas=Nitrogen" "peak width=0.017" "date=2014-08-07 00:51:00+02:00" "column=Waters Acquity BEH C18 1.7um x 2.1 x 150 mm" "retention time=603" "raw data file=C:\Data\Confirmed standards 24_July_2014\MSMS\Isosakuranin vial 274_1-C,4_01_559.d" "SPLASH=splash10-000i-0090000000-2c9e839b3b7f47738bda" "submitter=Aiko Barsch (Bruker)" "MoNA Rating=3.125"
Num Peaks: 21
107.0136 0.300300
136.0188 0.600601
151.0036 2.402402
164.0116 6.206206
165.0149 0.700701
175.0755 0.700701
196.0002 2.302302
199.0753 0.400400
217.0879 0.500501
226.0648 0.500501
227.0363 0.300300
228.0413 0.800801
241.0852 1.301301
243.0656 10.310310
244.0696 1.801802
257.0798 0.500501
270.0523 7.007007
271.0565 0.800801
285.0767 100.000000
286.0793 15.515516
287.0829 1.401401


Name: Isosakuranin
Synon: $:00in-source
DB#: MetaboBASE0627
InChIKey: KEEWIHDTSNESJZ-NKGQIIMOSA-N
Precursor_type: [M+FA-H]-
Spectrum_type: MS2
PrecursorMZ: 493.1378
Instrument_type: LC-ESI-TOF
Instrument: impact HD
Ion_mode: N
Collision_energy: 10
Formula: C22H24O10
MW: 448
ExactMass: 448.13694696799996
Comments: "cas number=491-69-0" "computed SMILES=O=C1C2=C(O)C=C(OC3OC(CO)C(O)C(O)C3O)C=C2OC(C4=CC=C(OC)C=C4)C1" "computed InChI=InChI=1S/C22H24O10/c1-29-11-4-2-10(3-5-11)15-8-14(25)18-13(24)6-12(7-16(18)31-15)30-22-21(28)20(27)19(26)17(9-23)32-22/h2-7,15,17,19-24,26-28H,8-9H2,1H3" "license=License CC-BY-NC-SA 4.0 International" "author=Plant Biology, The Noble Foundation, Ardmore, OK, US/Dennis Fine, Daniel Wherritt, and Lloyd Sumner" "ionization=ESI" "isolation width=5" "collision gas=Nitrogen" "peak width=0.015" "date=2014-08-07 00:10:06+02:00" "column=Waters Acquity BEH C18 1.7um x 2.1 x 150 mm" "retention time=603" "raw data file=C:\Data\Confirmed standards 24_July_2014\MSMS\Isosakuranin vial 274_1-C,4_01_558.d" "computed mass accuracy=5.3778720675465514" "computed mass error=0.002652032000071358" "SPLASH=splash10-000b-0040900000-cc9de675090dcd348a41" "submitter=Aiko Barsch (Bruker)" "MoNA Rating=4.545454545454546"
Num Peaks: 35
285.0783 72.972973
286.0804 8.608609
287.0818 0.600601
309.0811 0.400400
327.0885 2.302302
328.0906 0.300300
351.0866 0.200200
369.0960 0.400400
447.1325 100.000000
447.2043 0.200200
447.2307 0.300300
448.1350 19.819820
449.1378 1.901902
450.1400 0.200200
493.1378 33.033033
494.1409 7.207207
495.1418 0.600601
1046.5460 0.200200
1086.4331 0.200200
1093.9374 0.200200
1163.8011 0.200200
1210.1272 0.200200
1221.3738 0.200200
1222.3671 0.200200
1277.9116 0.200200
1337.6833 0.200200
1366.9801 0.200200
1392.6862 0.200200
1406.3069 0.200200
1406.4690 0.200200
1452.9695 0.200200
1455.2947 0.200200
1455.6423 0.200200
1466.8368 0.200200
1491.2102 0.200200


Name: Isosakuranin
Synon: $:00in-source
DB#: MetaboBASE0628
InChIKey: KEEWIHDTSNESJZ-NKGQIIMOSA-N
Precursor_type: [M-H]-
Spectrum_type: MS2
PrecursorMZ: 447.1319
Instrument_type: LC-ESI-TOF
Instrument: impact HD
Ion_mode: N
Collision_energy: 30
Formula: C22H24O10
MW: 448
ExactMass: 448.13694696799996
Comments: "cas number=491-69-0" "computed SMILES=O=C1C2=C(O)C=C(OC3OC(CO)C(O)C(O)C3O)C=C2OC(C4=CC=C(OC)C=C4)C1" "computed InChI=InChI=1S/C22H24O10/c1-29-11-4-2-10(3-5-11)15-8-14(25)18-13(24)6-12(7-16(18)31-15)30-22-21(28)20(27)19(26)17(9-23)32-22/h2-7,15,17,19-24,26-28H,8-9H2,1H3" "license=License CC-BY-NC-SA 4.0 International" "author=Plant Biology, The Noble Foundation, Ardmore, OK, US/Dennis Fine, Daniel Wherritt, and Lloyd Sumner" "ionization=ESI" "isolation width=5" "collision gas=Nitrogen" "peak width=0.015" "date=2014-08-06 23:29:13+02:00" "column=Waters Acquity BEH C18 1.7um x 2.1 x 150 mm" "retention time=603" "raw data file=C:\Data\Confirmed standards 24_July_2014\MSMS\Isosakuranin vial 274_1-C,4_01_557.d" "computed mass accuracy=4.985177751805367" "computed mass error=0.002229032000002462" "SPLASH=splash10-000i-0090000000-311424fa1b8ca80ae7e1" "submitter=Aiko Barsch (Bruker)" "MoNA Rating=4.583333333333334"
Num Peaks: 48
151.0044 0.700701
164.0124 0.800801
165.0217 0.100100
175.0057 0.100100
193.0173 0.100100
196.0024 0.200200
203.0730 0.200200
217.0877 0.200200
226.0635 0.400400
228.0458 0.100100
241.0885 2.802803
242.0910 0.400400
243.0675 1.901902
244.0705 0.300300
255.0667 0.200200
255.1023 0.100100
256.0744 0.100100
257.0844 0.200200
266.0609 0.100100
269.0491 0.100100
269.0838 0.700701
270.0547 3.303303
270.0844 0.100100
271.0581 0.400400
271.0963 0.100100
281.0818 0.300300
282.0872 0.100100
283.0627 0.600601
283.0999 0.100100
284.0719 0.400400
285.0796 100.000000
286.0819 15.315315
287.0843 0.700701
294.0547 0.300300
297.0779 0.200200
298.0871 0.200200
299.0940 1.601602
300.0983 0.300300
307.0982 0.300300
309.0785 2.702703
310.0825 0.500501
311.0927 0.100100
312.0660 0.200200
327.0895 3.803804
328.0928 0.700701
339.0890 0.600601
351.0869 0.200200
447.1319 0.200200


Name: Isosakuranin
Synon: $:00in-source
DB#: MetaboBASE0629
InChIKey: KEEWIHDTSNESJZ-NKGQIIMOSA-N
Precursor_type: [M+FA-H]-
Spectrum_type: MS2
PrecursorMZ: 493.1
Instrument_type: LC-ESI-TOF
Instrument: impact HD
Ion_mode: N
Collision_energy: 50
Formula: C22H24O10
MW: 448
ExactMass: 448.13694696799996
Comments: "cas number=491-69-0" "computed SMILES=O=C1C2=C(O)C=C(OC3OC(CO)C(O)C(O)C3O)C=C2OC(C4=CC=C(OC)C=C4)C1" "computed InChI=InChI=1S/C22H24O10/c1-29-11-4-2-10(3-5-11)15-8-14(25)18-13(24)6-12(7-16(18)31-15)30-22-21(28)20(27)19(26)17(9-23)32-22/h2-7,15,17,19-24,26-28H,8-9H2,1H3" "license=License CC-BY-NC-SA 4.0 International" "author=Plant Biology, The Noble Foundation, Ardmore, OK, US/Dennis Fine, Daniel Wherritt, and Lloyd Sumner" "ionization=ESI" "isolation width=5" "collision gas=Nitrogen" "peak width=0.018" "date=2014-08-07 00:10:06+02:00" "column=Waters Acquity BEH C18 1.7um x 2.1 x 150 mm" "retention time=603" "raw data file=C:\Data\Confirmed standards 24_July_2014\MSMS\Isosakuranin vial 274_1-C,4_01_558.d" "computed mass accuracy=71.27959440262202" "computed mass error=-0.035147967999932916" "SPLASH=splash10-000i-0190000000-ca470e4b5f51f9c4127d" "submitter=Aiko Barsch (Bruker)" "MoNA Rating=4.545454545454546"
Num Peaks: 50
107.0141 0.900901
108.0208 0.700701
125.0251 0.400400
136.0167 1.201201
151.0043 6.206206
152.0101 0.400400
159.0454 0.300300
164.0119 9.209209
165.0148 1.001001
175.0062 0.400400
175.0777 1.001001
177.0188 0.500501
196.0019 2.802803
198.0726 0.500501
199.0739 0.400400
201.0548 0.700701
203.0721 0.600601
215.0715 0.300300
217.0887 0.700701
225.0571 0.700701
226.0638 1.301301
227.0355 0.900901
227.0710 0.300300
228.0417 1.601602
241.0536 0.400400
241.0881 5.005005
242.0576 0.500501
242.0917 0.900901
243.0667 12.412412
244.0710 1.401401
255.0647 0.500501
257.0813 0.700701
266.0610 0.300300
269.0465 0.600601
269.0822 1.001001
270.0543 10.610611
271.0561 1.101101
283.0611 0.900901
284.0626 0.400400
285.0785 100.000000
286.0811 13.613614
287.0828 0.700701
294.0545 0.300300
299.0956 0.600601
307.0977 0.300300
309.0785 0.400400
327.0880 0.800801
916.0124 0.300300
1176.6533 0.300300
1324.6580 0.300300


Name: Isosakuranin
Synon: $:00in-source
DB#: MetaboBASE0630
InChIKey: KEEWIHDTSNESJZ-NKGQIIMOSA-N
Precursor_type: [M-H]-
Spectrum_type: MS2
PrecursorMZ: 447.1327
Instrument_type: LC-ESI-TOF
Instrument: impact HD
Ion_mode: N
Collision_energy: 20
Formula: C22H24O10
MW: 448
ExactMass: 448.13694696799996
Comments: "cas number=491-69-0" "computed SMILES=O=C1C2=C(O)C=C(OC3OC(CO)C(O)C(O)C3O)C=C2OC(C4=CC=C(OC)C=C4)C1" "computed InChI=InChI=1S/C22H24O10/c1-29-11-4-2-10(3-5-11)15-8-14(25)18-13(24)6-12(7-16(18)31-15)30-22-21(28)20(27)19(26)17(9-23)32-22/h2-7,15,17,19-24,26-28H,8-9H2,1H3" "license=License CC-BY-NC-SA 4.0 International" "author=Plant Biology, The Noble Foundation, Ardmore, OK, US/Dennis Fine, Daniel Wherritt, and Lloyd Sumner" "ionization=ESI" "isolation width=5" "collision gas=Nitrogen" "peak width=0.015" "date=2014-08-06 23:29:13+02:00" "column=Waters Acquity BEH C18 1.7um x 2.1 x 150 mm" "retention time=603" "raw data file=C:\Data\Confirmed standards 24_July_2014\MSMS\Isosakuranin vial 274_1-C,4_01_557.d" "computed mass accuracy=6.774346855036591" "computed mass error=0.0030290320000290194" "SPLASH=splash10-000i-0091000000-ae2bad292d4bc110e7a7" "submitter=Aiko Barsch (Bruker)" "MoNA Rating=4.545454545454546"
Num Peaks: 28
241.0888 0.500501
243.0672 0.400400
269.0826 0.500501
270.0548 0.600601
285.0796 100.000000
286.0820 14.714715
287.0840 0.800801
297.0784 0.400400
298.0862 0.200200
299.0945 1.001001
300.0975 0.200200
307.0993 0.300300
309.0786 6.906907
310.0822 1.201201
311.0894 0.100100
327.0894 6.006006
328.0934 1.201201
339.0899 1.301301
340.0925 0.200200
351.0913 0.300300
357.0971 0.200200
369.1034 0.100100
387.1117 0.500501
429.1205 0.300300
430.1217 0.100100
447.1327 6.206206
448.1357 1.701702
449.1354 0.100100


Name: Isosakuranin
Synon: $:00in-source
DB#: MetaboBASE0631
InChIKey: KEEWIHDTSNESJZ-NKGQIIMOSA-N
Precursor_type: [M+FA-H]-
Spectrum_type: MS2
PrecursorMZ: 493.1
Instrument_type: LC-ESI-TOF
Instrument: impact HD
Ion_mode: N
Collision_energy: 40
Formula: C22H24O10
MW: 448
ExactMass: 448.13694696799996
Comments: "cas number=491-69-0" "computed SMILES=O=C1C2=C(O)C=C(OC3OC(CO)C(O)C(O)C3O)C=C2OC(C4=CC=C(OC)C=C4)C1" "computed InChI=InChI=1S/C22H24O10/c1-29-11-4-2-10(3-5-11)15-8-14(25)18-13(24)6-12(7-16(18)31-15)30-22-21(28)20(27)19(26)17(9-23)32-22/h2-7,15,17,19-24,26-28H,8-9H2,1H3" "license=License CC-BY-NC-SA 4.0 International" "author=Plant Biology, The Noble Foundation, Ardmore, OK, US/Dennis Fine, Daniel Wherritt, and Lloyd Sumner" "ionization=ESI" "isolation width=5" "collision gas=Nitrogen" "peak width=0.015" "date=2014-08-07 00:10:06+02:00" "column=Waters Acquity BEH C18 1.7um x 2.1 x 150 mm" "retention time=603" "raw data file=C:\Data\Confirmed standards 24_July_2014\MSMS\Isosakuranin vial 274_1-C,4_01_558.d" "computed mass accuracy=71.27959440262202" "computed mass error=-0.035147967999932916" "SPLASH=splash10-000i-0090000000-80fc32fd9a619399b74e" "submitter=Aiko Barsch (Bruker)" "MoNA Rating=4.545454545454546"
Num Peaks: 48
125.0254 0.100100
136.0171 0.200200
151.0044 0.700701
164.0122 1.401401
165.0178 0.100100
196.0026 0.500501
217.0921 0.100100
225.0562 0.200200
226.0638 0.200200
228.0437 0.300300
241.0884 1.901902
242.0908 0.300300
243.0670 3.203203
244.0710 0.400400
256.0712 0.100100
269.0821 0.800801
270.0544 3.003003
271.0578 0.400400
271.0986 0.100100
281.0810 0.200200
283.0627 0.400400
284.0682 0.300300
285.0790 100.000000
285.1496 0.200200
286.0812 11.711712
287.0825 0.700701
294.0550 0.100100
297.0748 0.200200
299.0927 0.800801
307.0979 0.200200
309.0768 1.501502
310.0830 0.300300
327.0886 2.302302
328.0916 0.300300
339.0938 0.200200
351.0888 0.200200
769.7558 0.100100
1100.7444 0.100100
1126.8212 0.100100
1159.0037 0.100100
1193.2682 0.100100
1238.7148 0.100100
1286.7368 0.200200
1384.8785 0.100100
1450.5233 0.100100
1463.4402 0.100100
1490.5210 0.100100
1501.2344 0.100100


Name: Isosakuranin
Synon: $:00in-source
DB#: MetaboBASE0632
InChIKey: KEEWIHDTSNESJZ-NKGQIIMOSA-N
Spectrum_type: MS2
PrecursorMZ: 285.0756
Instrument_type: LC-ESI-TOF
Instrument: impact HD
Ion_mode: N
Collision_energy: 30
Formula: C22H24O10
MW: 448
ExactMass: 448.13694696799996
Comments: "cas number=491-69-0" "computed SMILES=O=C1C2=C(O)C=C(OC3OC(CO)C(O)C(O)C3O)C=C2OC(C4=CC=C(OC)C=C4)C1" "computed InChI=InChI=1S/C22H24O10/c1-29-11-4-2-10(3-5-11)15-8-14(25)18-13(24)6-12(7-16(18)31-15)30-22-21(28)20(27)19(26)17(9-23)32-22/h2-7,15,17,19-24,26-28H,8-9H2,1H3" "license=License CC-BY-NC-SA 4.0 International" "author=Plant Biology, The Noble Foundation, Ardmore, OK, US/Dennis Fine, Daniel Wherritt, and Lloyd Sumner" "ionization=ESI" "isolation width=5" "collision gas=Nitrogen" "peak width=0.018" "date=2014-08-07 00:51:00+02:00" "column=Waters Acquity BEH C18 1.7um x 2.1 x 150 mm" "retention time=603" "raw data file=C:\Data\Confirmed standards 24_July_2014\MSMS\Isosakuranin vial 274_1-C,4_01_559.d" "SPLASH=splash10-01p9-0970000000-4861eeb856c8508af745" "submitter=Aiko Barsch (Bruker)" "MoNA Rating=3.125"
Num Peaks: 33
107.0133 9.409409
108.0212 19.119119
122.0003 4.204204
123.0088 5.305305
124.0142 4.104104
125.0254 3.003003
136.0163 48.748749
137.0184 3.003003
151.0035 42.242242
164.0116 100.000000
165.0134 10.910911
175.0749 12.212212
186.0326 3.903904
187.0410 3.103103
196.0008 35.235235
198.0680 3.403403
200.0465 3.303303
201.0547 5.705706
215.0699 3.603604
217.0861 3.203203
225.0555 5.105105
226.0623 9.609610
227.0351 12.312312
228.0414 16.516517
241.0861 4.204204
242.0563 3.003003
242.0884 3.303303
243.0655 58.458458
244.0716 10.310310
257.0800 3.003003
270.0524 22.822823
285.0756 86.686687
286.0786 17.117117


Name: Isosakuranin
Synon: $:00in-source
DB#: MetaboBASE0633
InChIKey: KEEWIHDTSNESJZ-NKGQIIMOSA-N
Precursor_type: [M+FA-H]-
Spectrum_type: MS2
PrecursorMZ: 493.1
Instrument_type: LC-ESI-TOF
Instrument: impact HD
Ion_mode: N
Collision_energy: 20
Formula: C22H24O10
MW: 448
ExactMass: 448.13694696799996
Comments: "cas number=491-69-0" "computed SMILES=O=C1C2=C(O)C=C(OC3OC(CO)C(O)C(O)C3O)C=C2OC(C4=CC=C(OC)C=C4)C1" "computed InChI=InChI=1S/C22H24O10/c1-29-11-4-2-10(3-5-11)15-8-14(25)18-13(24)6-12(7-16(18)31-15)30-22-21(28)20(27)19(26)17(9-23)32-22/h2-7,15,17,19-24,26-28H,8-9H2,1H3" "license=License CC-BY-NC-SA 4.0 International" "author=Plant Biology, The Noble Foundation, Ardmore, OK, US/Dennis Fine, Daniel Wherritt, and Lloyd Sumner" "ionization=ESI" "isolation width=5" "collision gas=Nitrogen" "peak width=0.015" "date=2014-08-07 00:10:06+02:00" "column=Waters Acquity BEH C18 1.7um x 2.1 x 150 mm" "retention time=603" "raw data file=C:\Data\Confirmed standards 24_July_2014\MSMS\Isosakuranin vial 274_1-C,4_01_558.d" "computed mass accuracy=71.27959440262202" "computed mass error=-0.035147967999932916" "SPLASH=splash10-000i-0091200000-fd6e52372d8964dc31cc" "submitter=Aiko Barsch (Bruker)" "MoNA Rating=4.545454545454546"
Num Peaks: 53
270.0579 0.300300
285.0790 100.000000
286.0812 11.511512
287.0829 0.800801
297.0798 0.100100
299.0963 0.300300
307.0944 0.300300
309.0779 3.703704
310.0819 0.800801
311.0817 0.100100
327.0897 4.704705
328.0946 0.800801
339.0895 0.500501
351.0882 0.300300
357.0984 0.300300
369.0994 0.300300
387.1083 0.300300
429.1205 0.300300
447.1319 22.922923
448.1341 4.704705
449.1372 0.400400
808.2727 0.100100
872.0385 0.100100
967.2194 0.100100
998.7542 0.100100
1073.8217 0.100100
1090.2795 0.100100
1109.8003 0.100100
1160.6614 0.100100
1163.1479 0.100100
1173.4244 0.100100
1232.0757 0.100100
1246.2568 0.100100
1275.4387 0.100100
1287.6611 0.100100
1288.0945 0.100100
1306.7437 0.100100
1315.2719 0.100100
1325.6049 0.100100
1340.6588 0.100100
1340.9834 0.100100
1346.9269 0.100100
1367.2299 0.100100
1369.5120 0.100100
1371.0881 0.100100
1399.7968 0.100100
1408.8029 0.200200
1423.2534 0.100100
1445.5829 0.100100
1458.5386 0.100100
1482.0031 0.100100
1488.7855 0.100100
1497.9969 0.100100


Name: Isosakuranin
Synon: $:00in-source
DB#: MetaboBASE0634
InChIKey: KEEWIHDTSNESJZ-NKGQIIMOSA-N
Precursor_type: [M+FA-H]-
Spectrum_type: MS2
PrecursorMZ: 493.1
Instrument_type: LC-ESI-TOF
Instrument: impact HD
Ion_mode: N
Collision_energy: 30
Formula: C22H24O10
MW: 448
ExactMass: 448.13694696799996
Comments: "cas number=491-69-0" "computed SMILES=O=C1C2=C(O)C=C(OC3OC(CO)C(O)C(O)C3O)C=C2OC(C4=CC=C(OC)C=C4)C1" "computed InChI=InChI=1S/C22H24O10/c1-29-11-4-2-10(3-5-11)15-8-14(25)18-13(24)6-12(7-16(18)31-15)30-22-21(28)20(27)19(26)17(9-23)32-22/h2-7,15,17,19-24,26-28H,8-9H2,1H3" "license=License CC-BY-NC-SA 4.0 International" "author=Plant Biology, The Noble Foundation, Ardmore, OK, US/Dennis Fine, Daniel Wherritt, and Lloyd Sumner" "ionization=ESI" "isolation width=5" "collision gas=Nitrogen" "peak width=0.015" "date=2014-08-07 00:10:06+02:00" "column=Waters Acquity BEH C18 1.7um x 2.1 x 150 mm" "retention time=603" "raw data file=C:\Data\Confirmed standards 24_July_2014\MSMS\Isosakuranin vial 274_1-C,4_01_558.d" "computed mass accuracy=71.27959440262202" "computed mass error=-0.035147967999932916" "SPLASH=splash10-000i-0090000000-3fc275ce6b88238ee82b" "submitter=Aiko Barsch (Bruker)" "MoNA Rating=4.545454545454546"
Num Peaks: 52
164.0122 0.200200
241.0875 0.500501
243.0680 0.500501
269.0834 0.600601
270.0549 0.700701
283.0556 0.100100
284.0701 0.100100
285.0788 100.000000
285.1304 0.200200
286.0813 12.112112
286.1178 0.100100
287.0824 0.700701
297.0784 0.400400
298.0850 0.300300
299.0925 1.401401
300.0947 0.200200
307.0974 0.400400
309.0778 3.203203
310.0804 0.500501
327.0883 4.304304
328.0915 0.600601
339.0881 0.500501
351.0905 0.200200
357.1002 0.100100
369.1018 0.100100
387.1092 0.200200
447.1324 2.202202
448.1337 0.400400
1034.3949 0.100100
1083.7706 0.100100
1127.2612 0.100100
1130.2823 0.100100
1198.4783 0.100100
1219.6914 0.100100
1252.5991 0.100100
1285.4241 0.100100
1288.8413 0.100100
1300.2699 0.100100
1305.0929 0.100100
1333.0120 0.100100
1333.2444 0.100100
1355.8634 0.100100
1359.9001 0.100100
1362.5044 0.100100
1368.6704 0.100100
1383.5300 0.100100
1389.0029 0.100100
1398.7607 0.100100
1410.7139 0.100100
1455.6744 0.100100
1474.9667 0.100100
1479.6134 0.100100


Name: Isosakuranin
Synon: $:00in-source
DB#: MetaboBASE0635
InChIKey: KEEWIHDTSNESJZ-NKGQIIMOSA-N
Instrument_type: LC-ESI-TOF
Instrument: impact HD
Ion_mode: N
Formula: C22H24O10
MW: 448
ExactMass: 448.13694696799996
Comments: "cas number=491-69-0" "computed SMILES=O=C1C2=C(O)C=C(OC3OC(CO)C(O)C(O)C3O)C=C2OC(C4=CC=C(OC)C=C4)C1" "computed InChI=InChI=1S/C22H24O10/c1-29-11-4-2-10(3-5-11)15-8-14(25)18-13(24)6-12(7-16(18)31-15)30-22-21(28)20(27)19(26)17(9-23)32-22/h2-7,15,17,19-24,26-28H,8-9H2,1H3" "license=License CC-BY-NC-SA 4.0 International" "author=Plant Biology, The Noble Foundation, Ardmore, OK, US/Dennis Fine, Daniel Wherritt, and Lloyd Sumner" "ionization=ESI" "collision gas=Nitrogen" "peak width=0.013" "date=2013-11-23 17:01:58+01:00" "column=Waters Acquity BEH C18 1.7um x 2.1 x 150 mm" "retention time=603" "raw data file=C:\Data\Confirmed Standards\Confirmed stds MSMS 22Nov13\Isosakuranin (vial 274) MSMS.d" "SPLASH=splash10-0006-0000900002-a1b00c307e54e2526714" "submitter=Aiko Barsch (Bruker)" "MoNA Rating=3.888888888888889"
Num Peaks: 21
112.9854 1.101101
116.9282 0.900901
285.0770 4.104104
286.0808 0.900901
447.1302 16.116116
448.1340 3.403403
483.1051 1.001001
493.1362 100.000000
494.1396 21.721722
495.1408 3.703704
565.0665 0.700701
895.2646 1.401401
896.2698 0.800801
941.2707 24.824825
942.2747 10.510511
943.2778 2.602603
963.2539 1.301301
1343.3999 1.601602
1344.4032 1.201201
1389.4017 0.800801
1411.3785 0.800801


Name: Isosakuranin
Synon: $:00in-source
DB#: MetaboBASE0636
InChIKey: KEEWIHDTSNESJZ-NKGQIIMOSA-N
Spectrum_type: MS2
PrecursorMZ: 285.0754
Instrument_type: LC-ESI-TOF
Instrument: impact HD
Ion_mode: N
Collision_energy: 40
Formula: C22H24O10
MW: 448
ExactMass: 448.13694696799996
Comments: "cas number=491-69-0" "computed SMILES=O=C1C2=C(O)C=C(OC3OC(CO)C(O)C(O)C3O)C=C2OC(C4=CC=C(OC)C=C4)C1" "computed InChI=InChI=1S/C22H24O10/c1-29-11-4-2-10(3-5-11)15-8-14(25)18-13(24)6-12(7-16(18)31-15)30-22-21(28)20(27)19(26)17(9-23)32-22/h2-7,15,17,19-24,26-28H,8-9H2,1H3" "license=License CC-BY-NC-SA 4.0 International" "author=Plant Biology, The Noble Foundation, Ardmore, OK, US/Dennis Fine, Daniel Wherritt, and Lloyd Sumner" "ionization=ESI" "isolation width=5" "collision gas=Nitrogen" "peak width=0.018" "date=2014-08-07 00:51:00+02:00" "column=Waters Acquity BEH C18 1.7um x 2.1 x 150 mm" "retention time=603" "raw data file=C:\Data\Confirmed standards 24_July_2014\MSMS\Isosakuranin vial 274_1-C,4_01_559.d" "SPLASH=splash10-0a4r-0910000000-7e1fe560bb1a9240e659" "submitter=Aiko Barsch (Bruker)" "MoNA Rating=3.125"
Num Peaks: 28
107.0137 19.419419
108.0209 95.695696
117.0337 8.108108
119.0494 13.113113
123.0080 11.811812
124.0173 10.210210
136.0165 100.000000
137.0202 18.818819
151.0032 31.631632
156.0579 6.806807
159.0451 19.719720
160.0506 7.407407
164.0117 59.159159
165.0163 9.209209
175.0746 7.407407
177.0199 8.408408
183.0449 8.508509
184.0558 7.207207
186.0310 13.513514
187.0357 7.807808
196.0019 13.113113
199.0365 7.607608
201.0550 8.808809
227.0352 40.540541
228.0426 16.716717
243.0659 17.717718
244.0702 7.807808
285.0754 8.308308


Name: Isosakuranin
Synon: $:00in-source
DB#: MetaboBASE0637
InChIKey: KEEWIHDTSNESJZ-NKGQIIMOSA-N
Precursor_type: [M-H]-
Spectrum_type: MS2
PrecursorMZ: 447.1336
Instrument_type: LC-ESI-TOF
Instrument: impact HD
Ion_mode: N
Collision_energy: 10
Formula: C22H24O10
MW: 448
ExactMass: 448.13694696799996
Comments: "cas number=491-69-0" "computed SMILES=O=C1C2=C(O)C=C(OC3OC(CO)C(O)C(O)C3O)C=C2OC(C4=CC=C(OC)C=C4)C1" "computed InChI=InChI=1S/C22H24O10/c1-29-11-4-2-10(3-5-11)15-8-14(25)18-13(24)6-12(7-16(18)31-15)30-22-21(28)20(27)19(26)17(9-23)32-22/h2-7,15,17,19-24,26-28H,8-9H2,1H3" "license=License CC-BY-NC-SA 4.0 International" "author=Plant Biology, The Noble Foundation, Ardmore, OK, US/Dennis Fine, Daniel Wherritt, and Lloyd Sumner" "ionization=ESI" "isolation width=5" "collision gas=Nitrogen" "peak width=0.015" "date=2014-08-06 23:29:13+02:00" "column=Waters Acquity BEH C18 1.7um x 2.1 x 150 mm" "retention time=603" "raw data file=C:\Data\Confirmed standards 24_July_2014\MSMS\Isosakuranin vial 274_1-C,4_01_557.d" "computed mass accuracy=8.787154443393373" "computed mass error=0.003929032000030475" "SPLASH=splash10-000j-0091500000-b35cebbee10f552e07ae" "submitter=Aiko Barsch (Bruker)" "MoNA Rating=4.545454545454546"
Num Peaks: 44
243.0661 0.100100
270.0516 0.100100
285.0794 100.000000
286.0819 14.414414
287.0836 0.600601
288.0855 0.100100
299.0931 0.300300
307.1003 0.300300
308.1024 0.100100
309.0778 4.104104
310.0821 0.600601
327.0892 5.505506
328.0925 1.001001
339.0895 0.300300
351.0885 0.500501
357.1005 0.300300
358.1044 0.100100
369.0973 0.400400
370.1031 0.100100
387.1111 0.500501
429.1230 0.300300
447.1336 51.551552
448.1361 11.511512
449.1389 1.101101
968.5156 0.100100
1022.5987 0.100100
1065.3875 0.100100
1164.7509 0.100100
1173.8995 0.100100
1218.0964 0.100100
1247.7131 0.100100
1257.5240 0.100100
1277.2017 0.100100
1278.9321 0.100100
1282.0420 0.100100
1301.2997 0.100100
1323.4696 0.100100
1342.4154 0.100100
1370.3663 0.100100
1374.5013 0.100100
1388.2611 0.100100
1475.2947 0.100100
1501.8439 0.100100
1502.0313 0.100100


Name: Isosakuranin
Synon: $:00in-source
DB#: MetaboBASE0638
InChIKey: KEEWIHDTSNESJZ-NKGQIIMOSA-N
Precursor_type: [M-H]-
Spectrum_type: MS2
PrecursorMZ: 447.1
Instrument_type: LC-ESI-TOF
Instrument: impact HD
Ion_mode: N
Collision_energy: 50
Formula: C22H24O10
MW: 448
ExactMass: 448.13694696799996
Comments: "cas number=491-69-0" "computed SMILES=O=C1C2=C(O)C=C(OC3OC(CO)C(O)C(O)C3O)C=C2OC(C4=CC=C(OC)C=C4)C1" "computed InChI=InChI=1S/C22H24O10/c1-29-11-4-2-10(3-5-11)15-8-14(25)18-13(24)6-12(7-16(18)31-15)30-22-21(28)20(27)19(26)17(9-23)32-22/h2-7,15,17,19-24,26-28H,8-9H2,1H3" "license=License CC-BY-NC-SA 4.0 International" "author=Plant Biology, The Noble Foundation, Ardmore, OK, US/Dennis Fine, Daniel Wherritt, and Lloyd Sumner" "ionization=ESI" "isolation width=5" "collision gas=Nitrogen" "peak width=0.019" "date=2014-08-06 23:29:13+02:00" "column=Waters Acquity BEH C18 1.7um x 2.1 x 150 mm" "retention time=603" "raw data file=C:\Data\Confirmed standards 24_July_2014\MSMS\Isosakuranin vial 274_1-C,4_01_557.d" "computed mass accuracy=66.36315813005605" "computed mass error=-0.02967096799994806" "SPLASH=splash10-000i-0690000000-5b0bc70d0a846363036f" "submitter=Aiko Barsch (Bruker)" "MoNA Rating=4.545454545454546"
Num Peaks: 84
107.0138 4.104104
108.0220 5.405405
109.0275 0.700701
117.0354 1.101101
119.0513 3.703704
120.0219 1.101101
121.0288 0.700701
122.0046 0.600601
123.0080 2.102102
124.0179 2.002002
125.0243 1.601602
131.0123 1.001001
132.0593 0.700701
133.0310 1.001001
136.0179 16.316316
137.0227 1.601602
145.0322 0.800801
149.0267 0.800801
151.0047 45.545546
152.0081 2.502503
156.0579 1.101101
158.0381 0.600601
159.0442 1.201201
160.0530 1.401401
163.0065 1.601602
164.0125 56.856857
165.0165 4.504505
173.0585 0.700701
175.0048 1.901902
175.0770 8.308308
176.0786 1.101101
177.0206 2.302302
181.0641 0.600601
183.0462 1.901902
184.0525 1.501502
186.0330 4.904905
187.0410 2.102102
188.0494 1.501502
193.0154 1.001001
196.0030 18.918919
197.0066 2.002002
197.0608 2.102102
198.0694 6.006006
199.0772 4.404404
200.0496 1.401401
201.0572 6.806807
202.0650 1.801802
203.0742 1.301301
211.0435 0.700701
215.0723 1.801802
217.0886 3.103103
218.0931 0.600601
225.0577 5.205205
226.0646 11.311311
227.0364 5.505506
227.0674 1.401401
228.0439 7.707708
229.0445 1.001001
230.0597 0.600601
238.0681 0.700701
241.0513 3.303303
241.0883 22.022022
242.0596 3.303303
242.0916 2.902903
243.0679 36.736737
244.0699 5.605606
253.0535 0.900901
254.0577 0.600601
255.0698 0.900901
257.0824 1.501502
265.0504 0.900901
266.0584 0.900901
269.0473 4.404404
270.0555 30.430430
271.0581 5.205205
283.0619 2.402402
284.0681 1.301301
285.0789 100.000000
286.0812 14.614615
287.0810 1.001001
311.0609 1.001001
910.8563 0.700701
1097.0997 0.700701
1434.0229 0.600601


Name: Isosakuranin
Synon: $:00in-source
DB#: MetaboBASE0639
InChIKey: KEEWIHDTSNESJZ-NKGQIIMOSA-N
Precursor_type: [M-H]-
Spectrum_type: MS2
PrecursorMZ: 447.1
Instrument_type: LC-ESI-TOF
Instrument: impact HD
Ion_mode: N
Collision_energy: 40
Formula: C22H24O10
MW: 448
ExactMass: 448.13694696799996
Comments: "cas number=491-69-0" "computed SMILES=O=C1C2=C(O)C=C(OC3OC(CO)C(O)C(O)C3O)C=C2OC(C4=CC=C(OC)C=C4)C1" "computed InChI=InChI=1S/C22H24O10/c1-29-11-4-2-10(3-5-11)15-8-14(25)18-13(24)6-12(7-16(18)31-15)30-22-21(28)20(27)19(26)17(9-23)32-22/h2-7,15,17,19-24,26-28H,8-9H2,1H3" "license=License CC-BY-NC-SA 4.0 International" "author=Plant Biology, The Noble Foundation, Ardmore, OK, US/Dennis Fine, Daniel Wherritt, and Lloyd Sumner" "ionization=ESI" "isolation width=5" "collision gas=Nitrogen" "peak width=0.017" "date=2014-08-06 23:29:13+02:00" "column=Waters Acquity BEH C18 1.7um x 2.1 x 150 mm" "retention time=603" "raw data file=C:\Data\Confirmed standards 24_July_2014\MSMS\Isosakuranin vial 274_1-C,4_01_557.d" "computed mass accuracy=66.36315813005605" "computed mass error=-0.02967096799994806" "SPLASH=splash10-000i-0190000000-0ed7842e73fc2307685a" "submitter=Aiko Barsch (Bruker)" "MoNA Rating=4.545454545454546"
Num Peaks: 99
107.0149 0.500501
108.0216 0.300300
119.0512 0.200200
123.0094 0.200200
124.0179 0.200200
125.0257 0.200200
133.0294 0.200200
135.0098 0.200200
136.0174 1.301301
137.0247 0.300300
150.0362 0.100100
151.0047 6.306306
152.0065 0.400400
159.0464 0.200200
160.0540 0.200200
163.0075 0.300300
164.0128 8.708709
165.0179 0.800801
175.0049 0.500501
175.0774 1.001001
176.0787 0.100100
177.0204 0.500501
183.0449 0.200200
186.0340 0.300300
187.0378 0.200200
188.0469 0.200200
193.0168 0.300300
196.0028 2.502503
197.0061 0.300300
197.0590 0.200200
198.0696 0.700701
199.0766 0.500501
200.0509 0.200200
201.0569 0.800801
202.0625 0.200200
203.0717 0.500501
215.0740 0.200200
217.0876 0.900901
218.0927 0.200200
225.0565 0.800801
226.0646 2.102102
227.0351 0.500501
227.0652 0.300300
228.0439 0.800801
229.0491 0.200200
237.0560 0.100100
239.0720 0.200200
241.0499 0.500501
241.0883 9.409409
242.0573 0.300300
242.0916 1.401401
243.0678 9.409409
244.0716 1.101101
253.0524 0.200200
255.0678 0.400400
256.0749 0.300300
257.0828 0.600601
265.0490 0.200200
266.0595 0.300300
267.0672 0.100100
269.0456 0.700701
269.0829 0.600601
270.0551 12.812813
271.0578 2.002002
271.1008 0.200200
281.0821 0.300300
283.0624 1.101101
284.0717 0.800801
285.0795 100.000000
286.0823 15.915916
287.0839 1.101101
293.0496 0.200200
294.0557 0.200200
299.0931 1.401401
300.0971 0.200200
309.0788 1.001001
310.0827 0.200200
311.0572 0.300300
311.0901 0.100100
312.0623 0.200200
327.0904 1.101101
328.0948 0.400400
339.0912 0.200200
987.6092 0.100100
1142.5081 0.100100
1178.5652 0.100100
1252.3423 0.200200
1274.6907 0.100100
1281.6639 0.100100
1290.0099 0.100100
1296.1285 0.100100
1339.3046 0.100100
1349.2798 0.200200
1380.4255 0.200200
1386.6992 0.100100
1389.6102 0.100100
1445.2758 0.200200
1446.5203 0.200200
1447.1018 0.100100


Name: Nevadensin
Synon: $:00in-source
DB#: MetaboBASE0640
InChIKey: KRFBMPVGAYGGJE-UHFFFAOYSA-N
Precursor_type: [M-H]-
Spectrum_type: MS2
PrecursorMZ: 343.0838
Instrument_type: LC-ESI-TOF
Instrument: impact HD
Ion_mode: N
Collision_energy: 10
Formula: C18H16O7
MW: 344
ExactMass: 344.089602852
Comments: "cas number=10176-66-6" "SMILES=COc1ccc(cc1)c2cc(=O)c3c(c(c(c(c3o2)OC)O)OC)O" "InChI=InChI=1S/C18H16O7/c1-22-10-6-4-9(5-7-10)12-8-11(19)13-14(20)17(23-2)15(21)18(24-3)16(13)25-12/h4-8,20-21H,1-3H3" "computed SMILES=O=C1C=C(OC=2C(OC)=C(O)C(OC)=C(O)C12)C=3C=CC(OC)=CC3" "license=License CC-BY-NC-SA 4.0 International" "author=Plant Biology, The Noble Foundation, Ardmore, OK, US/Dennis Fine, Daniel Wherritt, and Lloyd Sumner" "ionization=ESI" "isolation width=5" "collision gas=Nitrogen" "peak width=0.01" "date=2013-11-23 21:47:14+01:00" "column=Waters Acquity BEH C18 1.7um x 2.1 x 150 mm" "retention time=882" "raw data file=C:\Data\Confirmed Standards\Confirmed stds MSMS 22Nov13\Nevadensin (vial 286) MSMS.d" "computed mass accuracy=4.293843078578211" "computed mass error=0.0014731480000023112" "SPLASH=splash10-0006-0009000000-0e4e4c99df80492cf97d" "submitter=Aiko Barsch (Bruker)" "MoNA Rating=4.583333333333334"
Num Peaks: 9
313.0358 0.500501
314.0401 0.200200
328.0599 10.010010
329.0630 1.701702
330.0646 0.200200
343.0530 0.100100
343.0838 100.000000
344.0870 12.512513
345.0891 1.701702


Name: Nevadensin
Synon: $:00in-source
DB#: MetaboBASE0641
InChIKey: KRFBMPVGAYGGJE-UHFFFAOYSA-N
Precursor_type: [M-H]-
Spectrum_type: MS2
PrecursorMZ: 343.0835
Instrument_type: LC-ESI-TOF
Instrument: impact HD
Ion_mode: N
Collision_energy: 20
Formula: C18H16O7
MW: 344
ExactMass: 344.089602852
Comments: "cas number=10176-66-6" "SMILES=COc1ccc(cc1)c2cc(=O)c3c(c(c(c(c3o2)OC)O)OC)O" "InChI=InChI=1S/C18H16O7/c1-22-10-6-4-9(5-7-10)12-8-11(19)13-14(20)17(23-2)15(21)18(24-3)16(13)25-12/h4-8,20-21H,1-3H3" "computed SMILES=O=C1C=C(OC=2C(OC)=C(O)C(OC)=C(O)C12)C=3C=CC(OC)=CC3" "license=License CC-BY-NC-SA 4.0 International" "author=Plant Biology, The Noble Foundation, Ardmore, OK, US/Dennis Fine, Daniel Wherritt, and Lloyd Sumner" "ionization=ESI" "isolation width=5" "collision gas=Nitrogen" "peak width=0.013" "date=2013-11-23 21:47:14+01:00" "column=Waters Acquity BEH C18 1.7um x 2.1 x 150 mm" "retention time=882" "raw data file=C:\Data\Confirmed Standards\Confirmed stds MSMS 22Nov13\Nevadensin (vial 286) MSMS.d" "computed mass accuracy=3.419424134418513" "computed mass error=0.001173148000020774" "SPLASH=splash10-004i-0009000000-9e955bce1b5f239076cd" "submitter=Aiko Barsch (Bruker)" "MoNA Rating=4.583333333333334"
Num Peaks: 20
152.0108 0.100100
167.0347 0.200200
226.0272 0.200200
229.0506 0.100100
241.0504 1.601602
242.0523 0.200200
257.0463 0.100100
269.0460 0.100100
285.0413 0.200200
298.0114 0.300300
313.0360 29.729730
314.0392 3.303303
315.0410 0.400400
327.0520 0.100100
328.0600 100.000000
329.0634 11.211211
330.0647 1.401401
343.0835 14.114114
344.0864 1.701702
345.0893 0.200200


Name: Nevadensin
Synon: $:00in-source
DB#: MetaboBASE0642
InChIKey: KRFBMPVGAYGGJE-UHFFFAOYSA-N
Precursor_type: [M-H]-
Spectrum_type: MS2
PrecursorMZ: 343.0829
Instrument_type: LC-ESI-TOF
Instrument: impact HD
Ion_mode: N
Collision_energy: 30
Formula: C18H16O7
MW: 344
ExactMass: 344.089602852
Comments: "cas number=10176-66-6" "SMILES=COc1ccc(cc1)c2cc(=O)c3c(c(c(c(c3o2)OC)O)OC)O" "InChI=InChI=1S/C18H16O7/c1-22-10-6-4-9(5-7-10)12-8-11(19)13-14(20)17(23-2)15(21)18(24-3)16(13)25-12/h4-8,20-21H,1-3H3" "computed SMILES=O=C1C=C(OC=2C(OC)=C(O)C(OC)=C(O)C12)C=3C=CC(OC)=CC3" "license=License CC-BY-NC-SA 4.0 International" "author=Plant Biology, The Noble Foundation, Ardmore, OK, US/Dennis Fine, Daniel Wherritt, and Lloyd Sumner" "ionization=ESI" "isolation width=5" "collision gas=Nitrogen" "peak width=0.016" "date=2013-11-23 21:47:14+01:00" "column=Waters Acquity BEH C18 1.7um x 2.1 x 150 mm" "retention time=882" "raw data file=C:\Data\Confirmed Standards\Confirmed stds MSMS 22Nov13\Nevadensin (vial 286) MSMS.d" "computed mass accuracy=1.6705816582547715" "computed mass error=5.73148000000856E-4" "SPLASH=splash10-03di-0039000000-0e1437cfda40810fe69b" "submitter=Aiko Barsch (Bruker)" "MoNA Rating=4.583333333333334"
Num Peaks: 24
155.0501 0.600601
157.0658 0.600601
173.0605 1.201201
185.0605 2.102102
198.0321 1.201201
203.0710 1.001001
213.0549 1.501502
226.0268 5.905906
227.0301 0.900901
229.0503 2.502503
241.0505 29.829830
242.0535 2.702703
254.0216 1.401401
257.0452 0.900901
269.0460 0.900901
270.0162 0.900901
285.0405 1.501502
298.0124 5.205205
299.0146 0.700701
313.0362 100.000000
314.0394 10.410410
315.0409 1.301301
328.0599 22.422422
329.0628 3.003003


Name: Nevadensin
Synon: $:00in-source
DB#: MetaboBASE0643
InChIKey: KRFBMPVGAYGGJE-UHFFFAOYSA-N
Precursor_type: [M-H]-
Spectrum_type: MS2
PrecursorMZ: 343.08
Instrument_type: LC-ESI-TOF
Instrument: impact HD
Ion_mode: N
Collision_energy: 40
Formula: C18H16O7
MW: 344
ExactMass: 344.089602852
Comments: "cas number=10176-66-6" "SMILES=COc1ccc(cc1)c2cc(=O)c3c(c(c(c(c3o2)OC)O)OC)O" "InChI=InChI=1S/C18H16O7/c1-22-10-6-4-9(5-7-10)12-8-11(19)13-14(20)17(23-2)15(21)18(24-3)16(13)25-12/h4-8,20-21H,1-3H3" "computed SMILES=O=C1C=C(OC=2C(OC)=C(O)C(OC)=C(O)C12)C=3C=CC(OC)=CC3" "license=License CC-BY-NC-SA 4.0 International" "author=Plant Biology, The Noble Foundation, Ardmore, OK, US/Dennis Fine, Daniel Wherritt, and Lloyd Sumner" "ionization=ESI" "isolation width=5" "collision gas=Nitrogen" "peak width=0.016" "date=2013-11-23 21:47:14+01:00" "column=Waters Acquity BEH C18 1.7um x 2.1 x 150 mm" "retention time=882" "raw data file=C:\Data\Confirmed Standards\Confirmed stds MSMS 22Nov13\Nevadensin (vial 286) MSMS.d" "computed mass accuracy=6.782243208610671" "computed mass error=-0.002326852000010149" "SPLASH=splash10-002e-0691000000-5186eea7f18ad2656573" "submitter=Aiko Barsch (Bruker)" "MoNA Rating=4.545454545454546"
Num Peaks: 26
117.0350 10.010010
155.0502 37.137137
156.0570 8.308308
157.0656 41.441441
170.0372 39.439439
173.0607 49.049049
185.0605 35.635636
186.0320 16.216216
193.0135 7.107107
198.0320 100.000000
199.0360 10.810811
203.0707 13.813814
213.0552 27.027027
214.0265 31.331331
226.0268 93.993994
227.0302 10.410410
229.0501 51.451451
241.0503 97.197197
242.0214 14.214214
242.0534 14.414414
254.0211 11.411411
270.0168 26.926927
298.0122 83.783784
299.0147 9.309309
313.0361 83.683684
314.0389 10.210210


Name: Nevadensin
Synon: $:00in-source
DB#: MetaboBASE0644
InChIKey: KRFBMPVGAYGGJE-UHFFFAOYSA-N
Precursor_type: [M-H]-
Spectrum_type: MS2
PrecursorMZ: 343.08
Instrument_type: LC-ESI-TOF
Instrument: impact HD
Ion_mode: N
Collision_energy: 50
Formula: C18H16O7
MW: 344
ExactMass: 344.089602852
Comments: "cas number=10176-66-6" "SMILES=COc1ccc(cc1)c2cc(=O)c3c(c(c(c(c3o2)OC)O)OC)O" "InChI=InChI=1S/C18H16O7/c1-22-10-6-4-9(5-7-10)12-8-11(19)13-14(20)17(23-2)15(21)18(24-3)16(13)25-12/h4-8,20-21H,1-3H3" "computed SMILES=O=C1C=C(OC=2C(OC)=C(O)C(OC)=C(O)C12)C=3C=CC(OC)=CC3" "license=License CC-BY-NC-SA 4.0 International" "author=Plant Biology, The Noble Foundation, Ardmore, OK, US/Dennis Fine, Daniel Wherritt, and Lloyd Sumner" "ionization=ESI" "isolation width=5" "collision gas=Nitrogen" "peak width=0.017" "date=2013-11-23 21:47:14+01:00" "column=Waters Acquity BEH C18 1.7um x 2.1 x 150 mm" "retention time=882" "raw data file=C:\Data\Confirmed Standards\Confirmed stds MSMS 22Nov13\Nevadensin (vial 286) MSMS.d" "computed mass accuracy=6.782243208610671" "computed mass error=-0.002326852000010149" "SPLASH=splash10-00ds-0920000000-29debd8d4c1231396059" "submitter=Aiko Barsch (Bruker)" "MoNA Rating=4.545454545454546"
Num Peaks: 26
117.0345 31.531532
141.0344 11.411411
142.0423 33.333333
145.0294 10.610611
155.0501 32.732733
157.0655 30.230230
158.0372 21.021021
169.0291 14.914915
170.0370 100.000000
171.0406 8.908909
173.0605 37.437437
177.9903 9.909910
180.9777 9.009009
185.0244 13.513514
185.0605 10.810811
186.0318 75.175175
197.0242 8.908909
198.0317 98.798799
199.0356 11.311311
213.0192 19.819820
214.0267 56.556557
226.0267 23.123123
229.0503 14.914915
242.0215 13.213213
270.0166 15.715716
298.0115 15.415415


Name: Nevadensin
Synon: $:00in-source
DB#: MetaboBASE0645
InChIKey: KRFBMPVGAYGGJE-UHFFFAOYSA-N
Instrument_type: LC-ESI-TOF
Instrument: impact HD
Ion_mode: N
Formula: C18H16O7
MW: 344
ExactMass: 344.089602852
Comments: "cas number=10176-66-6" "SMILES=COc1ccc(cc1)c2cc(=O)c3c(c(c(c(c3o2)OC)O)OC)O" "InChI=InChI=1S/C18H16O7/c1-22-10-6-4-9(5-7-10)12-8-11(19)13-14(20)17(23-2)15(21)18(24-3)16(13)25-12/h4-8,20-21H,1-3H3" "computed SMILES=O=C1C=C(OC=2C(OC)=C(O)C(OC)=C(O)C12)C=3C=CC(OC)=CC3" "license=License CC-BY-NC-SA 4.0 International" "author=Plant Biology, The Noble Foundation, Ardmore, OK, US/Dennis Fine, Daniel Wherritt, and Lloyd Sumner" "ionization=ESI" "collision gas=Nitrogen" "peak width=0.013" "date=2013-11-23 21:47:14+01:00" "column=Waters Acquity BEH C18 1.7um x 2.1 x 150 mm" "retention time=882" "raw data file=C:\Data\Confirmed Standards\Confirmed stds MSMS 22Nov13\Nevadensin (vial 286) MSMS.d" "SPLASH=splash10-0006-0009000000-d18522ae9f9167d29e25" "submitter=Aiko Barsch (Bruker)" "MoNA Rating=3.888888888888889"
Num Peaks: 14
313.0728 0.600601
327.0513 0.600601
328.0588 0.500501
343.0840 100.000000
344.0872 17.417417
345.0887 2.002002
346.0911 0.200200
411.0707 0.300300
709.1553 5.305305
710.1584 1.801802
711.1620 0.400400
1069.2141 0.200200
1070.2100 0.200200
1084.1764 0.200200


Name: Pratol
Synon: $:00in-source
DB#: MetaboBASE0646
InChIKey: SQVXWIUVAILQRH-UHFFFAOYSA-N
Precursor_type: [M-H]-
Spectrum_type: MS2
PrecursorMZ: 267.0663
Instrument_type: LC-ESI-TOF
Instrument: impact HD
Ion_mode: N
Collision_energy: 20
Formula: C16H12O4
MW: 268
ExactMass: 268.073558864
Comments: "cas number=487-24-1" "SMILES=COc1ccc(cc1)c2cc(=O)c3ccc(cc3o2)O" "InChI=InChI=1S/C16H12O4/c1-19-12-5-2-10(3-6-12)15-9-14(18)13-7-4-11(17)8-16(13)20-15/h2-9,17H,1H3" "computed SMILES=O=C1C=C(OC2=CC(O)=CC=C12)C=3C=CC(OC)=CC3" "license=License CC-BY-NC-SA 4.0 International" "author=Plant Biology, The Noble Foundation, Ardmore, OK, US/Dennis Fine, Daniel Wherritt, and Lloyd Sumner" "ionization=ESI" "isolation width=5" "collision gas=Nitrogen" "peak width=0.016" "date=2013-11-23 14:18:48+01:00" "column=Waters Acquity BEH C18 1.7um x 2.1 x 150 mm" "retention time=691.8" "raw data file=C:\Data\Confirmed Standards\Confirmed stds MSMS 22Nov13\Pratol (vial 270) MSMS.d" "computed mass accuracy=0.06416384244943495" "computed mass error=1.7135999996753526E-5" "SPLASH=splash10-0udi-0090000000-09148e8773c6d2fac686" "submitter=Aiko Barsch (Bruker)" "MoNA Rating=4.615384615384616"
Num Peaks: 10
135.0102 0.200200
223.0407 1.401401
224.0466 0.800801
251.0348 0.200200
252.0427 100.000000
253.0457 11.311311
254.0480 1.001001
267.0663 45.145145
268.0690 5.505506
269.0725 0.600601


Name: Pratol
Synon: $:00in-source
DB#: MetaboBASE0647
InChIKey: SQVXWIUVAILQRH-UHFFFAOYSA-N
Precursor_type: [M-H]-
Spectrum_type: MS2
PrecursorMZ: 267.0662
Instrument_type: LC-ESI-TOF
Instrument: impact HD
Ion_mode: N
Collision_energy: 10
Formula: C16H12O4
MW: 268
ExactMass: 268.073558864
Comments: "cas number=487-24-1" "SMILES=COc1ccc(cc1)c2cc(=O)c3ccc(cc3o2)O" "InChI=InChI=1S/C16H12O4/c1-19-12-5-2-10(3-6-12)15-9-14(18)13-7-4-11(17)8-16(13)20-15/h2-9,17H,1H3" "computed SMILES=O=C1C=C(OC2=CC(O)=CC=C12)C=3C=CC(OC)=CC3" "license=License CC-BY-NC-SA 4.0 International" "author=Plant Biology, The Noble Foundation, Ardmore, OK, US/Dennis Fine, Daniel Wherritt, and Lloyd Sumner" "ionization=ESI" "isolation width=5" "collision gas=Nitrogen" "peak width=0.011" "date=2013-11-23 14:18:48+01:00" "column=Waters Acquity BEH C18 1.7um x 2.1 x 150 mm" "retention time=691.8" "raw data file=C:\Data\Confirmed Standards\Confirmed stds MSMS 22Nov13\Pratol (vial 270) MSMS.d" "computed mass accuracy=0.31027513041705707" "computed mass error=-8.286400003498784E-5" "SPLASH=splash10-014i-0090000000-4ff43580b09d61ab1b53" "submitter=Aiko Barsch (Bruker)" "MoNA Rating=4.615384615384616"
Num Peaks: 9
223.0397 0.100100
252.0424 4.904905
253.0459 0.800801
254.0470 0.100100
266.7712 0.100100
267.0662 100.000000
267.1099 0.100100
268.0696 11.711712
269.0719 1.101101


Name: Pratol
Synon: $:00in-source
DB#: MetaboBASE0648
InChIKey: SQVXWIUVAILQRH-UHFFFAOYSA-N
Instrument_type: LC-ESI-TOF
Instrument: impact HD
Ion_mode: N
Formula: C16H12O4
MW: 268
ExactMass: 268.073558864
Comments: "cas number=487-24-1" "SMILES=COc1ccc(cc1)c2cc(=O)c3ccc(cc3o2)O" "InChI=InChI=1S/C16H12O4/c1-19-12-5-2-10(3-6-12)15-9-14(18)13-7-4-11(17)8-16(13)20-15/h2-9,17H,1H3" "computed SMILES=O=C1C=C(OC2=CC(O)=CC=C12)C=3C=CC(OC)=CC3" "license=License CC-BY-NC-SA 4.0 International" "author=Plant Biology, The Noble Foundation, Ardmore, OK, US/Dennis Fine, Daniel Wherritt, and Lloyd Sumner" "ionization=ESI" "collision gas=Nitrogen" "peak width=0.013" "date=2013-11-23 14:18:48+01:00" "column=Waters Acquity BEH C18 1.7um x 2.1 x 150 mm" "retention time=691.8" "raw data file=C:\Data\Confirmed Standards\Confirmed stds MSMS 22Nov13\Pratol (vial 270) MSMS.d" "SPLASH=splash10-014i-0090000000-72f0a649e390c28020eb" "submitter=Aiko Barsch (Bruker)" "MoNA Rating=3.888888888888889"
Num Peaks: 19
116.0269 0.800801
117.0347 1.301301
135.0100 5.805806
167.0512 1.001001
195.0460 4.304304
223.0402 6.206206
224.0458 1.501502
252.0428 48.648649
253.0460 5.705706
254.0484 0.800801
267.0664 100.000000
268.0696 13.913914
269.0725 1.501502
335.0540 1.001001
535.1398 2.702703
557.1224 2.902903
558.1249 0.900901
1124.2152 1.801802
1125.2220 1.001001


Name: Pratol
Synon: $:00in-source
DB#: MetaboBASE0649
InChIKey: SQVXWIUVAILQRH-UHFFFAOYSA-N
Precursor_type: [M-H]-
Spectrum_type: MS2
PrecursorMZ: 267.07
Instrument_type: LC-ESI-TOF
Instrument: impact HD
Ion_mode: N
Collision_energy: 40
Formula: C16H12O4
MW: 268
ExactMass: 268.073558864
Comments: "cas number=487-24-1" "SMILES=COc1ccc(cc1)c2cc(=O)c3ccc(cc3o2)O" "InChI=InChI=1S/C16H12O4/c1-19-12-5-2-10(3-6-12)15-9-14(18)13-7-4-11(17)8-16(13)20-15/h2-9,17H,1H3" "computed SMILES=O=C1C=C(OC2=CC(O)=CC=C12)C=3C=CC(OC)=CC3" "license=License CC-BY-NC-SA 4.0 International" "author=Plant Biology, The Noble Foundation, Ardmore, OK, US/Dennis Fine, Daniel Wherritt, and Lloyd Sumner" "ionization=ESI" "isolation width=5" "collision gas=Nitrogen" "peak width=0.018" "date=2013-11-23 14:18:48+01:00" "column=Waters Acquity BEH C18 1.7um x 2.1 x 150 mm" "retention time=691.8" "raw data file=C:\Data\Confirmed Standards\Confirmed stds MSMS 22Nov13\Pratol (vial 270) MSMS.d" "computed mass accuracy=13.91820870924279" "computed mass error=0.0037171359999774722" "SPLASH=splash10-00dr-0790000000-93cd8430256f7fe74d94" "submitter=Aiko Barsch (Bruker)" "MoNA Rating=4.545454545454546"
Num Peaks: 16
108.0212 4.304304
116.0270 7.707708
117.0355 9.809810
135.0102 82.182182
136.0140 6.106106
153.0206 6.706707
167.0520 3.303303
182.0392 2.102102
195.0464 17.217217
196.0528 8.908909
223.0401 100.000000
224.0461 35.835836
225.0473 3.703704
251.0339 3.703704
252.0422 40.940941
253.0449 6.406406


Name: Pratol
Synon: $:00in-source
DB#: MetaboBASE0650
InChIKey: SQVXWIUVAILQRH-UHFFFAOYSA-N
Precursor_type: [M-H]-
Spectrum_type: MS2
PrecursorMZ: 267.0659
Instrument_type: LC-ESI-TOF
Instrument: impact HD
Ion_mode: N
Collision_energy: 30
Formula: C16H12O4
MW: 268
ExactMass: 268.073558864
Comments: "cas number=487-24-1" "SMILES=COc1ccc(cc1)c2cc(=O)c3ccc(cc3o2)O" "InChI=InChI=1S/C16H12O4/c1-19-12-5-2-10(3-6-12)15-9-14(18)13-7-4-11(17)8-16(13)20-15/h2-9,17H,1H3" "computed SMILES=O=C1C=C(OC2=CC(O)=CC=C12)C=3C=CC(OC)=CC3" "license=License CC-BY-NC-SA 4.0 International" "author=Plant Biology, The Noble Foundation, Ardmore, OK, US/Dennis Fine, Daniel Wherritt, and Lloyd Sumner" "ionization=ESI" "isolation width=5" "collision gas=Nitrogen" "peak width=0.013" "date=2013-11-23 14:18:48+01:00" "column=Waters Acquity BEH C18 1.7um x 2.1 x 150 mm" "retention time=691.8" "raw data file=C:\Data\Confirmed Standards\Confirmed stds MSMS 22Nov13\Pratol (vial 270) MSMS.d" "computed mass accuracy=1.433593731047375" "computed mass error=-3.828640000165251E-4" "SPLASH=splash10-0udi-0090000000-a09f20ef7c4525e2a0a9" "submitter=Aiko Barsch (Bruker)" "MoNA Rating=4.583333333333334"
Num Peaks: 17
108.0222 0.600601
117.0352 0.400400
135.0101 10.010010
136.0140 0.600601
153.0211 0.600601
180.0612 0.200200
195.0459 0.700701
196.0529 0.700701
223.0401 13.313313
224.0467 7.107107
225.0507 1.001001
251.0365 1.801802
252.0426 100.000000
253.0455 10.410410
254.0471 1.601602
267.0659 2.502503
268.0684 0.400400


Name: Pratol
Synon: $:00in-source
DB#: MetaboBASE0651
InChIKey: SQVXWIUVAILQRH-UHFFFAOYSA-N
Precursor_type: [M-H]-
Spectrum_type: MS2
PrecursorMZ: 267.0663
Instrument_type: LC-ESI-TOF
Instrument: impact HD
Ion_mode: N
Collision_energy: 6
Formula: C16H12O4
MW: 268
ExactMass: 268.073558864
Comments: "cas number=487-24-1" "SMILES=COc1ccc(cc1)c2cc(=O)c3ccc(cc3o2)O" "InChI=InChI=1S/C16H12O4/c1-19-12-5-2-10(3-6-12)15-9-14(18)13-7-4-11(17)8-16(13)20-15/h2-9,17H,1H3" "computed SMILES=O=C1C=C(OC2=CC(O)=CC=C12)C=3C=CC(OC)=CC3" "license=License CC-BY-NC-SA 4.0 International" "author=Plant Biology, The Noble Foundation, Ardmore, OK, US/Dennis Fine, Daniel Wherritt, and Lloyd Sumner" "ionization=ESI" "isolation width=5" "collision gas=Nitrogen" "peak width=0.011" "date=2013-11-23 14:18:48+01:00" "column=Waters Acquity BEH C18 1.7um x 2.1 x 150 mm" "retention time=691.8" "raw data file=C:\Data\Confirmed Standards\Confirmed stds MSMS 22Nov13\Pratol (vial 270) MSMS.d" "computed mass accuracy=0.06416384244943495" "computed mass error=1.7135999996753526E-5" "SPLASH=splash10-014i-0090000000-0efdc21c703c58e847eb" "submitter=Aiko Barsch (Bruker)" "MoNA Rating=4.615384615384616"
Num Peaks: 5
252.0438 0.800801
253.0465 0.300300
267.0663 100.000000
268.0691 11.911912
269.0712 1.201201


Name: Neohesperidin
Synon: $:00in-source
DB#: MetaboBASE0652
InChIKey: ARGKVCXINMKCAZ-UZRWAPQLSA-N
Precursor_type: [M-H]-
Spectrum_type: MS2
PrecursorMZ: 609.1804
Instrument_type: LC-ESI-TOF
Instrument: impact HD
Ion_mode: N
Collision_energy: 20
Formula: C28H34O15
MW: 610
ExactMass: 610.189770388
Comments: "cas number=13241-33-3" "SMILES=C[C@H]1[C@@H]([C@H]([C@H]([C@@H](O1)O[C@@H]2[C@H]([C@@H]([C@H](O[C@H]2Oc3cc(c4c(c3)O[C@@H](CC4=O)c5ccc(c(c5)O)OC)O)CO)O)O)O)O)O" "InChI=InChI=1S/C28H34O15/c1-10-21(33)23(35)25(37)27(39-10)43-26-24(36)22(34)19(9-29)42-28(26)40-12-6-14(31)20-15(32)8-17(41-18(20)7-12)11-3-4-16(38-2)13(30)5-11/h3-7,10,17,19,21-31,33-37H,8-9H2,1-2H3/t10-,17-,19+,21-,22+,23+,24-,25+,26+,27-,28+/m0/s1" "computed SMILES=O=C1C2=C(O)C=C(OC3OC(CO)C(O)C(O)C3OC4OC(C)C(O)C(O)C4O)C=C2OC(C5=CC=C(OC)C(O)=C5)C1" "computed InChI=InChI=1S/C28H34O15/c1-10-21(33)23(35)25(37)27(39-10)43-26-24(36)22(34)19(9-29)42-28(26)40-12-6-14(31)20-15(32)8-17(41-18(20)7-12)11-3-4-16(38-2)13(30)5-11/h3-7,10,17,19,21-31,33-37H,8-9H2,1-2H3" "license=License CC-BY-NC-SA 4.0 International" "author=Plant Biology, The Noble Foundation, Ardmore, OK, US/Dennis Fine, Daniel Wherritt, and Lloyd Sumner" "ionization=ESI" "isolation width=5" "collision gas=Nitrogen" "peak width=0.013" "date=2014-01-04 10:41:25+01:00" "column=Waters Acquity BEH C18 1.7um x 2.1 x 150 mm" "retention time=447" "raw data file=C:\Data\Confirmed Standards\Confirmed stds MSMS 2Jan14\Neohesperidin (vial 318)_MSMS_2411.d" "computed mass accuracy=3.43804232711018" "computed mass error=-0.0020943880000459103" "SPLASH=splash10-0a4i-0000009000-22f8094c7ada8928b694" "submitter=Aiko Barsch (Bruker)" "MoNA Rating=4.583333333333334"
Num Peaks: 7
301.0710 3.503504
609.1804 100.000000
609.8299 0.800801
610.1826 22.122122
611.1856 2.702703
613.1808 0.800801
613.8401 0.800801


Name: Neohesperidin
Synon: $:00in-source
DB#: MetaboBASE0653
InChIKey: ARGKVCXINMKCAZ-UZRWAPQLSA-N
Precursor_type: [M-H]-
Spectrum_type: MS2
PrecursorMZ: 609.1788
Instrument_type: LC-ESI-TOF
Instrument: impact HD
Ion_mode: N
Collision_energy: 30
Formula: C28H34O15
MW: 610
ExactMass: 610.189770388
Comments: "cas number=13241-33-3" "SMILES=C[C@H]1[C@@H]([C@H]([C@H]([C@@H](O1)O[C@@H]2[C@H]([C@@H]([C@H](O[C@H]2Oc3cc(c4c(c3)O[C@@H](CC4=O)c5ccc(c(c5)O)OC)O)CO)O)O)O)O)O" "InChI=InChI=1S/C28H34O15/c1-10-21(33)23(35)25(37)27(39-10)43-26-24(36)22(34)19(9-29)42-28(26)40-12-6-14(31)20-15(32)8-17(41-18(20)7-12)11-3-4-16(38-2)13(30)5-11/h3-7,10,17,19,21-31,33-37H,8-9H2,1-2H3/t10-,17-,19+,21-,22+,23+,24-,25+,26+,27-,28+/m0/s1" "computed SMILES=O=C1C2=C(O)C=C(OC3OC(CO)C(O)C(O)C3OC4OC(C)C(O)C(O)C4O)C=C2OC(C5=CC=C(OC)C(O)=C5)C1" "computed InChI=InChI=1S/C28H34O15/c1-10-21(33)23(35)25(37)27(39-10)43-26-24(36)22(34)19(9-29)42-28(26)40-12-6-14(31)20-15(32)8-17(41-18(20)7-12)11-3-4-16(38-2)13(30)5-11/h3-7,10,17,19,21-31,33-37H,8-9H2,1-2H3" "license=License CC-BY-NC-SA 4.0 International" "author=Plant Biology, The Noble Foundation, Ardmore, OK, US/Dennis Fine, Daniel Wherritt, and Lloyd Sumner" "ionization=ESI" "isolation width=5" "collision gas=Nitrogen" "peak width=0.014" "date=2014-01-04 10:41:25+01:00" "column=Waters Acquity BEH C18 1.7um x 2.1 x 150 mm" "retention time=447" "raw data file=C:\Data\Confirmed Standards\Confirmed stds MSMS 2Jan14\Neohesperidin (vial 318)_MSMS_2411.d" "computed mass accuracy=6.064538030518031" "computed mass error=-0.003694387999985338" "SPLASH=splash10-0a4i-0003009000-68522ebdb396405fee53" "submitter=Aiko Barsch (Bruker)" "MoNA Rating=4.545454545454546"
Num Peaks: 6
301.0717 44.644645
302.0719 7.507508
343.0917 4.904905
609.1788 100.000000
610.1800 24.424424
611.1902 5.905906


Name: Neohesperidin
Synon: $:00in-source
DB#: MetaboBASE0654
InChIKey: ARGKVCXINMKCAZ-UZRWAPQLSA-N
Instrument_type: LC-ESI-TOF
Instrument: impact HD
Ion_mode: N
Formula: C28H34O15
MW: 610
ExactMass: 610.1897703879999
Comments: "cas number=13241-33-3" "SMILES=C[C@H]1[C@@H]([C@H]([C@H]([C@@H](O1)O[C@@H]2[C@H]([C@@H]([C@H](O[C@H]2Oc3cc(c4c(c3)O[C@@H](CC4=O)c5ccc(c(c5)O)OC)O)CO)O)O)O)O)O" "InChI=InChI=1S/C28H34O15/c1-10-21(33)23(35)25(37)27(39-10)43-26-24(36)22(34)19(9-29)42-28(26)40-12-6-14(31)20-15(32)8-17(41-18(20)7-12)11-3-4-16(38-2)13(30)5-11/h3-7,10,17,19,21-31,33-37H,8-9H2,1-2H3/t10-,17-,19+,21-,22+,23+,24-,25+,26+,27-,28+/m0/s1" "computed SMILES=O=C1C2=C(O)C=C(OC3OC(CO)C(O)C(O)C3OC4OC(C)C(O)C(O)C4O)C=C2OC(C5=CC=C(OC)C(O)=C5)C1" "computed InChI=InChI=1S/C28H34O15/c1-10-21(33)23(35)25(37)27(39-10)43-26-24(36)22(34)19(9-29)42-28(26)40-12-6-14(31)20-15(32)8-17(41-18(20)7-12)11-3-4-16(38-2)13(30)5-11/h3-7,10,17,19,21-31,33-37H,8-9H2,1-2H3" "license=License CC-BY-NC-SA 4.0 International" "author=Plant Biology, The Noble Foundation, Ardmore, OK, US/Dennis Fine, Daniel Wherritt, and Lloyd Sumner" "ionization=ESI" "collision gas=Nitrogen" "peak width=0.011" "date=2014-01-04 10:41:25+01:00" "column=Waters Acquity BEH C18 1.7um x 2.1 x 150 mm" "retention time=447" "raw data file=C:\Data\Confirmed Standards\Confirmed stds MSMS 2Jan14\Neohesperidin (vial 318)_MSMS_2411.d" "SPLASH=splash10-0a4i-0000009000-0b34bc849ca3529ddd03" "submitter=Aiko Barsch (Bruker)" "MoNA Rating=3.888888888888889"
Num Peaks: 27
112.9856 1.201201
116.9282 0.500501
128.0090 0.400400
609.1801 100.000000
610.1829 25.525526
611.1843 5.005005
612.1888 0.800801
645.1592 0.600601
655.1885 0.900901
656.1917 0.600601
666.0198 4.404404
667.0198 0.800801
677.1686 6.206206
678.1712 2.002002
679.1749 0.600601
708.1011 0.800801
727.1157 1.101101
739.1456 0.500501
745.1514 1.001001
746.1573 0.400400
807.1221 0.500501
813.1475 0.400400
1219.3715 6.106106
1219.8721 0.400400
1220.3746 2.902903
1221.3722 1.001001
1241.3569 0.700701


Name: Neohesperidin
Synon: $:00in-source
DB#: MetaboBASE0655
InChIKey: ARGKVCXINMKCAZ-UZRWAPQLSA-N
Precursor_type: [M-H]-
Spectrum_type: MS2
PrecursorMZ: 609.1805
Instrument_type: LC-ESI-TOF
Instrument: impact HD
Ion_mode: N
Collision_energy: 10
Formula: C28H34O15
MW: 610
ExactMass: 610.1897703879999
Comments: "cas number=13241-33-3" "SMILES=C[C@H]1[C@@H]([C@H]([C@H]([C@@H](O1)O[C@@H]2[C@H]([C@@H]([C@H](O[C@H]2Oc3cc(c4c(c3)O[C@@H](CC4=O)c5ccc(c(c5)O)OC)O)CO)O)O)O)O)O" "InChI=InChI=1S/C28H34O15/c1-10-21(33)23(35)25(37)27(39-10)43-26-24(36)22(34)19(9-29)42-28(26)40-12-6-14(31)20-15(32)8-17(41-18(20)7-12)11-3-4-16(38-2)13(30)5-11/h3-7,10,17,19,21-31,33-37H,8-9H2,1-2H3/t10-,17-,19+,21-,22+,23+,24-,25+,26+,27-,28+/m0/s1" "computed SMILES=O=C1C2=C(O)C=C(OC3OC(CO)C(O)C(O)C3OC4OC(C)C(O)C(O)C4O)C=C2OC(C5=CC=C(OC)C(O)=C5)C1" "computed InChI=InChI=1S/C28H34O15/c1-10-21(33)23(35)25(37)27(39-10)43-26-24(36)22(34)19(9-29)42-28(26)40-12-6-14(31)20-15(32)8-17(41-18(20)7-12)11-3-4-16(38-2)13(30)5-11/h3-7,10,17,19,21-31,33-37H,8-9H2,1-2H3" "license=License CC-BY-NC-SA 4.0 International" "author=Plant Biology, The Noble Foundation, Ardmore, OK, US/Dennis Fine, Daniel Wherritt, and Lloyd Sumner" "ionization=ESI" "isolation width=5" "collision gas=Nitrogen" "peak width=0.012" "date=2014-01-04 10:41:25+01:00" "column=Waters Acquity BEH C18 1.7um x 2.1 x 150 mm" "retention time=447" "raw data file=C:\Data\Confirmed Standards\Confirmed stds MSMS 2Jan14\Neohesperidin (vial 318)_MSMS_2411.d" "computed mass accuracy=3.2738868034082484" "computed mass error=-0.0019943879998436387" "SPLASH=splash10-0a4i-0000009000-04cc3791b0a80ce12a35" "submitter=Aiko Barsch (Bruker)" "MoNA Rating=4.583333333333334"
Num Peaks: 3
609.1805 100.000000
610.1848 28.428428
611.1850 5.105105


Name: Neohesperidin
Synon: $:00in-source
DB#: MetaboBASE0656
InChIKey: ARGKVCXINMKCAZ-UZRWAPQLSA-N
Precursor_type: [M-H]-
Spectrum_type: MS2
PrecursorMZ: 609.1804
Instrument_type: LC-ESI-TOF
Instrument: impact HD
Ion_mode: N
Collision_energy: 40
Formula: C28H34O15
MW: 610
ExactMass: 610.189770388
Comments: "cas number=13241-33-3" "SMILES=C[C@H]1[C@@H]([C@H]([C@H]([C@@H](O1)O[C@@H]2[C@H]([C@@H]([C@H](O[C@H]2Oc3cc(c4c(c3)O[C@@H](CC4=O)c5ccc(c(c5)O)OC)O)CO)O)O)O)O)O" "InChI=InChI=1S/C28H34O15/c1-10-21(33)23(35)25(37)27(39-10)43-26-24(36)22(34)19(9-29)42-28(26)40-12-6-14(31)20-15(32)8-17(41-18(20)7-12)11-3-4-16(38-2)13(30)5-11/h3-7,10,17,19,21-31,33-37H,8-9H2,1-2H3/t10-,17-,19+,21-,22+,23+,24-,25+,26+,27-,28+/m0/s1" "computed SMILES=O=C1C2=C(O)C=C(OC3OC(CO)C(O)C(O)C3OC4OC(C)C(O)C(O)C4O)C=C2OC(C5=CC=C(OC)C(O)=C5)C1" "computed InChI=InChI=1S/C28H34O15/c1-10-21(33)23(35)25(37)27(39-10)43-26-24(36)22(34)19(9-29)42-28(26)40-12-6-14(31)20-15(32)8-17(41-18(20)7-12)11-3-4-16(38-2)13(30)5-11/h3-7,10,17,19,21-31,33-37H,8-9H2,1-2H3" "license=License CC-BY-NC-SA 4.0 International" "author=Plant Biology, The Noble Foundation, Ardmore, OK, US/Dennis Fine, Daniel Wherritt, and Lloyd Sumner" "ionization=ESI" "isolation width=5" "collision gas=Nitrogen" "peak width=0.014" "date=2014-01-04 10:41:25+01:00" "column=Waters Acquity BEH C18 1.7um x 2.1 x 150 mm" "retention time=447" "raw data file=C:\Data\Confirmed Standards\Confirmed stds MSMS 2Jan14\Neohesperidin (vial 318)_MSMS_2411.d" "computed mass accuracy=3.43804232711018" "computed mass error=-0.0020943880000459103" "SPLASH=splash10-0udi-0009001000-a784d35122c71c756b90" "submitter=Aiko Barsch (Bruker)" "MoNA Rating=4.583333333333334"
Num Peaks: 13
257.0806 3.003003
258.0568 2.902903
283.0607 2.102102
286.0494 4.404404
301.0710 100.000000
302.0735 16.816817
303.0796 2.902903
325.0700 2.102102
343.0849 2.402402
489.1377 4.704705
609.1804 19.219219
610.1847 4.604605
611.1868 2.002002


Name: Neohesperidin dihydrochalcone
Synon: $:00in-source
DB#: MetaboBASE0657
InChIKey: ITVGXXMINPYUHD-CUVHLRMHSA-N
Precursor_type: [M-H]-
Spectrum_type: MS2
PrecursorMZ: 611.2092
Instrument_type: LC-ESI-TOF
Instrument: impact HD
Ion_mode: N
Collision_energy: 6
Formula: C28H36O15
MW: 612
ExactMass: 612.205420452
Comments: "cas number=20702-77-6" "SMILES=C[C@H]1[C@@H]([C@H]([C@H]([C@@H](O1)O[C@@H]2[C@H]([C@@H]([C@H](O[C@H]2Oc3cc(c(c(c3)O)C(=O)CCc4ccc(c(c4)O)OC)O)CO)O)O)O)O)O" "InChI=InChI=1S/C28H36O15/c1-11-21(34)23(36)25(38)27(40-11)43-26-24(37)22(35)19(10-29)42-28(26)41-13-8-16(32)20(17(33)9-13)14(30)5-3-12-4-6-18(39-2)15(31)7-12/h4,6-9,11,19,21-29,31-38H,3,5,10H2,1-2H3/t11-,19+,21-,22+,23+,24-,25+,26+,27-,28+/m0/s1" "computed SMILES=O=C(C1=C(O)C=C(OC2OC(CO)C(O)C(O)C2OC3OC(C)C(O)C(O)C3O)C=C1O)CCC4=CC=C(OC)C(O)=C4" "computed InChI=InChI=1S/C28H36O15/c1-11-21(34)23(36)25(38)27(40-11)43-26-24(37)22(35)19(10-29)42-28(26)41-13-8-16(32)20(17(33)9-13)14(30)5-3-12-4-6-18(39-2)15(31)7-12/h4,6-9,11,19,21-29,31-38H,3,5,10H2,1-2H3" "license=License CC-BY-NC-SA 4.0 International" "author=Plant Biology, The Noble Foundation, Ardmore, OK, US/Dennis Fine, Daniel Wherritt, and Lloyd Sumner" "ionization=ESI" "isolation width=5" "collision gas=Nitrogen" "peak width=0.011" "date=2014-01-04 10:00:41+01:00" "column=Waters Acquity BEH C18 1.7um x 2.1 x 150 mm" "retention time=537" "raw data file=C:\Data\Confirmed Standards\Confirmed stds MSMS 2Jan14\Neohesperidin dihydrocha_MSMS_2410.d" "computed mass accuracy=18.087993439985" "computed mass error=0.01105554800005848" "SPLASH=splash10-03di-0000009000-affa0e0ef92b5a22a553" "submitter=Aiko Barsch (Bruker)" "MoNA Rating=4.545454545454546"
Num Peaks: 3
611.2092 100.000000
612.2150 17.517518
613.2084 4.204204


Name: Neohesperidin dihydrochalcone
Synon: $:00in-source
DB#: MetaboBASE0658
InChIKey: ITVGXXMINPYUHD-CUVHLRMHSA-N
Precursor_type: [M-H]-
Spectrum_type: MS2
PrecursorMZ: 611.2094
Instrument_type: LC-ESI-TOF
Instrument: impact HD
Ion_mode: N
Collision_energy: 30
Formula: C28H36O15
MW: 612
ExactMass: 612.205420452
Comments: "cas number=20702-77-6" "SMILES=C[C@H]1[C@@H]([C@H]([C@H]([C@@H](O1)O[C@@H]2[C@H]([C@@H]([C@H](O[C@H]2Oc3cc(c(c(c3)O)C(=O)CCc4ccc(c(c4)O)OC)O)CO)O)O)O)O)O" "InChI=InChI=1S/C28H36O15/c1-11-21(34)23(36)25(38)27(40-11)43-26-24(37)22(35)19(10-29)42-28(26)41-13-8-16(32)20(17(33)9-13)14(30)5-3-12-4-6-18(39-2)15(31)7-12/h4,6-9,11,19,21-29,31-38H,3,5,10H2,1-2H3/t11-,19+,21-,22+,23+,24-,25+,26+,27-,28+/m0/s1" "computed SMILES=O=C(C1=C(O)C=C(OC2OC(CO)C(O)C(O)C2OC3OC(C)C(O)C(O)C3O)C=C1O)CCC4=CC=C(OC)C(O)=C4" "computed InChI=InChI=1S/C28H36O15/c1-11-21(34)23(36)25(38)27(40-11)43-26-24(37)22(35)19(10-29)42-28(26)41-13-8-16(32)20(17(33)9-13)14(30)5-3-12-4-6-18(39-2)15(31)7-12/h4,6-9,11,19,21-29,31-38H,3,5,10H2,1-2H3" "license=License CC-BY-NC-SA 4.0 International" "author=Plant Biology, The Noble Foundation, Ardmore, OK, US/Dennis Fine, Daniel Wherritt, and Lloyd Sumner" "ionization=ESI" "isolation width=5" "collision gas=Nitrogen" "peak width=0.011" "date=2014-01-04 10:00:41+01:00" "column=Waters Acquity BEH C18 1.7um x 2.1 x 150 mm" "retention time=537" "raw data file=C:\Data\Confirmed Standards\Confirmed stds MSMS 2Jan14\Neohesperidin dihydrocha_MSMS_2410.d" "computed mass accuracy=18.415207619529863" "computed mass error=0.011255548000008275" "SPLASH=splash10-03di-0001009000-828aa8353246f5f4043d" "submitter=Aiko Barsch (Bruker)" "MoNA Rating=4.545454545454546"
Num Peaks: 13
303.0921 15.215215
304.0966 2.202202
327.0924 2.202202
387.1146 0.900901
405.1266 1.301301
433.1428 1.401401
449.1480 1.501502
465.1504 1.001001
491.1627 3.803804
492.1682 0.900901
611.2094 100.000000
612.2134 24.324324
613.2174 2.902903


Name: Neohesperidin dihydrochalcone
Synon: $:00in-source
DB#: MetaboBASE0659
InChIKey: ITVGXXMINPYUHD-CUVHLRMHSA-N
Precursor_type: [M-H]-
Spectrum_type: MS2
PrecursorMZ: 611.2084
Instrument_type: LC-ESI-TOF
Instrument: impact HD
Ion_mode: N
Collision_energy: 40
Formula: C28H36O15
MW: 612
ExactMass: 612.205420452
Comments: "cas number=20702-77-6" "SMILES=C[C@H]1[C@@H]([C@H]([C@H]([C@@H](O1)O[C@@H]2[C@H]([C@@H]([C@H](O[C@H]2Oc3cc(c(c(c3)O)C(=O)CCc4ccc(c(c4)O)OC)O)CO)O)O)O)O)O" "InChI=InChI=1S/C28H36O15/c1-11-21(34)23(36)25(38)27(40-11)43-26-24(37)22(35)19(10-29)42-28(26)41-13-8-16(32)20(17(33)9-13)14(30)5-3-12-4-6-18(39-2)15(31)7-12/h4,6-9,11,19,21-29,31-38H,3,5,10H2,1-2H3/t11-,19+,21-,22+,23+,24-,25+,26+,27-,28+/m0/s1" "computed SMILES=O=C(C1=C(O)C=C(OC2OC(CO)C(O)C(O)C2OC3OC(C)C(O)C(O)C3O)C=C1O)CCC4=CC=C(OC)C(O)=C4" "computed InChI=InChI=1S/C28H36O15/c1-11-21(34)23(36)25(38)27(40-11)43-26-24(37)22(35)19(10-29)42-28(26)41-13-8-16(32)20(17(33)9-13)14(30)5-3-12-4-6-18(39-2)15(31)7-12/h4,6-9,11,19,21-29,31-38H,3,5,10H2,1-2H3" "license=License CC-BY-NC-SA 4.0 International" "author=Plant Biology, The Noble Foundation, Ardmore, OK, US/Dennis Fine, Daniel Wherritt, and Lloyd Sumner" "ionization=ESI" "isolation width=5" "collision gas=Nitrogen" "peak width=0.013" "date=2014-01-04 10:00:41+01:00" "column=Waters Acquity BEH C18 1.7um x 2.1 x 150 mm" "retention time=537" "raw data file=C:\Data\Confirmed Standards\Confirmed stds MSMS 2Jan14\Neohesperidin dihydrocha_MSMS_2410.d" "computed mass accuracy=16.779134580008918" "computed mass error=0.010255548000031922" "SPLASH=splash10-0udi-0009103000-97bc3acb4370bf9313c9" "submitter=Aiko Barsch (Bruker)" "MoNA Rating=4.545454545454546"
Num Peaks: 27
125.0264 6.006006
126.0283 1.901902
224.4239 1.201201
244.0768 2.202202
261.0825 1.201201
285.0867 1.401401
288.0698 3.603604
289.0741 1.501502
303.0932 100.000000
304.0954 14.814815
305.0972 1.401401
313.1015 1.701702
327.0949 5.805806
328.0896 2.102102
345.1016 4.204204
346.1155 2.002002
357.1052 1.701702
369.1053 1.701702
405.1272 2.302302
433.1387 2.502503
434.1486 2.102102
447.1431 1.501502
491.1655 6.006006
492.1701 2.402402
611.2084 36.936937
612.2106 9.609610
613.2123 1.701702


Name: Neohesperidin dihydrochalcone
Synon: $:00in-source
DB#: MetaboBASE0660
InChIKey: ITVGXXMINPYUHD-CUVHLRMHSA-N
Instrument_type: LC-ESI-TOF
Instrument: impact HD
Ion_mode: N
Formula: C28H36O15
MW: 612
ExactMass: 612.205420452
Comments: "cas number=20702-77-6" "SMILES=C[C@H]1[C@@H]([C@H]([C@H]([C@@H](O1)O[C@@H]2[C@H]([C@@H]([C@H](O[C@H]2Oc3cc(c(c(c3)O)C(=O)CCc4ccc(c(c4)O)OC)O)CO)O)O)O)O)O" "InChI=InChI=1S/C28H36O15/c1-11-21(34)23(36)25(38)27(40-11)43-26-24(37)22(35)19(10-29)42-28(26)41-13-8-16(32)20(17(33)9-13)14(30)5-3-12-4-6-18(39-2)15(31)7-12/h4,6-9,11,19,21-29,31-38H,3,5,10H2,1-2H3/t11-,19+,21-,22+,23+,24-,25+,26+,27-,28+/m0/s1" "computed SMILES=O=C(C1=C(O)C=C(OC2OC(CO)C(O)C(O)C2OC3OC(C)C(O)C(O)C3O)C=C1O)CCC4=CC=C(OC)C(O)=C4" "computed InChI=InChI=1S/C28H36O15/c1-11-21(34)23(36)25(38)27(40-11)43-26-24(37)22(35)19(10-29)42-28(26)41-13-8-16(32)20(17(33)9-13)14(30)5-3-12-4-6-18(39-2)15(31)7-12/h4,6-9,11,19,21-29,31-38H,3,5,10H2,1-2H3" "license=License CC-BY-NC-SA 4.0 International" "author=Plant Biology, The Noble Foundation, Ardmore, OK, US/Dennis Fine, Daniel Wherritt, and Lloyd Sumner" "ionization=ESI" "collision gas=Nitrogen" "peak width=0.011" "date=2014-01-04 10:00:41+01:00" "column=Waters Acquity BEH C18 1.7um x 2.1 x 150 mm" "retention time=537" "raw data file=C:\Data\Confirmed Standards\Confirmed stds MSMS 2Jan14\Neohesperidin dihydrocha_MSMS_2410.d" "SPLASH=splash10-0w29-0119005000-c793e997a188821d0f59" "submitter=Aiko Barsch (Bruker)" "MoNA Rating=3.888888888888889"
Num Peaks: 80
110.9000 0.300300
112.9880 1.701702
114.9342 0.500501
116.9302 3.203203
117.9314 0.500501
124.0174 0.400400
125.0265 9.809810
126.0293 0.600601
128.0120 1.501502
146.9415 0.500501
149.0278 0.300300
151.0060 0.400400
152.0142 0.600601
157.0125 0.500501
166.0301 1.001001
167.0350 0.500501
174.9582 1.001001
180.9735 0.500501
217.0924 0.400400
219.0715 0.900901
241.0891 0.300300
244.0786 2.802803
245.0843 0.500501
248.9650 0.400400
259.1027 1.201201
269.0513 0.500501
270.0589 0.500501
271.0685 0.400400
285.0821 1.601602
287.0598 0.500501
287.0916 0.300300
288.0694 6.206206
289.0746 1.401401
302.0872 0.400400
303.0934 100.000000
304.0964 13.313313
305.0985 1.801802
306.1008 0.300300
309.1015 0.300300
312.0707 0.500501
313.0988 0.400400
315.0873 0.400400
325.0762 2.602603
326.0786 0.300300
327.0940 2.702703
328.0985 0.600601
345.1045 2.202202
346.1068 0.300300
347.0574 0.500501
357.0104 0.600601
357.1096 0.400400
369.1009 0.400400
387.1146 0.300300
393.9760 0.500501
405.1254 0.600601
416.0249 0.300300
433.1367 0.500501
447.1372 0.600601
487.1238 0.300300
491.1626 2.002002
492.1658 0.500501
611.2097 52.752753
612.2119 11.511512
613.2164 2.102102
614.2197 0.900901
633.1899 2.202202
634.1959 0.900901
635.1926 0.300300
649.1564 1.501502
650.1580 0.400400
655.1756 1.101101
656.1916 0.400400
664.1210 1.101101
665.1283 0.600601
679.1960 0.400400
687.1080 0.400400
689.1033 0.300300
717.1499 0.400400
1223.4435 0.500501
1323.2965 0.300300


Name: Scutellarein
Synon: $:00in-source
DB#: MetaboBASE0661
InChIKey: JVXZRQGOGOXCEC-UHFFFAOYSA-N
Instrument_type: LC-ESI-TOF
Instrument: impact HD
Ion_mode: N
Formula: C15H10O6
MW: 286
ExactMass: 286.04773803999996
Comments: "cas number=529-53-3" "SMILES=c1cc(ccc1c2cc(=O)c3c(o2)cc(c(c3O)O)O)O" "InChI=InChI=1S/C15H10O6/c16-8-3-1-7(2-4-8)11-5-9(17)13-12(21-11)6-10(18)14(19)15(13)20/h1-6,16,18-20H" "computed SMILES=O=C1C=C(OC2=CC(O)=C(O)C(O)=C12)C=3C=CC(O)=CC3" "license=License CC-BY-NC-SA 4.0 International" "author=Plant Biology, The Noble Foundation, Ardmore, OK, US/Dennis Fine, Daniel Wherritt, and Lloyd Sumner" "ionization=ESI" "collision gas=Nitrogen" "peak width=0.012" "date=2014-01-09 03:27:43+01:00" "column=Waters Acquity BEH C18 1.7um x 2.1 x 150 mm" "retention time=427.8" "raw data file=C:\Data\Confirmed Standards\Confirmed stds MSMS 8Jan14\Scutellarein (vial 341)_MSMS.d" "SPLASH=splash10-001i-0090000000-bf8e9136f867b6a8f883" "submitter=Aiko Barsch (Bruker)" "MoNA Rating=3.888888888888889"
Num Peaks: 9
116.9289 3.703704
117.0348 13.113113
255.0306 7.907908
271.0252 4.204204
283.0260 100.000000
284.0296 13.513514
285.0411 46.246246
286.0440 6.006006
301.0365 10.710711


Name: Scutellarein
Synon: $:00in-source
DB#: MetaboBASE0662
InChIKey: JVXZRQGOGOXCEC-UHFFFAOYSA-N
Spectrum_type: MS2
PrecursorMZ: 283
Instrument_type: LC-ESI-TOF
Instrument: impact HD
Ion_mode: N
Collision_energy: 30
Formula: C15H10O6
MW: 286
ExactMass: 286.04773804
Comments: "cas number=529-53-3" "SMILES=c1cc(ccc1c2cc(=O)c3c(o2)cc(c(c3O)O)O)O" "InChI=InChI=1S/C15H10O6/c16-8-3-1-7(2-4-8)11-5-9(17)13-12(21-11)6-10(18)14(19)15(13)20/h1-6,16,18-20H" "computed SMILES=O=C1C=C(OC2=CC(O)=C(O)C(O)=C12)C=3C=CC(O)=CC3" "license=License CC-BY-NC-SA 4.0 International" "author=Plant Biology, The Noble Foundation, Ardmore, OK, US/Dennis Fine, Daniel Wherritt, and Lloyd Sumner" "ionization=ESI" "isolation width=5" "collision gas=Nitrogen" "peak width=0.02" "date=2014-01-09 03:27:43+01:00" "column=Waters Acquity BEH C18 1.7um x 2.1 x 150 mm" "retention time=427.8" "raw data file=C:\Data\Confirmed Standards\Confirmed stds MSMS 8Jan14\Scutellarein (vial 341)_MSMS.d" "SPLASH=splash10-00kr-0950000000-2a9ad8450a74a9138db7" "submitter=Aiko Barsch (Bruker)" "MoNA Rating=3.125"
Num Peaks: 10
117.0352 100.000000
119.0523 20.820821
136.9883 32.232232
136.9999 32.232232
139.0043 26.226226
163.0055 16.316316
165.0032 14.614615
239.0369 24.924925
255.0298 58.458458
285.0414 67.467467


Name: Scutellarein
Synon: $:00in-source
DB#: MetaboBASE0663
InChIKey: JVXZRQGOGOXCEC-UHFFFAOYSA-N
Spectrum_type: MS2
PrecursorMZ: 283.0255
Instrument_type: LC-ESI-TOF
Instrument: impact HD
Ion_mode: N
Collision_energy: 6
Formula: C15H10O6
MW: 286
ExactMass: 286.04773803999996
Comments: "cas number=529-53-3" "SMILES=c1cc(ccc1c2cc(=O)c3c(o2)cc(c(c3O)O)O)O" "InChI=InChI=1S/C15H10O6/c16-8-3-1-7(2-4-8)11-5-9(17)13-12(21-11)6-10(18)14(19)15(13)20/h1-6,16,18-20H" "computed SMILES=O=C1C=C(OC2=CC(O)=C(O)C(O)=C12)C=3C=CC(O)=CC3" "license=License CC-BY-NC-SA 4.0 International" "author=Plant Biology, The Noble Foundation, Ardmore, OK, US/Dennis Fine, Daniel Wherritt, and Lloyd Sumner" "ionization=ESI" "isolation width=5" "collision gas=Nitrogen" "peak width=0.014" "date=2014-01-09 03:27:43+01:00" "column=Waters Acquity BEH C18 1.7um x 2.1 x 150 mm" "retention time=427.8" "raw data file=C:\Data\Confirmed Standards\Confirmed stds MSMS 8Jan14\Scutellarein (vial 341)_MSMS.d" "SPLASH=splash10-0019-0090000000-9852b3a29568c9b0599c" "submitter=Aiko Barsch (Bruker)" "MoNA Rating=3.125"
Num Peaks: 4
283.0255 63.763764
284.0277 10.110110
285.0410 100.000000
286.0446 9.009009


Name: Scutellarein
Synon: $:00in-source
DB#: MetaboBASE0664
InChIKey: JVXZRQGOGOXCEC-UHFFFAOYSA-N
Spectrum_type: MS2
PrecursorMZ: 283.026
Instrument_type: LC-ESI-TOF
Instrument: impact HD
Ion_mode: N
Collision_energy: 20
Formula: C15H10O6
MW: 286
ExactMass: 286.04773804
Comments: "cas number=529-53-3" "SMILES=c1cc(ccc1c2cc(=O)c3c(o2)cc(c(c3O)O)O)O" "InChI=InChI=1S/C15H10O6/c16-8-3-1-7(2-4-8)11-5-9(17)13-12(21-11)6-10(18)14(19)15(13)20/h1-6,16,18-20H" "computed SMILES=O=C1C=C(OC2=CC(O)=C(O)C(O)=C12)C=3C=CC(O)=CC3" "license=License CC-BY-NC-SA 4.0 International" "author=Plant Biology, The Noble Foundation, Ardmore, OK, US/Dennis Fine, Daniel Wherritt, and Lloyd Sumner" "ionization=ESI" "isolation width=5" "collision gas=Nitrogen" "peak width=0.014" "date=2014-01-09 03:27:43+01:00" "column=Waters Acquity BEH C18 1.7um x 2.1 x 150 mm" "retention time=427.8" "raw data file=C:\Data\Confirmed Standards\Confirmed stds MSMS 8Jan14\Scutellarein (vial 341)_MSMS.d" "SPLASH=splash10-000i-0090000000-dfb81d7bffac0efa5dd2" "submitter=Aiko Barsch (Bruker)" "MoNA Rating=3.125"
Num Peaks: 11
117.0340 4.504505
163.0046 2.402402
227.0352 3.203203
239.0338 2.402402
255.0308 35.335335
256.0345 3.103103
267.0327 2.602603
283.0260 29.229229
284.0289 3.403403
285.0415 100.000000
286.0453 8.208208


Name: Scutellarein
Synon: $:00in-source
DB#: MetaboBASE0665
InChIKey: JVXZRQGOGOXCEC-UHFFFAOYSA-N
Spectrum_type: MS2
PrecursorMZ: 283.0255
Instrument_type: LC-ESI-TOF
Instrument: impact HD
Ion_mode: N
Collision_energy: 10
Formula: C15H10O6
MW: 286
ExactMass: 286.04773804
Comments: "cas number=529-53-3" "SMILES=c1cc(ccc1c2cc(=O)c3c(o2)cc(c(c3O)O)O)O" "InChI=InChI=1S/C15H10O6/c16-8-3-1-7(2-4-8)11-5-9(17)13-12(21-11)6-10(18)14(19)15(13)20/h1-6,16,18-20H" "computed SMILES=O=C1C=C(OC2=CC(O)=C(O)C(O)=C12)C=3C=CC(O)=CC3" "license=License CC-BY-NC-SA 4.0 International" "author=Plant Biology, The Noble Foundation, Ardmore, OK, US/Dennis Fine, Daniel Wherritt, and Lloyd Sumner" "ionization=ESI" "isolation width=5" "collision gas=Nitrogen" "peak width=0.013" "date=2014-01-09 03:27:43+01:00" "column=Waters Acquity BEH C18 1.7um x 2.1 x 150 mm" "retention time=427.8" "raw data file=C:\Data\Confirmed Standards\Confirmed stds MSMS 8Jan14\Scutellarein (vial 341)_MSMS.d" "SPLASH=splash10-0019-0090000000-b90683bb18718230f6a4" "submitter=Aiko Barsch (Bruker)" "MoNA Rating=3.125"
Num Peaks: 5
255.0314 2.602603
283.0255 66.466466
284.0284 7.207207
285.0415 100.000000
286.0443 7.207207


Name: Saponarin
Synon: $:00in-source
DB#: MetaboBASE0666
InChIKey: HGUVPEBGCAVWID-KETMJRJWSA-N
Precursor_type: [M-H]-
Spectrum_type: MS2
PrecursorMZ: 593.1487
Instrument_type: LC-ESI-TOF
Instrument: impact HD
Ion_mode: N
Collision_energy: 20
Formula: C27H30O15
MW: 594
ExactMass: 594.15847026
Comments: "cas number=20310-89-8" "SMILES=c1cc(ccc1c2cc(=O)c3c(o2)cc(c(c3O)[C@H]4[C@@H]([C@H]([C@@H]([C@H](O4)CO)O)O)O)O[C@H]5[C@@H]([C@H]([C@@H]([C@H](O5)CO)O)O)O)O" "InChI=InChI=1S/C27H30O15/c28-7-15-19(32)22(35)24(37)26(40-15)18-14(41-27-25(38)23(36)20(33)16(8-29)42-27)6-13-17(21(18)34)11(31)5-12(39-13)9-1-3-10(30)4-2-9/h1-6,15-16,19-20,22-30,32-38H,7-8H2/t15-,16-,19-,20-,22+,23+,24-,25-,26+,27-/m1/s1" "computed SMILES=O=C1C=C(OC=2C=C(OC3OC(CO)C(O)C(O)C3O)C(=C(O)C12)C4OC(CO)C(O)C(O)C4O)C=5C=CC(O)=CC5" "computed InChI=InChI=1S/C27H30O15/c28-7-15-19(32)22(35)24(37)26(40-15)18-14(41-27-25(38)23(36)20(33)16(8-29)42-27)6-13-17(21(18)34)11(31)5-12(39-13)9-1-3-10(30)4-2-9/h1-6,15-16,19-20,22-30,32-38H,7-8H2" "license=License CC-BY-NC-SA 4.0 International" "author=Plant Biology, The Noble Foundation, Ardmore, OK, US/Dennis Fine, Daniel Wherritt, and Lloyd Sumner" "ionization=ESI" "isolation width=5" "collision gas=Nitrogen" "peak width=0.0097" "date=2014-01-04 06:37:01+01:00" "column=Waters Acquity BEH C18 1.7um x 2.1 x 150 mm" "retention time=240.6" "raw data file=C:\Data\Confirmed Standards\Confirmed stds MSMS 2Jan14\Saponarin (v 306)_MSMS_2405.d" "computed mass accuracy=4.205117536184285" "computed mass error=-0.0024942599999349113" "SPLASH=splash10-0006-0000090000-752d9138ff590d44fb11" "submitter=Aiko Barsch (Bruker)" "MoNA Rating=4.583333333333334"
Num Peaks: 7
311.0549 0.200200
431.0960 0.300300
593.0551 0.100100
593.1487 100.000000
594.1525 23.023023
595.1545 3.603604
596.1625 0.400400


Name: Saponarin
Synon: $:00in-source
DB#: MetaboBASE0667
InChIKey: HGUVPEBGCAVWID-KETMJRJWSA-N
Precursor_type: [M-H]-
Spectrum_type: MS2
PrecursorMZ: 593.1486
Instrument_type: LC-ESI-TOF
Instrument: impact HD
Ion_mode: N
Collision_energy: 10
Formula: C27H30O15
MW: 594
ExactMass: 594.1584702600001
Comments: "cas number=20310-89-8" "SMILES=c1cc(ccc1c2cc(=O)c3c(o2)cc(c(c3O)[C@H]4[C@@H]([C@H]([C@@H]([C@H](O4)CO)O)O)O)O[C@H]5[C@@H]([C@H]([C@@H]([C@H](O5)CO)O)O)O)O" "InChI=InChI=1S/C27H30O15/c28-7-15-19(32)22(35)24(37)26(40-15)18-14(41-27-25(38)23(36)20(33)16(8-29)42-27)6-13-17(21(18)34)11(31)5-12(39-13)9-1-3-10(30)4-2-9/h1-6,15-16,19-20,22-30,32-38H,7-8H2/t15-,16-,19-,20-,22+,23+,24-,25-,26+,27-/m1/s1" "computed SMILES=O=C1C=C(OC=2C=C(OC3OC(CO)C(O)C(O)C3O)C(=C(O)C12)C4OC(CO)C(O)C(O)C4O)C=5C=CC(O)=CC5" "computed InChI=InChI=1S/C27H30O15/c28-7-15-19(32)22(35)24(37)26(40-15)18-14(41-27-25(38)23(36)20(33)16(8-29)42-27)6-13-17(21(18)34)11(31)5-12(39-13)9-1-3-10(30)4-2-9/h1-6,15-16,19-20,22-30,32-38H,7-8H2" "license=License CC-BY-NC-SA 4.0 International" "author=Plant Biology, The Noble Foundation, Ardmore, OK, US/Dennis Fine, Daniel Wherritt, and Lloyd Sumner" "ionization=ESI" "isolation width=5" "collision gas=Nitrogen" "peak width=0.0093" "date=2014-01-04 06:37:01+01:00" "column=Waters Acquity BEH C18 1.7um x 2.1 x 150 mm" "retention time=240.6" "raw data file=C:\Data\Confirmed Standards\Confirmed stds MSMS 2Jan14\Saponarin (v 306)_MSMS_2405.d" "computed mass accuracy=4.3737100619026945" "computed mass error=-0.002594260000023496" "SPLASH=splash10-0006-0000090000-6cf097f3383227536e55" "submitter=Aiko Barsch (Bruker)" "MoNA Rating=4.583333333333334"
Num Peaks: 6
592.9465 0.100100
593.0654 0.200200
593.1486 100.000000
594.1518 22.822823
595.1536 3.903904
596.1571 0.400400


Name: Saponarin
Synon: $:00in-source
DB#: MetaboBASE0668
InChIKey: HGUVPEBGCAVWID-KETMJRJWSA-N
Precursor_type: [M-H]-
Spectrum_type: MS2
PrecursorMZ: 593.1488
Instrument_type: LC-ESI-TOF
Instrument: impact HD
Ion_mode: N
Collision_energy: 30
Formula: C27H30O15
MW: 594
ExactMass: 594.1584702600001
Comments: "cas number=20310-89-8" "SMILES=c1cc(ccc1c2cc(=O)c3c(o2)cc(c(c3O)[C@H]4[C@@H]([C@H]([C@@H]([C@H](O4)CO)O)O)O)O[C@H]5[C@@H]([C@H]([C@@H]([C@H](O5)CO)O)O)O)O" "InChI=InChI=1S/C27H30O15/c28-7-15-19(32)22(35)24(37)26(40-15)18-14(41-27-25(38)23(36)20(33)16(8-29)42-27)6-13-17(21(18)34)11(31)5-12(39-13)9-1-3-10(30)4-2-9/h1-6,15-16,19-20,22-30,32-38H,7-8H2/t15-,16-,19-,20-,22+,23+,24-,25-,26+,27-/m1/s1" "computed SMILES=O=C1C=C(OC=2C=C(OC3OC(CO)C(O)C(O)C3O)C(=C(O)C12)C4OC(CO)C(O)C(O)C4O)C=5C=CC(O)=CC5" "computed InChI=InChI=1S/C27H30O15/c28-7-15-19(32)22(35)24(37)26(40-15)18-14(41-27-25(38)23(36)20(33)16(8-29)42-27)6-13-17(21(18)34)11(31)5-12(39-13)9-1-3-10(30)4-2-9/h1-6,15-16,19-20,22-30,32-38H,7-8H2" "license=License CC-BY-NC-SA 4.0 International" "author=Plant Biology, The Noble Foundation, Ardmore, OK, US/Dennis Fine, Daniel Wherritt, and Lloyd Sumner" "ionization=ESI" "isolation width=5" "collision gas=Nitrogen" "peak width=0.011" "date=2014-01-04 06:37:01+01:00" "column=Waters Acquity BEH C18 1.7um x 2.1 x 150 mm" "retention time=240.6" "raw data file=C:\Data\Confirmed Standards\Confirmed stds MSMS 2Jan14\Saponarin (v 306)_MSMS_2405.d" "computed mass accuracy=4.036525067504163" "computed mass error=-0.0023942599999600134" "SPLASH=splash10-0006-0000090000-09af3855adba25af50e1" "submitter=Aiko Barsch (Bruker)" "MoNA Rating=4.583333333333334"
Num Peaks: 20
282.0528 0.300300
283.0607 0.200200
297.0390 1.401401
298.0392 0.300300
311.0540 5.105105
312.0568 0.500501
314.0405 0.200200
341.0639 0.600601
342.0690 0.200200
413.0839 0.300300
430.0869 0.800801
431.0956 6.206206
432.0997 0.800801
433.1055 0.200200
473.1071 1.501502
474.1110 0.400400
593.1488 100.000000
594.1521 25.025025
595.1530 4.304304
596.1619 0.700701


Name: Saponarin
Synon: $:00in-source
DB#: MetaboBASE0669
InChIKey: HGUVPEBGCAVWID-KETMJRJWSA-N
Precursor_type: [M-H]-
Spectrum_type: MS2
PrecursorMZ: 593.1492
Instrument_type: LC-ESI-TOF
Instrument: impact HD
Ion_mode: N
Collision_energy: 40
Formula: C27H30O15
MW: 594
ExactMass: 594.1584702600001
Comments: "cas number=20310-89-8" "SMILES=c1cc(ccc1c2cc(=O)c3c(o2)cc(c(c3O)[C@H]4[C@@H]([C@H]([C@@H]([C@H](O4)CO)O)O)O)O[C@H]5[C@@H]([C@H]([C@@H]([C@H](O5)CO)O)O)O)O" "InChI=InChI=1S/C27H30O15/c28-7-15-19(32)22(35)24(37)26(40-15)18-14(41-27-25(38)23(36)20(33)16(8-29)42-27)6-13-17(21(18)34)11(31)5-12(39-13)9-1-3-10(30)4-2-9/h1-6,15-16,19-20,22-30,32-38H,7-8H2/t15-,16-,19-,20-,22+,23+,24-,25-,26+,27-/m1/s1" "computed SMILES=O=C1C=C(OC=2C=C(OC3OC(CO)C(O)C(O)C3O)C(=C(O)C12)C4OC(CO)C(O)C(O)C4O)C=5C=CC(O)=CC5" "computed InChI=InChI=1S/C27H30O15/c28-7-15-19(32)22(35)24(37)26(40-15)18-14(41-27-25(38)23(36)20(33)16(8-29)42-27)6-13-17(21(18)34)11(31)5-12(39-13)9-1-3-10(30)4-2-9/h1-6,15-16,19-20,22-30,32-38H,7-8H2" "license=License CC-BY-NC-SA 4.0 International" "author=Plant Biology, The Noble Foundation, Ardmore, OK, US/Dennis Fine, Daniel Wherritt, and Lloyd Sumner" "ionization=ESI" "isolation width=5" "collision gas=Nitrogen" "peak width=0.013" "date=2014-01-04 06:37:01+01:00" "column=Waters Acquity BEH C18 1.7um x 2.1 x 150 mm" "retention time=240.6" "raw data file=C:\Data\Confirmed Standards\Confirmed stds MSMS 2Jan14\Saponarin (v 306)_MSMS_2405.d" "computed mass accuracy=3.3621557612493143" "computed mass error=-0.0019942600000604216" "SPLASH=splash10-01ox-0049380000-14c4769d2603bb665abd" "submitter=Aiko Barsch (Bruker)" "MoNA Rating=4.583333333333334"
Num Peaks: 39
268.0362 0.700701
269.0439 3.203203
281.0452 1.501502
282.0507 9.409409
283.0586 4.804805
284.0614 0.900901
295.0564 0.500501
297.0383 41.141141
298.0420 4.904905
299.0449 1.201201
309.0375 0.700701
310.0490 1.801802
311.0543 96.996997
312.0569 13.013013
313.0592 0.800801
314.0398 2.302302
315.0421 0.400400
323.0544 1.601602
339.0493 0.600601
341.0646 10.310310
342.0660 1.501502
343.0628 0.500501
353.0647 1.601602
354.0690 0.600601
355.0431 0.500501
383.0757 0.900901
395.0761 0.500501
413.0867 1.701702
430.0888 3.903904
431.0961 33.633634
432.0984 5.905906
433.1028 1.001001
473.1074 10.210210
474.1113 2.302302
503.1157 1.001001
593.1492 100.000000
594.1520 23.123123
595.1542 4.004004
596.1552 0.600601


Name: Saponarin
Synon: $:00in-source
DB#: MetaboBASE0670
InChIKey: HGUVPEBGCAVWID-KETMJRJWSA-N
Precursor_type: [M-H]-
Spectrum_type: MS2
PrecursorMZ: 593.1495
Instrument_type: LC-ESI-TOF
Instrument: impact HD
Ion_mode: N
Collision_energy: 50
Formula: C27H30O15
MW: 594
ExactMass: 594.1584702600001
Comments: "cas number=20310-89-8" "SMILES=c1cc(ccc1c2cc(=O)c3c(o2)cc(c(c3O)[C@H]4[C@@H]([C@H]([C@@H]([C@H](O4)CO)O)O)O)O[C@H]5[C@@H]([C@H]([C@@H]([C@H](O5)CO)O)O)O)O" "InChI=InChI=1S/C27H30O15/c28-7-15-19(32)22(35)24(37)26(40-15)18-14(41-27-25(38)23(36)20(33)16(8-29)42-27)6-13-17(21(18)34)11(31)5-12(39-13)9-1-3-10(30)4-2-9/h1-6,15-16,19-20,22-30,32-38H,7-8H2/t15-,16-,19-,20-,22+,23+,24-,25-,26+,27-/m1/s1" "computed SMILES=O=C1C=C(OC=2C=C(OC3OC(CO)C(O)C(O)C3O)C(=C(O)C12)C4OC(CO)C(O)C(O)C4O)C=5C=CC(O)=CC5" "computed InChI=InChI=1S/C27H30O15/c28-7-15-19(32)22(35)24(37)26(40-15)18-14(41-27-25(38)23(36)20(33)16(8-29)42-27)6-13-17(21(18)34)11(31)5-12(39-13)9-1-3-10(30)4-2-9/h1-6,15-16,19-20,22-30,32-38H,7-8H2" "license=License CC-BY-NC-SA 4.0 International" "author=Plant Biology, The Noble Foundation, Ardmore, OK, US/Dennis Fine, Daniel Wherritt, and Lloyd Sumner" "ionization=ESI" "isolation width=5" "collision gas=Nitrogen" "peak width=0.015" "date=2014-01-04 06:37:01+01:00" "column=Waters Acquity BEH C18 1.7um x 2.1 x 150 mm" "retention time=240.6" "raw data file=C:\Data\Confirmed Standards\Confirmed stds MSMS 2Jan14\Saponarin (v 306)_MSMS_2405.d" "computed mass accuracy=2.856379378254624" "computed mass error=-0.001694260000022041" "SPLASH=splash10-03dj-0079100000-6fff8233efff36293193" "submitter=Aiko Barsch (Bruker)" "MoNA Rating=4.583333333333334"
Num Peaks: 50
149.0272 0.500501
268.0360 1.601602
269.0453 5.105105
270.0437 0.600601
281.0443 4.204204
282.0521 20.820821
283.0590 15.015015
284.0628 2.502503
285.0665 0.400400
293.0432 1.301301
295.0237 0.700701
295.0611 0.800801
296.0291 0.600601
297.0390 65.365365
298.0426 8.308308
299.0445 1.301301
307.0545 0.400400
309.0384 1.101101
310.0458 2.802803
311.0544 100.000000
312.0579 13.713714
313.0595 1.801802
314.0433 1.601602
315.0456 0.500501
323.0533 3.003003
324.0593 0.900901
325.0383 0.400400
325.0681 0.400400
327.0480 0.500501
335.0540 0.500501
339.0472 1.101101
341.0642 10.210210
342.0680 2.102102
353.0644 2.002002
354.0697 0.800801
355.0450 0.500501
365.0603 0.400400
369.0595 0.700701
383.0752 0.700701
413.0862 1.101101
430.0901 1.401401
431.0958 8.208208
432.0980 1.501502
433.1080 0.700701
473.1080 4.304304
474.1107 0.700701
503.1118 0.500501
593.1495 6.906907
594.1541 1.801802
595.1600 0.600601


Name: Scaposin
Synon: $:00in-source
DB#: MetaboBASE0671
InChIKey: NYKXAPFHNLNAIJ-UHFFFAOYSA-N
Precursor_type: [M-H]-
Spectrum_type: MS2
PrecursorMZ: 389.0875
Instrument_type: LC-ESI-TOF
Instrument: impact HD
Ion_mode: N
Collision_energy: 10
Formula: C19H18O9
MW: 390
ExactMass: 390.095082156
Comments: "cas number=18398-74-8" "SMILES=COc1cc(cc(c1OC)O)c2cc(=O)c3c(c(c(c(c3o2)OC)O)OC)O" "InChI=InChI=1S/C19H18O9/c1-24-12-6-8(5-10(21)16(12)25-2)11-7-9(20)13-14(22)18(26-3)15(23)19(27-4)17(13)28-11/h5-7,21-23H,1-4H3" "computed SMILES=O=C1C=C(OC=2C(OC)=C(O)C(OC)=C(O)C12)C=3C=C(O)C(OC)=C(OC)C3" "license=License CC-BY-NC-SA 4.0 International" "author=Plant Biology, The Noble Foundation, Ardmore, OK, US/Dennis Fine, Daniel Wherritt, and Lloyd Sumner" "ionization=ESI" "isolation width=5" "collision gas=Nitrogen" "peak width=0.01" "date=2014-01-04 04:34:50+01:00" "column=Waters Acquity BEH C18 1.7um x 2.1 x 150 mm" "retention time=722.4" "raw data file=C:\Data\Confirmed Standards\Confirmed stds MSMS 2Jan14\Scaposin (v298)_MSMS_2402.d" "computed mass accuracy=0.7868564269526233" "computed mass error=-3.061560000219288E-4" "SPLASH=splash10-000i-0009000000-3e56714df4acef973676" "submitter=Aiko Barsch (Bruker)" "MoNA Rating=4.615384615384616"
Num Peaks: 8
359.0422 0.300300
360.0453 0.100100
374.0638 3.003003
375.0681 0.500501
376.0715 0.100100
389.0875 100.000000
390.0910 11.711712
391.0927 1.801802


Name: Scaposin
Synon: $:00in-source
DB#: MetaboBASE0672
InChIKey: NYKXAPFHNLNAIJ-UHFFFAOYSA-N
Precursor_type: [M-H]-
Spectrum_type: MS2
PrecursorMZ: 389.1
Instrument_type: LC-ESI-TOF
Instrument: impact HD
Ion_mode: N
Collision_energy: 50
Formula: C19H18O9
MW: 390
ExactMass: 390.095082156
Comments: "cas number=18398-74-8" "SMILES=COc1cc(cc(c1OC)O)c2cc(=O)c3c(c(c(c(c3o2)OC)O)OC)O" "InChI=InChI=1S/C19H18O9/c1-24-12-6-8(5-10(21)16(12)25-2)11-7-9(20)13-14(22)18(26-3)15(23)19(27-4)17(13)28-11/h5-7,21-23H,1-4H3" "computed SMILES=O=C1C=C(OC=2C(OC)=C(O)C(OC)=C(O)C12)C=3C=C(O)C(OC)=C(OC)C3" "license=License CC-BY-NC-SA 4.0 International" "author=Plant Biology, The Noble Foundation, Ardmore, OK, US/Dennis Fine, Daniel Wherritt, and Lloyd Sumner" "ionization=ESI" "isolation width=5" "collision gas=Nitrogen" "peak width=0.017" "date=2014-01-04 04:34:50+01:00" "column=Waters Acquity BEH C18 1.7um x 2.1 x 150 mm" "retention time=722.4" "raw data file=C:\Data\Confirmed Standards\Confirmed stds MSMS 2Jan14\Scaposin (v298)_MSMS_2402.d" "computed mass accuracy=31.338586481684775" "computed mass error=0.012193844000023546" "SPLASH=splash10-004m-0093000000-298ea019c794ea2e23ef" "submitter=Aiko Barsch (Bruker)" "MoNA Rating=4.545454545454546"
Num Peaks: 12
148.0159 34.134134
217.0134 57.957958
229.0132 100.000000
232.0362 55.055055
244.0370 41.441441
245.0086 72.372372
257.0076 32.832833
260.0322 27.127127
273.0030 49.249249
300.9982 74.374374
328.9930 63.563564
344.0160 51.751752


Name: Scaposin
Synon: $:00in-source
DB#: MetaboBASE0673
InChIKey: NYKXAPFHNLNAIJ-UHFFFAOYSA-N
Precursor_type: [M-H]-
Spectrum_type: MS2
PrecursorMZ: 389.1
Instrument_type: LC-ESI-TOF
Instrument: impact HD
Ion_mode: N
Collision_energy: 40
Formula: C19H18O9
MW: 390
ExactMass: 390.095082156
Comments: "cas number=18398-74-8" "SMILES=COc1cc(cc(c1OC)O)c2cc(=O)c3c(c(c(c(c3o2)OC)O)OC)O" "InChI=InChI=1S/C19H18O9/c1-24-12-6-8(5-10(21)16(12)25-2)11-7-9(20)13-14(22)18(26-3)15(23)19(27-4)17(13)28-11/h5-7,21-23H,1-4H3" "computed SMILES=O=C1C=C(OC=2C(OC)=C(O)C(OC)=C(O)C12)C=3C=C(O)C(OC)=C(OC)C3" "license=License CC-BY-NC-SA 4.0 International" "author=Plant Biology, The Noble Foundation, Ardmore, OK, US/Dennis Fine, Daniel Wherritt, and Lloyd Sumner" "ionization=ESI" "isolation width=5" "collision gas=Nitrogen" "peak width=0.016" "date=2014-01-04 04:34:50+01:00" "column=Waters Acquity BEH C18 1.7um x 2.1 x 150 mm" "retention time=722.4" "raw data file=C:\Data\Confirmed Standards\Confirmed stds MSMS 2Jan14\Scaposin (v298)_MSMS_2402.d" "computed mass accuracy=31.338586481684775" "computed mass error=0.012193844000023546" "SPLASH=splash10-0006-0049000000-9b0b6fc904191f74dd8e" "submitter=Aiko Barsch (Bruker)" "MoNA Rating=4.545454545454546"
Num Peaks: 15
229.0133 13.513514
232.0371 9.009009
244.0368 26.526527
245.0076 6.406406
257.0084 7.607608
260.0318 12.512513
272.0316 23.623624
273.0035 5.305305
300.9981 14.314314
316.0222 11.411411
328.9930 22.422422
344.0170 100.000000
345.0201 9.809810
359.0401 39.639640
360.0433 5.305305


Name: Scaposin
Synon: $:00in-source
DB#: MetaboBASE0674
InChIKey: NYKXAPFHNLNAIJ-UHFFFAOYSA-N
Precursor_type: [M-H]-
Spectrum_type: MS2
PrecursorMZ: 389.0905
Instrument_type: LC-ESI-TOF
Instrument: impact HD
Ion_mode: N
Collision_energy: 30
Formula: C19H18O9
MW: 390
ExactMass: 390.095082156
Comments: "cas number=18398-74-8" "SMILES=COc1cc(cc(c1OC)O)c2cc(=O)c3c(c(c(c(c3o2)OC)O)OC)O" "InChI=InChI=1S/C19H18O9/c1-24-12-6-8(5-10(21)16(12)25-2)11-7-9(20)13-14(22)18(26-3)15(23)19(27-4)17(13)28-11/h5-7,21-23H,1-4H3" "computed SMILES=O=C1C=C(OC=2C(OC)=C(O)C(OC)=C(O)C12)C=3C=C(O)C(OC)=C(OC)C3" "license=License CC-BY-NC-SA 4.0 International" "author=Plant Biology, The Noble Foundation, Ardmore, OK, US/Dennis Fine, Daniel Wherritt, and Lloyd Sumner" "ionization=ESI" "isolation width=5" "collision gas=Nitrogen" "peak width=0.015" "date=2014-01-04 04:34:50+01:00" "column=Waters Acquity BEH C18 1.7um x 2.1 x 150 mm" "retention time=722.4" "raw data file=C:\Data\Confirmed Standards\Confirmed stds MSMS 2Jan14\Scaposin (v298)_MSMS_2402.d" "computed mass accuracy=6.923438120490778" "computed mass error=0.0026938440000208175" "SPLASH=splash10-0a4i-0009000000-6dc8270cb3964810f4a0" "submitter=Aiko Barsch (Bruker)" "MoNA Rating=4.545454545454546"
Num Peaks: 36
229.0132 0.600601
232.0369 0.300300
244.0368 1.901902
245.0084 0.300300
245.0404 0.300300
257.0085 0.500501
260.0318 0.700701
272.0316 6.506507
273.0365 0.700701
275.0543 0.400400
287.0552 2.102102
288.0258 0.300300
288.0586 0.300300
300.0257 0.600601
300.9985 0.400400
312.9972 0.200200
313.0333 0.700701
315.0526 0.300300
316.0210 1.301301
328.0200 0.400400
328.9922 1.001001
329.0268 0.300300
331.0454 1.001001
341.0293 0.900901
342.0320 0.200200
344.0169 20.220220
345.0204 2.502503
346.0217 0.400400
359.0405 100.000000
360.0438 10.510511
361.0458 1.501502
373.0538 0.500501
374.0636 14.814815
375.0667 1.701702
376.0652 0.200200
389.0905 0.400400


Name: Scaposin
Synon: $:00in-source
DB#: MetaboBASE0675
InChIKey: NYKXAPFHNLNAIJ-UHFFFAOYSA-N
Instrument_type: LC-ESI-TOF
Instrument: impact HD
Ion_mode: N
Formula: C19H18O9
MW: 390
ExactMass: 390.095082156
Comments: "cas number=18398-74-8" "SMILES=COc1cc(cc(c1OC)O)c2cc(=O)c3c(c(c(c(c3o2)OC)O)OC)O" "InChI=InChI=1S/C19H18O9/c1-24-12-6-8(5-10(21)16(12)25-2)11-7-9(20)13-14(22)18(26-3)15(23)19(27-4)17(13)28-11/h5-7,21-23H,1-4H3" "computed SMILES=O=C1C=C(OC=2C(OC)=C(O)C(OC)=C(O)C12)C=3C=C(O)C(OC)=C(OC)C3" "license=License CC-BY-NC-SA 4.0 International" "author=Plant Biology, The Noble Foundation, Ardmore, OK, US/Dennis Fine, Daniel Wherritt, and Lloyd Sumner" "ionization=ESI" "collision gas=Nitrogen" "peak width=0.011" "date=2014-01-04 04:34:50+01:00" "column=Waters Acquity BEH C18 1.7um x 2.1 x 150 mm" "retention time=722.4" "raw data file=C:\Data\Confirmed Standards\Confirmed stds MSMS 2Jan14\Scaposin (v298)_MSMS_2402.d" "SPLASH=splash10-000i-0009000100-e2959d673721f55e709e" "submitter=Aiko Barsch (Bruker)" "MoNA Rating=3.888888888888889"
Num Peaks: 20
359.0815 18.518519
360.0848 2.602603
361.0869 0.400400
373.0555 0.300300
389.0876 100.000000
390.0908 17.317317
391.0924 2.202202
392.0948 0.200200
425.0640 0.200200
666.0223 0.300300
719.1706 2.202202
720.1738 0.700701
741.1512 0.400400
779.1810 11.311311
780.1840 3.703704
781.1866 0.900901
801.1636 0.500501
802.1675 0.200200
1191.2555 0.300300
1192.2620 0.200200


Name: Scaposin
Synon: $:00in-source
DB#: MetaboBASE0676
InChIKey: NYKXAPFHNLNAIJ-UHFFFAOYSA-N
Precursor_type: [M-H]-
Spectrum_type: MS2
PrecursorMZ: 389.0873
Instrument_type: LC-ESI-TOF
Instrument: impact HD
Ion_mode: N
Collision_energy: 20
Formula: C19H18O9
MW: 390
ExactMass: 390.095082156
Comments: "cas number=18398-74-8" "SMILES=COc1cc(cc(c1OC)O)c2cc(=O)c3c(c(c(c(c3o2)OC)O)OC)O" "InChI=InChI=1S/C19H18O9/c1-24-12-6-8(5-10(21)16(12)25-2)11-7-9(20)13-14(22)18(26-3)15(23)19(27-4)17(13)28-11/h5-7,21-23H,1-4H3" "computed SMILES=O=C1C=C(OC=2C(OC)=C(O)C(OC)=C(O)C12)C=3C=C(O)C(OC)=C(OC)C3" "license=License CC-BY-NC-SA 4.0 International" "author=Plant Biology, The Noble Foundation, Ardmore, OK, US/Dennis Fine, Daniel Wherritt, and Lloyd Sumner" "ionization=ESI" "isolation width=5" "collision gas=Nitrogen" "peak width=0.013" "date=2014-01-04 04:34:50+01:00" "column=Waters Acquity BEH C18 1.7um x 2.1 x 150 mm" "retention time=722.4" "raw data file=C:\Data\Confirmed Standards\Confirmed stds MSMS 2Jan14\Scaposin (v298)_MSMS_2402.d" "computed mass accuracy=1.3008802908029242" "computed mass error=-5.061559999717247E-4" "SPLASH=splash10-00di-0009000000-c1c78bd71d50e8d0d087" "submitter=Aiko Barsch (Bruker)" "MoNA Rating=4.583333333333334"
Num Peaks: 13
272.0318 0.500501
344.0171 0.900901
345.0231 0.300300
359.0403 34.134134
360.0432 4.204204
361.0450 1.001001
373.0572 0.600601
374.0638 100.000000
375.0672 11.811812
376.0690 1.501502
389.0873 39.939940
390.0906 4.704705
391.0927 0.900901


Name: Sorbifolin
Synon: $:00in-source
DB#: MetaboBASE0677
InChIKey: UWARRXZVZDFPQU-UHFFFAOYSA-N
Precursor_type: [M-H]-
Spectrum_type: MS2
PrecursorMZ: 299.0597
Instrument_type: LC-ESI-TOF
Instrument: impact HD
Ion_mode: N
Collision_energy: 10
Formula: C16H12O6
MW: 300
ExactMass: 300.06338810399996
Comments: "cas number=23130-22-5" "SMILES=COc1cc2c(c(=O)cc(o2)c3ccc(cc3)O)c(c1O)O" "InChI=InChI=1S/C16H12O6/c1-21-13-7-12-14(16(20)15(13)19)10(18)6-11(22-12)8-2-4-9(17)5-3-8/h2-7,17,19-20H,1H3" "computed SMILES=O=C1C=C(OC2=CC(OC)=C(O)C(O)=C12)C=3C=CC(O)=CC3" "license=License CC-BY-NC-SA 4.0 International" "author=Plant Biology, The Noble Foundation, Ardmore, OK, US/Dennis Fine, Daniel Wherritt, and Lloyd Sumner" "ionization=ESI" "isolation width=5" "collision gas=Nitrogen" "peak width=0.011" "date=2014-01-04 05:15:34+01:00" "column=Waters Acquity BEH C18 1.7um x 2.1 x 150 mm" "retention time=538.8" "raw data file=C:\Data\Confirmed Standards\Confirmed stds MSMS 2Jan14\Sorbifolin (v 299)_MSMS_2403.d" "computed mass accuracy=11.997256735213519" "computed mass error=0.0035878960000559346" "SPLASH=splash10-0002-0091000000-3239b9bf55e320b14ce6" "submitter=Aiko Barsch (Bruker)" "MoNA Rating=4.545454545454546"
Num Peaks: 8
284.0358 2.302302
285.0388 0.600601
286.0443 0.100100
297.0437 2.502503
298.0475 0.500501
299.0597 100.000000
300.0628 11.711712
301.0645 1.401401


Name: Sorbifolin
Synon: $:00in-source
DB#: MetaboBASE0678
InChIKey: UWARRXZVZDFPQU-UHFFFAOYSA-N
Precursor_type: [M-H]-
Spectrum_type: MS2
PrecursorMZ: 299.0601
Instrument_type: LC-ESI-TOF
Instrument: impact HD
Ion_mode: N
Collision_energy: 30
Formula: C16H12O6
MW: 300
ExactMass: 300.06338810399996
Comments: "cas number=23130-22-5" "SMILES=COc1cc2c(c(=O)cc(o2)c3ccc(cc3)O)c(c1O)O" "InChI=InChI=1S/C16H12O6/c1-21-13-7-12-14(16(20)15(13)19)10(18)6-11(22-12)8-2-4-9(17)5-3-8/h2-7,17,19-20H,1H3" "computed SMILES=O=C1C=C(OC2=CC(OC)=C(O)C(O)=C12)C=3C=CC(O)=CC3" "license=License CC-BY-NC-SA 4.0 International" "author=Plant Biology, The Noble Foundation, Ardmore, OK, US/Dennis Fine, Daniel Wherritt, and Lloyd Sumner" "ionization=ESI" "isolation width=5" "collision gas=Nitrogen" "peak width=0.014" "date=2014-01-04 05:15:34+01:00" "column=Waters Acquity BEH C18 1.7um x 2.1 x 150 mm" "retention time=538.8" "raw data file=C:\Data\Confirmed Standards\Confirmed stds MSMS 2Jan14\Sorbifolin (v 299)_MSMS_2403.d" "computed mass accuracy=13.334764483835757" "computed mass error=0.00398789600001237" "SPLASH=splash10-001i-0090000000-9940d06620ab2eab5f29" "submitter=Aiko Barsch (Bruker)" "MoNA Rating=4.545454545454546"
Num Peaks: 9
117.0348 3.003003
136.9882 8.308308
227.0376 5.405405
228.0446 3.703704
256.0393 3.103103
283.0280 4.504505
284.0365 100.000000
285.0390 12.112112
299.0601 2.402402


Name: Sorbifolin
Synon: $:00in-source
DB#: MetaboBASE0679
InChIKey: UWARRXZVZDFPQU-UHFFFAOYSA-N
Instrument_type: LC-ESI-TOF
Instrument: impact HD
Ion_mode: N
Formula: C16H12O6
MW: 300
ExactMass: 300.06338810399996
Comments: "cas number=23130-22-5" "SMILES=COc1cc2c(c(=O)cc(o2)c3ccc(cc3)O)c(c1O)O" "InChI=InChI=1S/C16H12O6/c1-21-13-7-12-14(16(20)15(13)19)10(18)6-11(22-12)8-2-4-9(17)5-3-8/h2-7,17,19-20H,1H3" "computed SMILES=O=C1C=C(OC2=CC(OC)=C(O)C(O)=C12)C=3C=CC(O)=CC3" "license=License CC-BY-NC-SA 4.0 International" "author=Plant Biology, The Noble Foundation, Ardmore, OK, US/Dennis Fine, Daniel Wherritt, and Lloyd Sumner" "ionization=ESI" "collision gas=Nitrogen" "peak width=0.015" "date=2014-01-04 05:15:34+01:00" "column=Waters Acquity BEH C18 1.7um x 2.1 x 150 mm" "retention time=538.8" "raw data file=C:\Data\Confirmed Standards\Confirmed stds MSMS 2Jan14\Sorbifolin (v 299)_MSMS_2403.d" "SPLASH=splash10-0002-0091000000-5a1bac0db97a66bc2824" "submitter=Aiko Barsch (Bruker)" "MoNA Rating=3.888888888888889"
Num Peaks: 19
283.0277 0.600601
284.0355 0.500501
297.0444 4.404404
298.0479 0.600601
299.0601 100.000000
300.0637 12.812813
301.0651 1.401401
315.0549 5.505506
316.0578 0.800801
595.0914 0.500501
597.1084 3.303303
598.1121 1.001001
599.1236 5.505506
600.1266 1.501502
613.1022 0.600601
615.1187 2.502503
616.1214 0.700701
631.1132 0.900901
666.0226 0.700701


Name: Sorbifolin
Synon: $:00in-source
DB#: MetaboBASE0680
InChIKey: UWARRXZVZDFPQU-UHFFFAOYSA-N
Precursor_type: [M-H]-
Spectrum_type: MS2
PrecursorMZ: 299.0594
Instrument_type: LC-ESI-TOF
Instrument: impact HD
Ion_mode: N
Collision_energy: 20
Formula: C16H12O6
MW: 300
ExactMass: 300.06338810399996
Comments: "cas number=23130-22-5" "SMILES=COc1cc2c(c(=O)cc(o2)c3ccc(cc3)O)c(c1O)O" "InChI=InChI=1S/C16H12O6/c1-21-13-7-12-14(16(20)15(13)19)10(18)6-11(22-12)8-2-4-9(17)5-3-8/h2-7,17,19-20H,1H3" "computed SMILES=O=C1C=C(OC2=CC(OC)=C(O)C(O)=C12)C=3C=CC(O)=CC3" "license=License CC-BY-NC-SA 4.0 International" "author=Plant Biology, The Noble Foundation, Ardmore, OK, US/Dennis Fine, Daniel Wherritt, and Lloyd Sumner" "ionization=ESI" "isolation width=5" "collision gas=Nitrogen" "peak width=0.013" "date=2014-01-04 05:15:34+01:00" "column=Waters Acquity BEH C18 1.7um x 2.1 x 150 mm" "retention time=538.8" "raw data file=C:\Data\Confirmed Standards\Confirmed stds MSMS 2Jan14\Sorbifolin (v 299)_MSMS_2403.d" "computed mass accuracy=10.994123575508926" "computed mass error=0.003287896000017554" "SPLASH=splash10-001j-0090000000-de7b0fe64e748cf54c5c" "submitter=Aiko Barsch (Bruker)" "MoNA Rating=4.545454545454546"
Num Peaks: 20
117.0345 0.600601
177.0192 0.500501
226.0294 0.500501
227.0374 0.600601
228.0432 0.400400
240.0461 0.300300
254.0234 0.700701
255.0321 0.300300
256.0397 0.400400
269.0485 0.200200
282.0198 0.300300
283.0276 0.900901
284.0358 100.000000
285.0390 10.110110
286.0410 1.401401
287.0393 0.200200
297.0444 0.600601
299.0594 68.468468
300.0626 7.107107
301.0637 0.900901


Name: Sorbifolin
Synon: $:00in-source
DB#: MetaboBASE0681
InChIKey: UWARRXZVZDFPQU-UHFFFAOYSA-N
Precursor_type: [M-H]-
Spectrum_type: MS2
PrecursorMZ: 299.1
Instrument_type: LC-ESI-TOF
Instrument: impact HD
Ion_mode: N
Collision_energy: 50
Formula: C16H12O6
MW: 300
ExactMass: 300.06338810399996
Comments: "cas number=23130-22-5" "SMILES=COc1cc2c(c(=O)cc(o2)c3ccc(cc3)O)c(c1O)O" "InChI=InChI=1S/C16H12O6/c1-21-13-7-12-14(16(20)15(13)19)10(18)6-11(22-12)8-2-4-9(17)5-3-8/h2-7,17,19-20H,1H3" "computed SMILES=O=C1C=C(OC2=CC(OC)=C(O)C(O)=C12)C=3C=CC(O)=CC3" "license=License CC-BY-NC-SA 4.0 International" "author=Plant Biology, The Noble Foundation, Ardmore, OK, US/Dennis Fine, Daniel Wherritt, and Lloyd Sumner" "ionization=ESI" "isolation width=5" "collision gas=Nitrogen" "peak width=0.016" "date=2014-01-04 05:15:34+01:00" "column=Waters Acquity BEH C18 1.7um x 2.1 x 150 mm" "retention time=538.8" "raw data file=C:\Data\Confirmed Standards\Confirmed stds MSMS 2Jan14\Sorbifolin (v 299)_MSMS_2403.d" "computed mass accuracy=146.7331862255364" "computed mass error=0.043887896000057935" "SPLASH=splash10-014i-0910000000-aa42cb799b1dd83bbafb" "submitter=Aiko Barsch (Bruker)" "MoNA Rating=4.545454545454546"
Num Peaks: 19
108.0239 12.012012
110.0025 11.111111
116.0273 12.312312
117.0352 100.000000
118.0373 9.609610
119.0148 11.411411
130.0439 8.408408
135.0112 7.507508
136.9890 36.136136
139.0030 14.014014
155.0508 7.407407
158.0380 12.912913
164.0124 7.607608
183.0462 20.520521
185.0279 9.509510
199.0409 8.808809
227.0384 20.620621
255.0312 8.508509
283.0264 10.710711


Name: Sorbifolin
Synon: $:00in-source
DB#: MetaboBASE0682
InChIKey: UWARRXZVZDFPQU-UHFFFAOYSA-N
Precursor_type: [M-H]-
Spectrum_type: MS2
PrecursorMZ: 299.1
Instrument_type: LC-ESI-TOF
Instrument: impact HD
Ion_mode: N
Collision_energy: 40
Formula: C16H12O6
MW: 300
ExactMass: 300.06338810399996
Comments: "cas number=23130-22-5" "SMILES=COc1cc2c(c(=O)cc(o2)c3ccc(cc3)O)c(c1O)O" "InChI=InChI=1S/C16H12O6/c1-21-13-7-12-14(16(20)15(13)19)10(18)6-11(22-12)8-2-4-9(17)5-3-8/h2-7,17,19-20H,1H3" "computed SMILES=O=C1C=C(OC2=CC(OC)=C(O)C(O)=C12)C=3C=CC(O)=CC3" "license=License CC-BY-NC-SA 4.0 International" "author=Plant Biology, The Noble Foundation, Ardmore, OK, US/Dennis Fine, Daniel Wherritt, and Lloyd Sumner" "ionization=ESI" "isolation width=5" "collision gas=Nitrogen" "peak width=0.017" "date=2014-01-04 05:15:34+01:00" "column=Waters Acquity BEH C18 1.7um x 2.1 x 150 mm" "retention time=538.8" "raw data file=C:\Data\Confirmed Standards\Confirmed stds MSMS 2Jan14\Sorbifolin (v 299)_MSMS_2403.d" "computed mass accuracy=146.7331862255364" "computed mass error=0.043887896000057935" "SPLASH=splash10-00nr-0960000000-b6f17442e4ac7f5cb5be" "submitter=Aiko Barsch (Bruker)" "MoNA Rating=4.545454545454546"
Num Peaks: 27
110.0022 5.905906
116.0291 6.606607
117.0351 74.974975
119.0498 6.506507
134.0009 8.208208
136.0152 6.606607
136.9884 100.000000
137.9928 9.909910
139.0049 8.408408
143.0481 5.805806
156.0588 6.406406
164.0108 14.314314
165.9910 8.508509
183.0466 9.009009
184.0532 11.311311
185.0246 8.208208
186.0325 14.614615
200.0491 11.711712
211.0421 13.713714
212.0495 14.314314
227.0372 42.742743
228.0439 17.917918
255.0329 15.315315
256.0394 8.508509
283.0283 27.127127
284.0348 56.556557
285.0389 5.305305


Name: Silychristin
Synon: $:00in-source
DB#: MetaboBASE0683
InChIKey: BMLIIPOXVWESJG-LMBCONBSSA-N
Instrument_type: LC-ESI-TOF
Instrument: impact HD
Ion_mode: N
Formula: C25H22O10
MW: 482
ExactMass: 482.121296904
Comments: "cas number=33889-69-9" "SMILES=COc1cc(ccc1O)[C@H]2[C@@H](c3cc(cc(c3O2)O)[C@@H]4[C@H](C(=O)c5c(cc(cc5O4)O)O)O)CO" "InChI=InChI=1S/C25H22O10/c1-33-18-6-10(2-3-15(18)28)23-14(9-26)13-4-11(5-17(30)25(13)35-23)24-22(32)21(31)20-16(29)7-12(27)8-19(20)34-24/h2-8,14,22-24,26-30,32H,9H2,1H3/t14-,22+,23+,24-/m1/s1" "computed SMILES=O=C1C=2C(O)=CC(O)=CC2OC(C3=CC(O)=C4OC(C5=CC=C(O)C(OC)=C5)C(C4=C3)CO)C1O" "license=License CC-BY-NC-SA 4.0 International" "author=Plant Biology, The Noble Foundation, Ardmore, OK, US/Dennis Fine, Daniel Wherritt, and Lloyd Sumner" "ionization=ESI" "collision gas=Nitrogen" "peak width=0.011" "date=2014-01-04 15:26:30+01:00" "column=Waters Acquity BEH C18 1.7um x 2.1 x 150 mm" "retention time=447" "raw data file=C:\Data\Confirmed Standards\Confirmed stds MSMS 2Jan14\Silychristin (vial 334)_MSMS_2418.d" "SPLASH=splash10-001i-0000900001-48cf84c0af35a3eedb03" "submitter=Aiko Barsch (Bruker)" "MoNA Rating=3.888888888888889"
Num Peaks: 11
451.1073 1.201201
481.1178 100.000000
482.1208 21.521522
483.1240 3.503504
549.1050 3.503504
550.1063 1.101101
617.0966 0.800801
666.0243 2.002002
963.2394 11.911912
964.2443 5.705706
965.2468 2.002002


Name: Silychristin
Synon: $:00in-source
DB#: MetaboBASE0684
InChIKey: BMLIIPOXVWESJG-LMBCONBSSA-N
Precursor_type: [M-H]-
Spectrum_type: MS2
PrecursorMZ: 481.1183
Instrument_type: LC-ESI-TOF
Instrument: impact HD
Ion_mode: N
Collision_energy: 10
Formula: C25H22O10
MW: 482
ExactMass: 482.121296904
Comments: "cas number=33889-69-9" "SMILES=COc1cc(ccc1O)[C@H]2[C@@H](c3cc(cc(c3O2)O)[C@@H]4[C@H](C(=O)c5c(cc(cc5O4)O)O)O)CO" "InChI=InChI=1S/C25H22O10/c1-33-18-6-10(2-3-15(18)28)23-14(9-26)13-4-11(5-17(30)25(13)35-23)24-22(32)21(31)20-16(29)7-12(27)8-19(20)34-24/h2-8,14,22-24,26-30,32H,9H2,1H3/t14-,22+,23+,24-/m1/s1" "computed SMILES=O=C1C=2C(O)=CC(O)=CC2OC(C3=CC(O)=C4OC(C5=CC=C(O)C(OC)=C5)C(C4=C3)CO)C1O" "license=License CC-BY-NC-SA 4.0 International" "author=Plant Biology, The Noble Foundation, Ardmore, OK, US/Dennis Fine, Daniel Wherritt, and Lloyd Sumner" "ionization=ESI" "isolation width=5" "collision gas=Nitrogen" "peak width=0.015" "date=2014-01-04 15:26:30+01:00" "column=Waters Acquity BEH C18 1.7um x 2.1 x 150 mm" "retention time=447" "raw data file=C:\Data\Confirmed Standards\Confirmed stds MSMS 2Jan14\Silychristin (vial 334)_MSMS_2418.d" "computed mass accuracy=8.894062021643977" "computed mass error=0.004279095999947913" "SPLASH=splash10-001i-0000900000-845c0baebc66285dfc63" "submitter=Aiko Barsch (Bruker)" "MoNA Rating=4.545454545454546"
Num Peaks: 6
355.0848 3.003003
451.1069 18.518519
452.1105 3.403403
481.1183 100.000000
482.1206 23.323323
483.1229 4.404404


Name: Silychristin
Synon: $:00in-source
DB#: MetaboBASE0685
InChIKey: BMLIIPOXVWESJG-LMBCONBSSA-N
Precursor_type: [M-H]-
Spectrum_type: MS2
PrecursorMZ: 481.1148
Instrument_type: LC-ESI-TOF
Instrument: impact HD
Ion_mode: N
Collision_energy: 20
Formula: C25H22O10
MW: 482
ExactMass: 482.121296904
Comments: "cas number=33889-69-9" "SMILES=COc1cc(ccc1O)[C@H]2[C@@H](c3cc(cc(c3O2)O)[C@@H]4[C@H](C(=O)c5c(cc(cc5O4)O)O)O)CO" "InChI=InChI=1S/C25H22O10/c1-33-18-6-10(2-3-15(18)28)23-14(9-26)13-4-11(5-17(30)25(13)35-23)24-22(32)21(31)20-16(29)7-12(27)8-19(20)34-24/h2-8,14,22-24,26-30,32H,9H2,1H3/t14-,22+,23+,24-/m1/s1" "computed SMILES=O=C1C=2C(O)=CC(O)=CC2OC(C3=CC(O)=C4OC(C5=CC=C(O)C(OC)=C5)C(C4=C3)CO)C1O" "license=License CC-BY-NC-SA 4.0 International" "author=Plant Biology, The Noble Foundation, Ardmore, OK, US/Dennis Fine, Daniel Wherritt, and Lloyd Sumner" "ionization=ESI" "isolation width=5" "collision gas=Nitrogen" "peak width=0.011" "date=2014-01-04 15:26:30+01:00" "column=Waters Acquity BEH C18 1.7um x 2.1 x 150 mm" "retention time=447" "raw data file=C:\Data\Confirmed Standards\Confirmed stds MSMS 2Jan14\Silychristin (vial 334)_MSMS_2418.d" "computed mass accuracy=1.619355712968783" "computed mass error=7.790959999738334E-4" "SPLASH=splash10-001i-0102900000-b3f2102c3bf48075b2ad" "submitter=Aiko Barsch (Bruker)" "MoNA Rating=4.583333333333334"
Num Peaks: 22
125.0255 35.835836
179.0011 14.114114
325.0750 45.945946
326.0763 9.609610
337.0719 22.722723
355.0848 46.046046
356.0867 9.909910
407.1182 13.313313
419.1149 18.718719
423.1119 10.110110
433.0951 37.637638
434.1005 21.421421
435.1099 17.217217
436.1158 9.109109
437.1284 11.111111
451.1063 53.653654
452.1133 12.012012
453.1195 31.831832
463.1084 39.039039
464.1084 14.914915
481.1148 100.000000
482.1194 34.734735


Name: Silychristin
Synon: $:00in-source
DB#: MetaboBASE0686
InChIKey: BMLIIPOXVWESJG-LMBCONBSSA-N
Precursor_type: [M-H]-
Spectrum_type: MS2
PrecursorMZ: 481.1
Instrument_type: LC-ESI-TOF
Instrument: impact HD
Ion_mode: N
Collision_energy: 40
Formula: C25H22O10
MW: 482
ExactMass: 482.121296904
Comments: "cas number=33889-69-9" "SMILES=COc1cc(ccc1O)[C@H]2[C@@H](c3cc(cc(c3O2)O)[C@@H]4[C@H](C(=O)c5c(cc(cc5O4)O)O)O)CO" "InChI=InChI=1S/C25H22O10/c1-33-18-6-10(2-3-15(18)28)23-14(9-26)13-4-11(5-17(30)25(13)35-23)24-22(32)21(31)20-16(29)7-12(27)8-19(20)34-24/h2-8,14,22-24,26-30,32H,9H2,1H3/t14-,22+,23+,24-/m1/s1" "computed SMILES=O=C1C=2C(O)=CC(O)=CC2OC(C3=CC(O)=C4OC(C5=CC=C(O)C(OC)=C5)C(C4=C3)CO)C1O" "license=License CC-BY-NC-SA 4.0 International" "author=Plant Biology, The Noble Foundation, Ardmore, OK, US/Dennis Fine, Daniel Wherritt, and Lloyd Sumner" "ionization=ESI" "isolation width=5" "collision gas=Nitrogen" "peak width=0.012" "date=2014-01-04 15:26:30+01:00" "column=Waters Acquity BEH C18 1.7um x 2.1 x 150 mm" "retention time=447" "raw data file=C:\Data\Confirmed Standards\Confirmed stds MSMS 2Jan14\Silychristin (vial 334)_MSMS_2418.d" "computed mass accuracy=29.143429640419633" "computed mass error=-0.014020904000005885" "SPLASH=splash10-004i-0902000000-df4c74bec1a20788324d" "submitter=Aiko Barsch (Bruker)" "MoNA Rating=4.545454545454546"
Num Peaks: 7
125.0247 100.000000
151.0066 27.927928
152.0130 17.217217
153.0182 20.220220
179.0000 28.028028
325.0740 24.124124
365.1122 21.421421


Name: Silychristin
Synon: $:00in-source
DB#: MetaboBASE0687
InChIKey: BMLIIPOXVWESJG-LMBCONBSSA-N
Precursor_type: [M-H]-
Spectrum_type: MS2
PrecursorMZ: 481.1
Instrument_type: LC-ESI-TOF
Instrument: impact HD
Ion_mode: N
Collision_energy: 30
Formula: C25H22O10
MW: 482
ExactMass: 482.121296904
Comments: "cas number=33889-69-9" "SMILES=COc1cc(ccc1O)[C@H]2[C@@H](c3cc(cc(c3O2)O)[C@@H]4[C@H](C(=O)c5c(cc(cc5O4)O)O)O)CO" "InChI=InChI=1S/C25H22O10/c1-33-18-6-10(2-3-15(18)28)23-14(9-26)13-4-11(5-17(30)25(13)35-23)24-22(32)21(31)20-16(29)7-12(27)8-19(20)34-24/h2-8,14,22-24,26-30,32H,9H2,1H3/t14-,22+,23+,24-/m1/s1" "computed SMILES=O=C1C=2C(O)=CC(O)=CC2OC(C3=CC(O)=C4OC(C5=CC=C(O)C(OC)=C5)C(C4=C3)CO)C1O" "license=License CC-BY-NC-SA 4.0 International" "author=Plant Biology, The Noble Foundation, Ardmore, OK, US/Dennis Fine, Daniel Wherritt, and Lloyd Sumner" "ionization=ESI" "isolation width=5" "collision gas=Nitrogen" "peak width=0.013" "date=2014-01-04 15:26:30+01:00" "column=Waters Acquity BEH C18 1.7um x 2.1 x 150 mm" "retention time=447" "raw data file=C:\Data\Confirmed Standards\Confirmed stds MSMS 2Jan14\Silychristin (vial 334)_MSMS_2418.d" "computed mass accuracy=29.143429640419633" "computed mass error=-0.014020904000005885" "SPLASH=splash10-004i-0917700000-5933de30c7285a663ccc" "submitter=Aiko Barsch (Bruker)" "MoNA Rating=4.545454545454546"
Num Peaks: 19
125.0254 100.000000
151.0059 17.317317
152.0143 18.218218
178.9984 45.545546
256.0702 16.416416
297.0824 18.518519
308.0670 16.416416
325.0721 52.152152
326.0792 20.920921
337.0735 24.824825
355.0854 19.919920
389.1091 20.520521
407.1169 23.223223
419.1107 23.423423
423.1084 30.830831
433.0928 19.719720
435.1094 27.427427
453.1133 17.417417
463.1045 15.215215


Name: Glycitein
Synon: $:00in-source
DB#: MetaboBASE0688
InChIKey: DXYUAIFZCFRPTH-UHFFFAOYSA-N
Instrument_type: LC-ESI-TOF
Instrument: impact HD
Ion_mode: N
Formula: C16H12O5
MW: 284
ExactMass: 284.068473484
Comments: "cas number=40957-83-3" "SMILES=COc1cc2c(cc1O)occ(c2=O)c3ccc(cc3)O" "InChI=InChI=1S/C16H12O5/c1-20-15-6-11-14(7-13(15)18)21-8-12(16(11)19)9-2-4-10(17)5-3-9/h2-8,17-18H,1H3" "computed SMILES=O=C1C(=COC2=CC(O)=C(OC)C=C12)C=3C=CC(O)=CC3" "license=License CC-BY-NC-SA 4.0 International" "author=Plant Biology, The Noble Foundation, Ardmore, OK, US/Dennis Fine, Daniel Wherritt, and Lloyd Sumner" "ionization=ESI" "collision gas=Nitrogen" "peak width=0.011" "date=2014-01-09 02:46:54+01:00" "column=Waters Acquity BEH C18 1.7um x 2.1 x 150 mm" "retention time=499.2" "raw data file=C:\Data\Confirmed Standards\Confirmed stds MSMS 8Jan14\Glycitein (vial 336)_MSMS.d" "SPLASH=splash10-001i-0090000000-3c1554bc5dca3cdb3846" "submitter=Aiko Barsch (Bruker)" "MoNA Rating=3.888888888888889"
Num Peaks: 4
283.0619 100.000000
284.0648 11.811812
351.0483 3.203203
589.1126 3.303303


Name: Glycitein
Synon: $:00in-source
DB#: MetaboBASE0689
InChIKey: DXYUAIFZCFRPTH-UHFFFAOYSA-N
Precursor_type: [M-H]-
Spectrum_type: MS2
PrecursorMZ: 283.0616
Instrument_type: LC-ESI-TOF
Instrument: impact HD
Ion_mode: N
Collision_energy: 10
Formula: C16H12O5
MW: 284
ExactMass: 284.068473484
Comments: "cas number=40957-83-3" "SMILES=COc1cc2c(cc1O)occ(c2=O)c3ccc(cc3)O" "InChI=InChI=1S/C16H12O5/c1-20-15-6-11-14(7-13(15)18)21-8-12(16(11)19)9-2-4-10(17)5-3-9/h2-8,17-18H,1H3" "computed SMILES=O=C1C(=COC2=CC(O)=C(OC)C=C12)C=3C=CC(O)=CC3" "license=License CC-BY-NC-SA 4.0 International" "author=Plant Biology, The Noble Foundation, Ardmore, OK, US/Dennis Fine, Daniel Wherritt, and Lloyd Sumner" "ionization=ESI" "isolation width=5" "collision gas=Nitrogen" "peak width=0.011" "date=2014-01-09 02:46:54+01:00" "column=Waters Acquity BEH C18 1.7um x 2.1 x 150 mm" "retention time=499.2" "raw data file=C:\Data\Confirmed Standards\Confirmed stds MSMS 8Jan14\Glycitein (vial 336)_MSMS.d" "computed mass accuracy=1.422008495706555" "computed mass error=4.025160000082906E-4" "SPLASH=splash10-001i-0090000000-c245729822931344a4e0" "submitter=Aiko Barsch (Bruker)" "MoNA Rating=4.583333333333334"
Num Peaks: 3
268.0378 8.308308
283.0616 100.000000
284.0650 9.409409


Name: Glycitein
Synon: $:00in-source
DB#: MetaboBASE0690
InChIKey: DXYUAIFZCFRPTH-UHFFFAOYSA-N
Precursor_type: [M-H]-
Spectrum_type: MS2
PrecursorMZ: 283.1
Instrument_type: LC-ESI-TOF
Instrument: impact HD
Ion_mode: N
Collision_energy: 40
Formula: C16H12O5
MW: 284
ExactMass: 284.068473484
Comments: "cas number=40957-83-3" "SMILES=COc1cc2c(cc1O)occ(c2=O)c3ccc(cc3)O" "InChI=InChI=1S/C16H12O5/c1-20-15-6-11-14(7-13(15)18)21-8-12(16(11)19)9-2-4-10(17)5-3-9/h2-8,17-18H,1H3" "computed SMILES=O=C1C(=COC2=CC(O)=C(OC)C=C12)C=3C=CC(O)=CC3" "license=License CC-BY-NC-SA 4.0 International" "author=Plant Biology, The Noble Foundation, Ardmore, OK, US/Dennis Fine, Daniel Wherritt, and Lloyd Sumner" "ionization=ESI" "isolation width=5" "collision gas=Nitrogen" "peak width=0.013" "date=2014-01-09 02:46:54+01:00" "column=Waters Acquity BEH C18 1.7um x 2.1 x 150 mm" "retention time=499.2" "raw data file=C:\Data\Confirmed Standards\Confirmed stds MSMS 8Jan14\Glycitein (vial 336)_MSMS.d" "computed mass accuracy=137.06293182632453" "computed mass error=0.03880251600003248" "SPLASH=splash10-0006-0190000000-4bba15c9cbb7f0e94476" "submitter=Aiko Barsch (Bruker)" "MoNA Rating=4.545454545454546"
Num Peaks: 9
184.0550 19.719720
196.0526 25.325325
211.0417 30.130130
239.0349 33.533534
240.0430 100.000000
241.0441 15.915916
267.0304 14.514515
268.0380 20.920921
1089.8632 11.911912


Name: Glycitein
Synon: $:00in-source
DB#: MetaboBASE0691
InChIKey: DXYUAIFZCFRPTH-UHFFFAOYSA-N
Precursor_type: [M-H]-
Spectrum_type: MS2
PrecursorMZ: 283.1
Instrument_type: LC-ESI-TOF
Instrument: impact HD
Ion_mode: N
Collision_energy: 50
Formula: C16H12O5
MW: 284
ExactMass: 284.068473484
Comments: "cas number=40957-83-3" "SMILES=COc1cc2c(cc1O)occ(c2=O)c3ccc(cc3)O" "InChI=InChI=1S/C16H12O5/c1-20-15-6-11-14(7-13(15)18)21-8-12(16(11)19)9-2-4-10(17)5-3-9/h2-8,17-18H,1H3" "computed SMILES=O=C1C(=COC2=CC(O)=C(OC)C=C12)C=3C=CC(O)=CC3" "license=License CC-BY-NC-SA 4.0 International" "author=Plant Biology, The Noble Foundation, Ardmore, OK, US/Dennis Fine, Daniel Wherritt, and Lloyd Sumner" "ionization=ESI" "isolation width=5" "collision gas=Nitrogen" "peak width=0.01" "date=2014-01-09 02:46:54+01:00" "column=Waters Acquity BEH C18 1.7um x 2.1 x 150 mm" "retention time=499.2" "raw data file=C:\Data\Confirmed Standards\Confirmed stds MSMS 8Jan14\Glycitein (vial 336)_MSMS.d" "computed mass accuracy=137.06293182632453" "computed mass error=0.03880251600003248" "SPLASH=splash10-03dr-0290000000-e787f91d19d0f32fa54d" "submitter=Aiko Barsch (Bruker)" "MoNA Rating=4.545454545454546"
Num Peaks: 3
147.0143 42.542543
211.0383 100.000000
239.0326 87.687688


Name: Glycitein
Synon: $:00in-source
DB#: MetaboBASE0692
InChIKey: DXYUAIFZCFRPTH-UHFFFAOYSA-N
Precursor_type: [M-H]-
Spectrum_type: MS2
PrecursorMZ: 283.1
Instrument_type: LC-ESI-TOF
Instrument: impact HD
Ion_mode: N
Collision_energy: 30
Formula: C16H12O5
MW: 284
ExactMass: 284.068473484
Comments: "cas number=40957-83-3" "SMILES=COc1cc2c(cc1O)occ(c2=O)c3ccc(cc3)O" "InChI=InChI=1S/C16H12O5/c1-20-15-6-11-14(7-13(15)18)21-8-12(16(11)19)9-2-4-10(17)5-3-9/h2-8,17-18H,1H3" "computed SMILES=O=C1C(=COC2=CC(O)=C(OC)C=C12)C=3C=CC(O)=CC3" "license=License CC-BY-NC-SA 4.0 International" "author=Plant Biology, The Noble Foundation, Ardmore, OK, US/Dennis Fine, Daniel Wherritt, and Lloyd Sumner" "ionization=ESI" "isolation width=5" "collision gas=Nitrogen" "peak width=0.013" "date=2014-01-09 02:46:54+01:00" "column=Waters Acquity BEH C18 1.7um x 2.1 x 150 mm" "retention time=499.2" "raw data file=C:\Data\Confirmed Standards\Confirmed stds MSMS 8Jan14\Glycitein (vial 336)_MSMS.d" "computed mass accuracy=137.06293182632453" "computed mass error=0.03880251600003248" "SPLASH=splash10-00kf-0090000000-b4f8659a75bd5b274388" "submitter=Aiko Barsch (Bruker)" "MoNA Rating=4.545454545454546"
Num Peaks: 8
196.0518 2.702703
211.0424 2.002002
239.0360 4.204204
240.0428 100.000000
241.0462 10.310310
267.0305 2.802803
268.0375 70.770771
269.0417 6.506507


Name: Glycitein
Synon: $:00in-source
DB#: MetaboBASE0693
InChIKey: DXYUAIFZCFRPTH-UHFFFAOYSA-N
Precursor_type: [M-H]-
Spectrum_type: MS2
PrecursorMZ: 283.0614
Instrument_type: LC-ESI-TOF
Instrument: impact HD
Ion_mode: N
Collision_energy: 20
Formula: C16H12O5
MW: 284
ExactMass: 284.068473484
Comments: "cas number=40957-83-3" "SMILES=COc1cc2c(cc1O)occ(c2=O)c3ccc(cc3)O" "InChI=InChI=1S/C16H12O5/c1-20-15-6-11-14(7-13(15)18)21-8-12(16(11)19)9-2-4-10(17)5-3-9/h2-8,17-18H,1H3" "computed SMILES=O=C1C(=COC2=CC(O)=C(OC)C=C12)C=3C=CC(O)=CC3" "license=License CC-BY-NC-SA 4.0 International" "author=Plant Biology, The Noble Foundation, Ardmore, OK, US/Dennis Fine, Daniel Wherritt, and Lloyd Sumner" "ionization=ESI" "isolation width=5" "collision gas=Nitrogen" "peak width=0.012" "date=2014-01-09 02:46:54+01:00" "column=Waters Acquity BEH C18 1.7um x 2.1 x 150 mm" "retention time=499.2" "raw data file=C:\Data\Confirmed Standards\Confirmed stds MSMS 8Jan14\Glycitein (vial 336)_MSMS.d" "computed mass accuracy=0.7154490156610943" "computed mass error=2.0251600000165126E-4" "SPLASH=splash10-014i-0090000000-cea55aa49f539e7744bc" "submitter=Aiko Barsch (Bruker)" "MoNA Rating=4.615384615384616"
Num Peaks: 5
240.0429 9.609610
268.0382 100.000000
269.0413 9.409409
283.0614 18.418418
284.0645 3.103103


Name: Galangin
Synon: $:00in-source
DB#: MetaboBASE0694
InChIKey: VCCRNZQBSJXYJD-UHFFFAOYSA-N
Instrument_type: LC-ESI-TOF
Instrument: impact HD
Ion_mode: N
Formula: C15H10O5
MW: 270
ExactMass: 270.05282342
Comments: "cas number=548-83-4" "SMILES=c1ccc(cc1)c2c(c(=O)c3c(cc(cc3o2)O)O)O" "InChI=InChI=1S/C15H10O5/c16-9-6-10(17)12-11(7-9)20-15(14(19)13(12)18)8-4-2-1-3-5-8/h1-7,16-17,19H" "computed SMILES=O=C1C(O)=C(OC=2C=C(O)C=C(O)C12)C=3C=CC=CC3" "license=License CC-BY-NC-SA 4.0 International" "author=Plant Biology, The Noble Foundation, Ardmore, OK, US/Dennis Fine, Daniel Wherritt, and Lloyd Sumner" "ionization=ESI" "collision gas=Nitrogen" "peak width=0.015" "date=2014-01-04 09:19:58+01:00" "column=Waters Acquity BEH C18 1.7um x 2.1 x 150 mm" "retention time=868.2" "raw data file=C:\Data\Confirmed Standards\Confirmed stds MSMS 2Jan14\Galangin (vial 317)_MSMS_2409.d" "SPLASH=splash10-014i-0090000000-ccad6be83481aed77fa3" "submitter=Aiko Barsch (Bruker)" "MoNA Rating=3.888888888888889"
Num Peaks: 9
112.9859 0.800801
242.9430 0.900901
248.9605 1.001001
269.0468 100.000000
270.0499 13.813814
271.0523 1.601602
285.0420 1.001001
539.0981 0.800801
666.0215 3.203203


Name: Galangin
Synon: $:00in-source
DB#: MetaboBASE0695
InChIKey: VCCRNZQBSJXYJD-UHFFFAOYSA-N
Precursor_type: [M-H]-
Spectrum_type: MS2
PrecursorMZ: 269.0466
Instrument_type: LC-ESI-TOF
Instrument: impact HD
Ion_mode: N
Collision_energy: 10
Formula: C15H10O5
MW: 270
ExactMass: 270.05282342
Comments: "cas number=548-83-4" "SMILES=c1ccc(cc1)c2c(c(=O)c3c(cc(cc3o2)O)O)O" "InChI=InChI=1S/C15H10O5/c16-9-6-10(17)12-11(7-9)20-15(14(19)13(12)18)8-4-2-1-3-5-8/h1-7,16-17,19H" "computed SMILES=O=C1C(O)=C(OC=2C=C(O)C=C(O)C12)C=3C=CC=CC3" "license=License CC-BY-NC-SA 4.0 International" "author=Plant Biology, The Noble Foundation, Ardmore, OK, US/Dennis Fine, Daniel Wherritt, and Lloyd Sumner" "ionization=ESI" "isolation width=5" "collision gas=Nitrogen" "peak width=0.012" "date=2014-01-04 09:19:58+01:00" "column=Waters Acquity BEH C18 1.7um x 2.1 x 150 mm" "retention time=868.2" "raw data file=C:\Data\Confirmed Standards\Confirmed stds MSMS 2Jan14\Galangin (vial 317)_MSMS_2409.d" "computed mass accuracy=3.912259065979473" "computed mass error=0.0010525800000209529" "SPLASH=splash10-014i-0090000000-a7d187f28c6a27ca6b7c" "submitter=Aiko Barsch (Bruker)" "MoNA Rating=4.583333333333334"
Num Peaks: 3
269.0466 100.000000
270.0498 11.411411
271.0509 1.301301


Name: Galangin
Synon: $:00in-source
DB#: MetaboBASE0696
InChIKey: VCCRNZQBSJXYJD-UHFFFAOYSA-N
Precursor_type: [M-H]-
Spectrum_type: MS2
PrecursorMZ: 269.0454
Instrument_type: LC-ESI-TOF
Instrument: impact HD
Ion_mode: N
Collision_energy: 40
Formula: C15H10O5
MW: 270
ExactMass: 270.05282342
Comments: "cas number=548-83-4" "SMILES=c1ccc(cc1)c2c(c(=O)c3c(cc(cc3o2)O)O)O" "InChI=InChI=1S/C15H10O5/c16-9-6-10(17)12-11(7-9)20-15(14(19)13(12)18)8-4-2-1-3-5-8/h1-7,16-17,19H" "computed SMILES=O=C1C(O)=C(OC=2C=C(O)C=C(O)C12)C=3C=CC=CC3" "license=License CC-BY-NC-SA 4.0 International" "author=Plant Biology, The Noble Foundation, Ardmore, OK, US/Dennis Fine, Daniel Wherritt, and Lloyd Sumner" "ionization=ESI" "isolation width=5" "collision gas=Nitrogen" "peak width=0.0098" "date=2014-01-04 09:19:58+01:00" "column=Waters Acquity BEH C18 1.7um x 2.1 x 150 mm" "retention time=868.2" "raw data file=C:\Data\Confirmed Standards\Confirmed stds MSMS 2Jan14\Galangin (vial 317)_MSMS_2409.d" "computed mass accuracy=0.5479372627031833" "computed mass error=-1.47420000018883E-4" "SPLASH=splash10-014i-0980000000-5ead402f53f21ad1bc69" "submitter=Aiko Barsch (Bruker)" "MoNA Rating=4.615384615384616"
Num Peaks: 12
115.0548 84.584585
117.0347 42.342342
135.0387 38.938939
143.0486 55.455455
169.0623 57.957958
171.0500 53.953954
195.0427 41.241241
211.0371 75.675676
223.0385 49.049049
227.0320 64.064064
239.0356 84.284284
269.0454 100.000000


Name: Galangin
Synon: $:00in-source
DB#: MetaboBASE0697
InChIKey: VCCRNZQBSJXYJD-UHFFFAOYSA-N
Precursor_type: [M-H]-
Spectrum_type: MS2
PrecursorMZ: 269.0465
Instrument_type: LC-ESI-TOF
Instrument: impact HD
Ion_mode: N
Collision_energy: 30
Formula: C15H10O5
MW: 270
ExactMass: 270.05282342
Comments: "cas number=548-83-4" "SMILES=c1ccc(cc1)c2c(c(=O)c3c(cc(cc3o2)O)O)O" "InChI=InChI=1S/C15H10O5/c16-9-6-10(17)12-11(7-9)20-15(14(19)13(12)18)8-4-2-1-3-5-8/h1-7,16-17,19H" "computed SMILES=O=C1C(O)=C(OC=2C=C(O)C=C(O)C12)C=3C=CC=CC3" "license=License CC-BY-NC-SA 4.0 International" "author=Plant Biology, The Noble Foundation, Ardmore, OK, US/Dennis Fine, Daniel Wherritt, and Lloyd Sumner" "ionization=ESI" "isolation width=5" "collision gas=Nitrogen" "peak width=0.016" "date=2014-01-04 09:19:58+01:00" "column=Waters Acquity BEH C18 1.7um x 2.1 x 150 mm" "retention time=868.2" "raw data file=C:\Data\Confirmed Standards\Confirmed stds MSMS 2Jan14\Galangin (vial 317)_MSMS_2409.d" "computed mass accuracy=3.5405775581143466" "computed mass error=9.525799999892115E-4" "SPLASH=splash10-014i-0090000000-573c015550a1005e3b91" "submitter=Aiko Barsch (Bruker)" "MoNA Rating=4.583333333333334"
Num Peaks: 6
169.0623 4.604605
223.0381 8.308308
227.0333 6.606607
239.0355 2.902903
269.0465 100.000000
270.0494 13.513514


Name: Galangin
Synon: $:00in-source
DB#: MetaboBASE0698
InChIKey: VCCRNZQBSJXYJD-UHFFFAOYSA-N
Precursor_type: [M-H]-
Spectrum_type: MS2
PrecursorMZ: 269.0466
Instrument_type: LC-ESI-TOF
Instrument: impact HD
Ion_mode: N
Collision_energy: 20
Formula: C15H10O5
MW: 270
ExactMass: 270.05282342
Comments: "cas number=548-83-4" "SMILES=c1ccc(cc1)c2c(c(=O)c3c(cc(cc3o2)O)O)O" "InChI=InChI=1S/C15H10O5/c16-9-6-10(17)12-11(7-9)20-15(14(19)13(12)18)8-4-2-1-3-5-8/h1-7,16-17,19H" "computed SMILES=O=C1C(O)=C(OC=2C=C(O)C=C(O)C12)C=3C=CC=CC3" "license=License CC-BY-NC-SA 4.0 International" "author=Plant Biology, The Noble Foundation, Ardmore, OK, US/Dennis Fine, Daniel Wherritt, and Lloyd Sumner" "ionization=ESI" "isolation width=5" "collision gas=Nitrogen" "peak width=0.013" "date=2014-01-04 09:19:58+01:00" "column=Waters Acquity BEH C18 1.7um x 2.1 x 150 mm" "retention time=868.2" "raw data file=C:\Data\Confirmed Standards\Confirmed stds MSMS 2Jan14\Galangin (vial 317)_MSMS_2409.d" "computed mass accuracy=3.912259065979473" "computed mass error=0.0010525800000209529" "SPLASH=splash10-014i-0090000000-041e54bbbd21adb90d8e" "submitter=Aiko Barsch (Bruker)" "MoNA Rating=4.583333333333334"
Num Peaks: 5
224.0461 0.400400
227.0356 0.400400
269.0466 100.000000
270.0490 9.609610
271.0528 1.401401


Name: Cauloside C
Synon: 3-Glu(1-2)Ara Hederagenin
Synon: $:00in-source
DB#: MetaboBASE0699
InChIKey: RROGHRHLBLVQSG-UUWFFIQNSA-N
Precursor_type: [M+FA-H]-
Spectrum_type: MS2
PrecursorMZ: 811.4
Instrument_type: LC-ESI-TOF
Instrument: impact HD
Ion_mode: N
Collision_energy: 50
Formula: C41H66O13
MW: 766
ExactMass: 766.450342172
Comments: "cas number=20853-58-1" "SMILES=C[C@]12CC[C@@H]([C@@]([C@@H]1CC[C@@]3([C@@H]2CC=C4[C@]3(CC[C@@]5([C@H]4CC(CC5)(C)C)C(=O)O)C)C)(C)CO)O[C@H]6[C@@H]([C@H]([C@H](CO6)O)O)O[C@H]7[C@@H]([C@H]([C@@H]([C@H](O7)CO)O)O)O" "computed SMILES=O=C(O)C12CCC(C)(C)CC2C3=CCC4C5(C)CCC(OC6OCC(O)C(O)C6OC7OC(CO)C(O)C(O)C7O)C(C)(CO)C5CCC4(C)C3(C)CC1" "computed InChI=InChI=1S/C41H66O13/c1-36(2)13-15-41(35(49)50)16-14-39(5)21(22(41)17-36)7-8-26-37(3)11-10-27(38(4,20-43)25(37)9-12-40(26,39)6)53-34-32(28(45)23(44)19-51-34)54-33-31(48)30(47)29(46)24(18-42)52-33/h7,22-34,42-48H,8-20H2,1-6H3,(H,49,50)/t22-,23+,24-,25?,26-,27+,28+,29-,30+,31-,32-,33-,34+,37+,38?,39-,40-,41+/m1/s1" "license=License CC-BY-NC-SA 4.0 International" "author=Plant Biology, The Noble Foundation, Ardmore, OK, US/Dennis Fine, Daniel Wherritt, and Lloyd Sumner" "ionization=ESI" "isolation width=5" "collision gas=Nitrogen" "peak width=0.014" "date=2014-01-05 00:16:04+01:00" "column=Waters Acquity BEH C18 1.7um x 2.1 x 150 mm" "retention time=1099.2" "raw data file=C:\Data\Confirmed Standards\Confirmed stds MSMS 2Jan14\Cauloside C (vial 358)_MSMS.d" "computed mass accuracy=59.82643825486214" "computed mass error=-0.04854317199999514" "SPLASH=splash10-014i-0000003900-2dc6e30b8143e9689ef2" "submitter=Aiko Barsch (Bruker)" "MoNA Rating=4.545454545454546"
Num Peaks: 8
471.3522 14.514515
585.3848 4.704705
586.3823 5.605606
603.3940 44.544545
604.3938 15.615616
765.4518 100.000000
766.4525 42.142142
767.4603 4.704705


Name: Cauloside C
Synon: 3-Glu(1-2)Ara Hederagenin
Synon: $:00in-source
DB#: MetaboBASE0700
InChIKey: RROGHRHLBLVQSG-UUWFFIQNSA-N
Precursor_type: [M+FA-H]-
Spectrum_type: MS2
PrecursorMZ: 811.4
Instrument_type: LC-ESI-TOF
Instrument: impact HD
Ion_mode: N
Collision_energy: 30
Formula: C41H66O13
MW: 766
ExactMass: 766.450342172
Comments: "cas number=20853-58-1" "SMILES=C[C@]12CC[C@@H]([C@@]([C@@H]1CC[C@@]3([C@@H]2CC=C4[C@]3(CC[C@@]5([C@H]4CC(CC5)(C)C)C(=O)O)C)C)(C)CO)O[C@H]6[C@@H]([C@H]([C@H](CO6)O)O)O[C@H]7[C@@H]([C@H]([C@@H]([C@H](O7)CO)O)O)O" "computed SMILES=O=C(O)C12CCC(C)(C)CC2C3=CCC4C5(C)CCC(OC6OCC(O)C(O)C6OC7OC(CO)C(O)C(O)C7O)C(C)(CO)C5CCC4(C)C3(C)CC1" "computed InChI=InChI=1S/C41H66O13/c1-36(2)13-15-41(35(49)50)16-14-39(5)21(22(41)17-36)7-8-26-37(3)11-10-27(38(4,20-43)25(37)9-12-40(26,39)6)53-34-32(28(45)23(44)19-51-34)54-33-31(48)30(47)29(46)24(18-42)52-33/h7,22-34,42-48H,8-20H2,1-6H3,(H,49,50)/t22-,23+,24-,25?,26-,27+,28+,29-,30+,31-,32-,33-,34+,37+,38?,39-,40-,41+/m1/s1" "license=License CC-BY-NC-SA 4.0 International" "author=Plant Biology, The Noble Foundation, Ardmore, OK, US/Dennis Fine, Daniel Wherritt, and Lloyd Sumner" "ionization=ESI" "isolation width=5" "collision gas=Nitrogen" "peak width=0.0099" "date=2014-01-05 00:16:04+01:00" "column=Waters Acquity BEH C18 1.7um x 2.1 x 150 mm" "retention time=1099.2" "raw data file=C:\Data\Confirmed Standards\Confirmed stds MSMS 2Jan14\Cauloside C (vial 358)_MSMS.d" "computed mass accuracy=59.82643825486214" "computed mass error=-0.04854317199999514" "SPLASH=splash10-014i-0000000900-facdb7f9ac3ee7125e91" "submitter=Aiko Barsch (Bruker)" "MoNA Rating=4.545454545454546"
Num Peaks: 3
765.4504 100.000000
766.4516 34.734735
767.4564 8.708709


Name: Cauloside C
Synon: 3-Glu(1-2)Ara Hederagenin
Synon: $:00in-source
DB#: MetaboBASE0701
InChIKey: RROGHRHLBLVQSG-UUWFFIQNSA-N
Precursor_type: [M+FA-H]-
Spectrum_type: MS2
PrecursorMZ: 811.4551
Instrument_type: LC-ESI-TOF
Instrument: impact HD
Ion_mode: N
Collision_energy: 10
Formula: C41H66O13
MW: 766
ExactMass: 766.450342172
Comments: "cas number=20853-58-1" "SMILES=C[C@]12CC[C@@H]([C@@]([C@@H]1CC[C@@]3([C@@H]2CC=C4[C@]3(CC[C@@]5([C@H]4CC(CC5)(C)C)C(=O)O)C)C)(C)CO)O[C@H]6[C@@H]([C@H]([C@H](CO6)O)O)O[C@H]7[C@@H]([C@H]([C@@H]([C@H](O7)CO)O)O)O" "computed SMILES=O=C(O)C12CCC(C)(C)CC2C3=CCC4C5(C)CCC(OC6OCC(O)C(O)C6OC7OC(CO)C(O)C(O)C7O)C(C)(CO)C5CCC4(C)C3(C)CC1" "computed InChI=InChI=1S/C41H66O13/c1-36(2)13-15-41(35(49)50)16-14-39(5)21(22(41)17-36)7-8-26-37(3)11-10-27(38(4,20-43)25(37)9-12-40(26,39)6)53-34-32(28(45)23(44)19-51-34)54-33-31(48)30(47)29(46)24(18-42)52-33/h7,22-34,42-48H,8-20H2,1-6H3,(H,49,50)/t22-,23+,24-,25?,26-,27+,28+,29-,30+,31-,32-,33-,34+,37+,38?,39-,40-,41+/m1/s1" "license=License CC-BY-NC-SA 4.0 International" "author=Plant Biology, The Noble Foundation, Ardmore, OK, US/Dennis Fine, Daniel Wherritt, and Lloyd Sumner" "ionization=ESI" "isolation width=5" "collision gas=Nitrogen" "peak width=0.011" "date=2014-01-05 00:16:04+01:00" "column=Waters Acquity BEH C18 1.7um x 2.1 x 150 mm" "retention time=1099.2" "raw data file=C:\Data\Confirmed Standards\Confirmed stds MSMS 2Jan14\Cauloside C (vial 358)_MSMS.d" "computed mass accuracy=8.08033371167847" "computed mass error=0.006556828000043424" "SPLASH=splash10-03di-0000000190-eeb4b2e6e872735cc794" "submitter=Aiko Barsch (Bruker)" "MoNA Rating=4.545454545454546"
Num Peaks: 5
765.4495 17.317317
766.4501 8.408408
811.4551 100.000000
812.4595 37.337337
813.4705 6.606607


Name: Cauloside C
Synon: 3-Glu(1-2)Ara Hederagenin
Synon: $:00in-source
DB#: MetaboBASE0702
InChIKey: RROGHRHLBLVQSG-UUWFFIQNSA-N
Precursor_type: [M+FA-H]-
Spectrum_type: MS2
PrecursorMZ: 811.4544
Instrument_type: LC-ESI-TOF
Instrument: impact HD
Ion_mode: N
Collision_energy: 20
Formula: C41H66O13
MW: 766
ExactMass: 766.450342172
Comments: "cas number=20853-58-1" "SMILES=C[C@]12CC[C@@H]([C@@]([C@@H]1CC[C@@]3([C@@H]2CC=C4[C@]3(CC[C@@]5([C@H]4CC(CC5)(C)C)C(=O)O)C)C)(C)CO)O[C@H]6[C@@H]([C@H]([C@H](CO6)O)O)O[C@H]7[C@@H]([C@H]([C@@H]([C@H](O7)CO)O)O)O" "computed SMILES=O=C(O)C12CCC(C)(C)CC2C3=CCC4C5(C)CCC(OC6OCC(O)C(O)C6OC7OC(CO)C(O)C(O)C7O)C(C)(CO)C5CCC4(C)C3(C)CC1" "computed InChI=InChI=1S/C41H66O13/c1-36(2)13-15-41(35(49)50)16-14-39(5)21(22(41)17-36)7-8-26-37(3)11-10-27(38(4,20-43)25(37)9-12-40(26,39)6)53-34-32(28(45)23(44)19-51-34)54-33-31(48)30(47)29(46)24(18-42)52-33/h7,22-34,42-48H,8-20H2,1-6H3,(H,49,50)/t22-,23+,24-,25?,26-,27+,28+,29-,30+,31-,32-,33-,34+,37+,38?,39-,40-,41+/m1/s1" "license=License CC-BY-NC-SA 4.0 International" "author=Plant Biology, The Noble Foundation, Ardmore, OK, US/Dennis Fine, Daniel Wherritt, and Lloyd Sumner" "ionization=ESI" "isolation width=5" "collision gas=Nitrogen" "peak width=0.014" "date=2014-01-05 00:16:04+01:00" "column=Waters Acquity BEH C18 1.7um x 2.1 x 150 mm" "retention time=1099.2" "raw data file=C:\Data\Confirmed Standards\Confirmed stds MSMS 2Jan14\Cauloside C (vial 358)_MSMS.d" "computed mass accuracy=7.217692084720676" "computed mass error=0.005856827999991765" "SPLASH=splash10-014i-0000000920-96a0efb60379bdb47548" "submitter=Aiko Barsch (Bruker)" "MoNA Rating=4.545454545454546"
Num Peaks: 5
765.4502 100.000000
766.4548 48.448448
767.4544 8.308308
811.4544 26.926927
812.4637 10.510511


Name: Cauloside C
Synon: 3-Glu(1-2)Ara Hederagenin
Synon: $:00in-source
DB#: MetaboBASE0703
InChIKey: RROGHRHLBLVQSG-UUWFFIQNSA-N
Instrument_type: LC-ESI-TOF
Instrument: impact HD
Ion_mode: N
Formula: C41H66O13
MW: 766
ExactMass: 766.450342172
Comments: "cas number=20853-58-1" "SMILES=C[C@]12CC[C@@H]([C@@]([C@@H]1CC[C@@]3([C@@H]2CC=C4[C@]3(CC[C@@]5([C@H]4CC(CC5)(C)C)C(=O)O)C)C)(C)CO)O[C@H]6[C@@H]([C@H]([C@H](CO6)O)O)O[C@H]7[C@@H]([C@H]([C@@H]([C@H](O7)CO)O)O)O" "computed SMILES=O=C(O)C12CCC(C)(C)CC2C3=CCC4C5(C)CCC(OC6OCC(O)C(O)C6OC7OC(CO)C(O)C(O)C7O)C(C)(CO)C5CCC4(C)C3(C)CC1" "computed InChI=InChI=1S/C41H66O13/c1-36(2)13-15-41(35(49)50)16-14-39(5)21(22(41)17-36)7-8-26-37(3)11-10-27(38(4,20-43)25(37)9-12-40(26,39)6)53-34-32(28(45)23(44)19-51-34)54-33-31(48)30(47)29(46)24(18-42)52-33/h7,22-34,42-48H,8-20H2,1-6H3,(H,49,50)/t22-,23+,24-,25?,26-,27+,28+,29-,30+,31-,32-,33-,34+,37+,38?,39-,40-,41+/m1/s1" "license=License CC-BY-NC-SA 4.0 International" "author=Plant Biology, The Noble Foundation, Ardmore, OK, US/Dennis Fine, Daniel Wherritt, and Lloyd Sumner" "ionization=ESI" "collision gas=Nitrogen" "peak width=0.011" "date=2014-01-05 00:16:04+01:00" "column=Waters Acquity BEH C18 1.7um x 2.1 x 150 mm" "retention time=1099.2" "raw data file=C:\Data\Confirmed Standards\Confirmed stds MSMS 2Jan14\Cauloside C (vial 358)_MSMS.d" "SPLASH=splash10-03di-0000000090-202da7e1680ef64a9e33" "submitter=Aiko Barsch (Bruker)" "MoNA Rating=3.888888888888889"
Num Peaks: 7
666.0233 6.706707
811.4561 100.000000
812.4584 40.740741
813.4619 9.209209
879.4405 6.406406
880.4434 3.103103
947.4269 2.502503


Name: Cauloside C
Synon: 3-Glu(1-2)Ara Hederagenin
Synon: $:00in-source
DB#: MetaboBASE0704
InChIKey: RROGHRHLBLVQSG-UUWFFIQNSA-N
Precursor_type: [M+FA-H]-
Spectrum_type: MS2
PrecursorMZ: 811.4
Instrument_type: LC-ESI-TOF
Instrument: impact HD
Ion_mode: N
Collision_energy: 40
Formula: C41H66O13
MW: 766
ExactMass: 766.450342172
Comments: "cas number=20853-58-1" "SMILES=C[C@]12CC[C@@H]([C@@]([C@@H]1CC[C@@]3([C@@H]2CC=C4[C@]3(CC[C@@]5([C@H]4CC(CC5)(C)C)C(=O)O)C)C)(C)CO)O[C@H]6[C@@H]([C@H]([C@H](CO6)O)O)O[C@H]7[C@@H]([C@H]([C@@H]([C@H](O7)CO)O)O)O" "computed SMILES=O=C(O)C12CCC(C)(C)CC2C3=CCC4C5(C)CCC(OC6OCC(O)C(O)C6OC7OC(CO)C(O)C(O)C7O)C(C)(CO)C5CCC4(C)C3(C)CC1" "computed InChI=InChI=1S/C41H66O13/c1-36(2)13-15-41(35(49)50)16-14-39(5)21(22(41)17-36)7-8-26-37(3)11-10-27(38(4,20-43)25(37)9-12-40(26,39)6)53-34-32(28(45)23(44)19-51-34)54-33-31(48)30(47)29(46)24(18-42)52-33/h7,22-34,42-48H,8-20H2,1-6H3,(H,49,50)/t22-,23+,24-,25?,26-,27+,28+,29-,30+,31-,32-,33-,34+,37+,38?,39-,40-,41+/m1/s1" "license=License CC-BY-NC-SA 4.0 International" "author=Plant Biology, The Noble Foundation, Ardmore, OK, US/Dennis Fine, Daniel Wherritt, and Lloyd Sumner" "ionization=ESI" "isolation width=5" "collision gas=Nitrogen" "peak width=0.012" "date=2014-01-05 00:16:04+01:00" "column=Waters Acquity BEH C18 1.7um x 2.1 x 150 mm" "retention time=1099.2" "raw data file=C:\Data\Confirmed Standards\Confirmed stds MSMS 2Jan14\Cauloside C (vial 358)_MSMS.d" "computed mass accuracy=59.82643825486214" "computed mass error=-0.04854317199999514" "SPLASH=splash10-014i-0000000900-3fbced2a3d7b252f96b8" "submitter=Aiko Barsch (Bruker)" "MoNA Rating=4.545454545454546"
Num Peaks: 4
603.3900 5.905906
765.4507 100.000000
766.4527 35.635636
767.4562 5.305305


Name: Asiaticoside
Synon: $:00in-source
DB#: MetaboBASE0705
InChIKey: WYQVAPGDARQUBT-JVGKFWCXSA-N
Instrument_type: LC-ESI-TOF
Instrument: impact HD
Ion_mode: N
Formula: C48H78O19
MW: 958
ExactMass: 958.513730276
Comments: "SMILES=C[C@@H]1CC[C@@]2(CC[C@@]3(C(=CC[C@H]4[C@]3(CC[C@@H]5[C@@]4(C[C@H]([C@@H]([C@@]5(C)CO)O)O)C)C)[C@@H]2[C@H]1C)C)C(=O)O[C@H]6[C@@H]([C@H]([C@@H]([C@H](O6)CO[C@H]7[C@@H]([C@H]([C@@H]([C@H](O7)CO)O[C@H]8[C@@H]([C@@H]([C@H]([C@H](O8)C)O)O)O)O)O)O)O)O" "computed SMILES=O=C(OC1OC(COC2OC(CO)C(OC3OC(C)C(O)C(O)C3O)C(O)C2O)C(O)C(O)C1O)C45CCC(C)C(C)C5C6=CCC7C8(C)CC(O)C(O)C(C)(CO)C8CCC7(C)C6(C)CC4" "computed InChI=InChI=1S/C48H78O19/c1-20-10-13-48(15-14-46(6)23(29(48)21(20)2)8-9-28-44(4)16-24(51)39(60)45(5,19-50)27(44)11-12-47(28,46)7)43(61)67-42-36(58)33(55)31(53)26(65-42)18-62-40-37(59)34(56)38(25(17-49)64-40)66-41-35(57)32(54)30(52)22(3)63-41/h8,20-22,24-42,49-60H,9-19H2,1-7H3/t20-,21+,22-,24-,25-,26-,27-,28-,29+,30+,31-,32-,33+,34-,35-,36-,37-,38-,39+,40-,41+,42+,44+,45+,46-,47-,48+/m1/s1" "license=License CC-BY-NC-SA 4.0 International" "author=Plant Biology, The Noble Foundation, Ardmore, OK, US/Dennis Fine, Daniel Wherritt, and Lloyd Sumner" "ionization=ESI" "collision gas=Nitrogen" "peak width=0.01" "date=2014-01-04 22:54:36+01:00" "column=Waters Acquity BEH C18 1.7um x 2.1 x 150 mm" "retention time=663" "raw data file=C:\Data\Confirmed Standards\Confirmed stds MSMS 2Jan14\Asiaticoside (vial 356)_MSMS.d" "SPLASH=splash10-0udi-9000000000-423c61b061c1c4e3c085" "submitter=Aiko Barsch (Bruker)" "MoNA Rating=3.888888888888889"
Num Peaks: 16
112.9851 0.700701
993.4686 0.800801
1003.5080 100.000000
1004.5119 43.843844
1005.5147 11.911912
1006.5184 2.502503
1055.4761 0.700701
1055.5229 0.600601
1071.4946 6.506507
1072.4988 3.503504
1073.5056 1.101101
1075.4329 1.001001
1133.4564 0.700701
1139.4794 1.301301
1483.2700 0.800801
1484.2411 0.600601


Name: Asiaticoside
Synon: $:00in-source
DB#: MetaboBASE0706
InChIKey: WYQVAPGDARQUBT-JVGKFWCXSA-N
Precursor_type: [M+FA-H]-
Spectrum_type: MS2
PrecursorMZ: 1003.509
Instrument_type: LC-ESI-TOF
Instrument: impact HD
Ion_mode: N
Collision_energy: 10
Formula: C48H78O19
MW: 958
ExactMass: 958.513730276
Comments: "SMILES=C[C@@H]1CC[C@@]2(CC[C@@]3(C(=CC[C@H]4[C@]3(CC[C@@H]5[C@@]4(C[C@H]([C@@H]([C@@]5(C)CO)O)O)C)C)[C@@H]2[C@H]1C)C)C(=O)O[C@H]6[C@@H]([C@H]([C@@H]([C@H](O6)CO[C@H]7[C@@H]([C@H]([C@@H]([C@H](O7)CO)O[C@H]8[C@@H]([C@@H]([C@H]([C@H](O8)C)O)O)O)O)O)O)O)O" "computed SMILES=O=C(OC1OC(COC2OC(CO)C(OC3OC(C)C(O)C(O)C3O)C(O)C2O)C(O)C(O)C1O)C45CCC(C)C(C)C5C6=CCC7C8(C)CC(O)C(O)C(C)(CO)C8CCC7(C)C6(C)CC4" "computed InChI=InChI=1S/C48H78O19/c1-20-10-13-48(15-14-46(6)23(29(48)21(20)2)8-9-28-44(4)16-24(51)39(60)45(5,19-50)27(44)11-12-47(28,46)7)43(61)67-42-36(58)33(55)31(53)26(65-42)18-62-40-37(59)34(56)38(25(17-49)64-40)66-41-35(57)32(54)30(52)22(3)63-41/h8,20-22,24-42,49-60H,9-19H2,1-7H3/t20-,21+,22-,24-,25-,26-,27-,28-,29+,30+,31-,32-,33+,34-,35-,36-,37-,38-,39+,40-,41+,42+,44+,45+,46-,47-,48+/m1/s1" "license=License CC-BY-NC-SA 4.0 International" "author=Plant Biology, The Noble Foundation, Ardmore, OK, US/Dennis Fine, Daniel Wherritt, and Lloyd Sumner" "ionization=ESI" "isolation width=5" "collision gas=Nitrogen" "peak width=0.011" "date=2014-01-04 22:54:36+01:00" "column=Waters Acquity BEH C18 1.7um x 2.1 x 150 mm" "retention time=663" "raw data file=C:\Data\Confirmed Standards\Confirmed stds MSMS 2Jan14\Asiaticoside (vial 356)_MSMS.d" "computed mass accuracy=2.921026119373746" "computed mass error=-0.002931276000026628" "SPLASH=splash10-0udi-9000000000-4be642e53461b04bbfd9" "submitter=Aiko Barsch (Bruker)" "MoNA Rating=4.583333333333334"
Num Peaks: 7
957.4944 2.302302
958.4955 1.101101
1003.5089 100.000000
1004.5098 44.244244
1005.5201 9.709710
1006.5275 1.401401
1006.7568 1.301301


Name: Asiaticoside
Synon: $:00in-source
DB#: MetaboBASE0707
InChIKey: WYQVAPGDARQUBT-JVGKFWCXSA-N
Precursor_type: [M+FA-H]-
Spectrum_type: MS2
PrecursorMZ: 1003.508
Instrument_type: LC-ESI-TOF
Instrument: impact HD
Ion_mode: N
Collision_energy: 20
Formula: C48H78O19
MW: 958
ExactMass: 958.5137302759999
Comments: "SMILES=C[C@@H]1CC[C@@]2(CC[C@@]3(C(=CC[C@H]4[C@]3(CC[C@@H]5[C@@]4(C[C@H]([C@@H]([C@@]5(C)CO)O)O)C)C)[C@@H]2[C@H]1C)C)C(=O)O[C@H]6[C@@H]([C@H]([C@@H]([C@H](O6)CO[C@H]7[C@@H]([C@H]([C@@H]([C@H](O7)CO)O[C@H]8[C@@H]([C@@H]([C@H]([C@H](O8)C)O)O)O)O)O)O)O)O" "computed SMILES=O=C(OC1OC(COC2OC(CO)C(OC3OC(C)C(O)C(O)C3O)C(O)C2O)C(O)C(O)C1O)C45CCC(C)C(C)C5C6=CCC7C8(C)CC(O)C(O)C(C)(CO)C8CCC7(C)C6(C)CC4" "computed InChI=InChI=1S/C48H78O19/c1-20-10-13-48(15-14-46(6)23(29(48)21(20)2)8-9-28-44(4)16-24(51)39(60)45(5,19-50)27(44)11-12-47(28,46)7)43(61)67-42-36(58)33(55)31(53)26(65-42)18-62-40-37(59)34(56)38(25(17-49)64-40)66-41-35(57)32(54)30(52)22(3)63-41/h8,20-22,24-42,49-60H,9-19H2,1-7H3/t20-,21+,22-,24-,25-,26-,27-,28-,29+,30+,31-,32-,33+,34-,35-,36-,37-,38-,39+,40-,41+,42+,44+,45+,46-,47-,48+/m1/s1" "license=License CC-BY-NC-SA 4.0 International" "author=Plant Biology, The Noble Foundation, Ardmore, OK, US/Dennis Fine, Daniel Wherritt, and Lloyd Sumner" "ionization=ESI" "isolation width=5" "collision gas=Nitrogen" "peak width=0.012" "date=2014-01-04 22:54:36+01:00" "column=Waters Acquity BEH C18 1.7um x 2.1 x 150 mm" "retention time=663" "raw data file=C:\Data\Confirmed Standards\Confirmed stds MSMS 2Jan14\Asiaticoside (vial 356)_MSMS.d" "computed mass accuracy=3.9175332930971094" "computed mass error=-0.003931275999889294" "SPLASH=splash10-0udi-9000000003-89b1f9cabf90a0f0b22d" "submitter=Aiko Barsch (Bruker)" "MoNA Rating=4.583333333333334"
Num Peaks: 11
469.1592 3.003003
571.7054 1.801802
576.5307 1.901902
957.5004 43.643644
958.5021 16.916917
959.4981 4.304304
1003.5081 100.000000
1004.5071 41.641642
1004.5912 2.202202
1005.5097 6.806807
1006.5082 2.202202


Name: Asiaticoside
Synon: $:00in-source
DB#: MetaboBASE0708
InChIKey: WYQVAPGDARQUBT-JVGKFWCXSA-N
Precursor_type: [M+FA-H]-
Spectrum_type: MS2
PrecursorMZ: 1003.513
Instrument_type: LC-ESI-TOF
Instrument: impact HD
Ion_mode: N
Collision_energy: 30
Formula: C48H78O19
MW: 958
ExactMass: 958.5137302759999
Comments: "SMILES=C[C@@H]1CC[C@@]2(CC[C@@]3(C(=CC[C@H]4[C@]3(CC[C@@H]5[C@@]4(C[C@H]([C@@H]([C@@]5(C)CO)O)O)C)C)[C@@H]2[C@H]1C)C)C(=O)O[C@H]6[C@@H]([C@H]([C@@H]([C@H](O6)CO[C@H]7[C@@H]([C@H]([C@@H]([C@H](O7)CO)O[C@H]8[C@@H]([C@@H]([C@H]([C@H](O8)C)O)O)O)O)O)O)O)O" "computed SMILES=O=C(OC1OC(COC2OC(CO)C(OC3OC(C)C(O)C(O)C3O)C(O)C2O)C(O)C(O)C1O)C45CCC(C)C(C)C5C6=CCC7C8(C)CC(O)C(O)C(C)(CO)C8CCC7(C)C6(C)CC4" "computed InChI=InChI=1S/C48H78O19/c1-20-10-13-48(15-14-46(6)23(29(48)21(20)2)8-9-28-44(4)16-24(51)39(60)45(5,19-50)27(44)11-12-47(28,46)7)43(61)67-42-36(58)33(55)31(53)26(65-42)18-62-40-37(59)34(56)38(25(17-49)64-40)66-41-35(57)32(54)30(52)22(3)63-41/h8,20-22,24-42,49-60H,9-19H2,1-7H3/t20-,21+,22-,24-,25-,26-,27-,28-,29+,30+,31-,32-,33+,34-,35-,36-,37-,38-,39+,40-,41+,42+,44+,45+,46-,47-,48+/m1/s1" "license=License CC-BY-NC-SA 4.0 International" "author=Plant Biology, The Noble Foundation, Ardmore, OK, US/Dennis Fine, Daniel Wherritt, and Lloyd Sumner" "ionization=ESI" "isolation width=5" "collision gas=Nitrogen" "peak width=0.012" "date=2014-01-04 22:54:36+01:00" "column=Waters Acquity BEH C18 1.7um x 2.1 x 150 mm" "retention time=663" "raw data file=C:\Data\Confirmed Standards\Confirmed stds MSMS 2Jan14\Asiaticoside (vial 356)_MSMS.d" "computed mass accuracy=1.0649827158254632" "computed mass error=0.0010687240001061582" "SPLASH=splash10-0a4i-1000100009-75da715edf563c4ad05e" "submitter=Aiko Barsch (Bruker)" "MoNA Rating=4.583333333333334"
Num Peaks: 11
325.1122 1.601602
469.1556 19.619620
470.1597 2.802803
487.3434 2.402402
957.5038 100.000000
958.5060 38.638639
959.5075 10.810811
960.5054 1.401401
1003.5133 8.908909
1004.5172 6.006006
1005.5097 1.901902


Name: Asiaticoside
Synon: $:00in-source
DB#: MetaboBASE0709
InChIKey: WYQVAPGDARQUBT-JVGKFWCXSA-N
Precursor_type: [M+FA-H]-
Spectrum_type: MS2
PrecursorMZ: 1003.5
Instrument_type: LC-ESI-TOF
Instrument: impact HD
Ion_mode: N
Collision_energy: 40
Formula: C48H78O19
MW: 958
ExactMass: 958.513730276
Comments: "SMILES=C[C@@H]1CC[C@@]2(CC[C@@]3(C(=CC[C@H]4[C@]3(CC[C@@H]5[C@@]4(C[C@H]([C@@H]([C@@]5(C)CO)O)O)C)C)[C@@H]2[C@H]1C)C)C(=O)O[C@H]6[C@@H]([C@H]([C@@H]([C@H](O6)CO[C@H]7[C@@H]([C@H]([C@@H]([C@H](O7)CO)O[C@H]8[C@@H]([C@@H]([C@H]([C@H](O8)C)O)O)O)O)O)O)O)O" "computed SMILES=O=C(OC1OC(COC2OC(CO)C(OC3OC(C)C(O)C(O)C3O)C(O)C2O)C(O)C(O)C1O)C45CCC(C)C(C)C5C6=CCC7C8(C)CC(O)C(O)C(C)(CO)C8CCC7(C)C6(C)CC4" "computed InChI=InChI=1S/C48H78O19/c1-20-10-13-48(15-14-46(6)23(29(48)21(20)2)8-9-28-44(4)16-24(51)39(60)45(5,19-50)27(44)11-12-47(28,46)7)43(61)67-42-36(58)33(55)31(53)26(65-42)18-62-40-37(59)34(56)38(25(17-49)64-40)66-41-35(57)32(54)30(52)22(3)63-41/h8,20-22,24-42,49-60H,9-19H2,1-7H3/t20-,21+,22-,24-,25-,26-,27-,28-,29+,30+,31-,32-,33+,34-,35-,36-,37-,38-,39+,40-,41+,42+,44+,45+,46-,47-,48+/m1/s1" "license=License CC-BY-NC-SA 4.0 International" "author=Plant Biology, The Noble Foundation, Ardmore, OK, US/Dennis Fine, Daniel Wherritt, and Lloyd Sumner" "ionization=ESI" "isolation width=5" "collision gas=Nitrogen" "peak width=0.012" "date=2014-01-04 22:54:36+01:00" "column=Waters Acquity BEH C18 1.7um x 2.1 x 150 mm" "retention time=663" "raw data file=C:\Data\Confirmed Standards\Confirmed stds MSMS 2Jan14\Asiaticoside (vial 356)_MSMS.d" "computed mass accuracy=11.88966218240277" "computed mass error=-0.01193127600004118" "SPLASH=splash10-066r-0000900004-ec19c4873f04c908e93a" "submitter=Aiko Barsch (Bruker)" "MoNA Rating=4.545454545454546"
Num Peaks: 20
125.0247 2.002002
161.0441 3.803804
247.0829 3.103103
265.0912 2.602603
323.0977 3.803804
325.1107 2.402402
367.1262 5.605606
368.1290 1.801802
409.1385 4.204204
451.1502 1.501502
469.1554 100.000000
470.1591 13.413413
471.1639 4.304304
487.3396 18.918919
488.3454 6.806807
957.5040 45.245245
958.5084 16.716717
958.5776 1.701702
959.5021 4.204204
960.5024 1.301301


Name: Asiaticoside
Synon: $:00in-source
DB#: MetaboBASE0710
InChIKey: WYQVAPGDARQUBT-JVGKFWCXSA-N
Precursor_type: [M+FA-H]-
Spectrum_type: MS2
PrecursorMZ: 1003.5
Instrument_type: LC-ESI-TOF
Instrument: impact HD
Ion_mode: N
Collision_energy: 50
Formula: C48H78O19
MW: 958
ExactMass: 958.5137302759999
Comments: "SMILES=C[C@@H]1CC[C@@]2(CC[C@@]3(C(=CC[C@H]4[C@]3(CC[C@@H]5[C@@]4(C[C@H]([C@@H]([C@@]5(C)CO)O)O)C)C)[C@@H]2[C@H]1C)C)C(=O)O[C@H]6[C@@H]([C@H]([C@@H]([C@H](O6)CO[C@H]7[C@@H]([C@H]([C@@H]([C@H](O7)CO)O[C@H]8[C@@H]([C@@H]([C@H]([C@H](O8)C)O)O)O)O)O)O)O)O" "computed SMILES=O=C(OC1OC(COC2OC(CO)C(OC3OC(C)C(O)C(O)C3O)C(O)C2O)C(O)C(O)C1O)C45CCC(C)C(C)C5C6=CCC7C8(C)CC(O)C(O)C(C)(CO)C8CCC7(C)C6(C)CC4" "computed InChI=InChI=1S/C48H78O19/c1-20-10-13-48(15-14-46(6)23(29(48)21(20)2)8-9-28-44(4)16-24(51)39(60)45(5,19-50)27(44)11-12-47(28,46)7)43(61)67-42-36(58)33(55)31(53)26(65-42)18-62-40-37(59)34(56)38(25(17-49)64-40)66-41-35(57)32(54)30(52)22(3)63-41/h8,20-22,24-42,49-60H,9-19H2,1-7H3/t20-,21+,22-,24-,25-,26-,27-,28-,29+,30+,31-,32-,33+,34-,35-,36-,37-,38-,39+,40-,41+,42+,44+,45+,46-,47-,48+/m1/s1" "license=License CC-BY-NC-SA 4.0 International" "author=Plant Biology, The Noble Foundation, Ardmore, OK, US/Dennis Fine, Daniel Wherritt, and Lloyd Sumner" "ionization=ESI" "isolation width=5" "collision gas=Nitrogen" "peak width=0.011" "date=2014-01-04 22:54:36+01:00" "column=Waters Acquity BEH C18 1.7um x 2.1 x 150 mm" "retention time=663" "raw data file=C:\Data\Confirmed Standards\Confirmed stds MSMS 2Jan14\Asiaticoside (vial 356)_MSMS.d" "computed mass accuracy=11.889662182289479" "computed mass error=-0.011931275999927493" "SPLASH=splash10-014r-0101900000-f6718e10f3de7520652f" "submitter=Aiko Barsch (Bruker)" "MoNA Rating=4.545454545454546"
Num Peaks: 25
125.0216 7.707708
126.0285 3.503504
143.0356 2.702703
161.0468 5.805806
163.0622 5.405405
168.0344 1.901902
247.0835 14.214214
265.0931 3.603604
291.2499 2.002002
323.1011 9.609610
325.1022 2.902903
349.1177 2.102102
367.1247 13.213213
368.1321 2.302302
409.1315 5.905906
469.1563 100.000000
470.1565 13.813814
471.1678 2.002002
472.1623 1.901902
487.3407 81.581582
488.3473 17.417417
489.3447 2.602603
957.5012 6.606607
958.5077 5.705706
959.4926 3.703704


Name: Apigenin-7-O-glucoside
Synon: Apigetrin
Synon: $:00in-source
DB#: MetaboBASE0711
InChIKey: KMOUJOKENFFTPU-QNDFHXLGSA-N
Precursor_type: [M-H]-
Spectrum_type: MS2
PrecursorMZ: 431.0962
Instrument_type: LC-ESI-TOF
Instrument: impact HD
Ion_mode: N
Collision_energy: 20
Formula: C21H20O10
MW: 432
ExactMass: 432.10564683999996
Comments: "cas number=578-74-5" "SMILES=c1cc(ccc1c2cc(=O)c3c(cc(cc3o2)O[C@H]4[C@@H]([C@H]([C@@H]([C@H](O4)CO)O)O)O)O)O" "InChI=InChI=1S/C21H20O10/c22-8-16-18(26)19(27)20(28)21(31-16)29-11-5-12(24)17-13(25)7-14(30-15(17)6-11)9-1-3-10(23)4-2-9/h1-7,16,18-24,26-28H,8H2/t16-,18-,19+,20-,21-/m1/s1" "computed SMILES=O=C1C=C(OC2=CC(OC3OC(CO)C(O)C(O)C3O)=CC(O)=C12)C=4C=CC(O)=CC4" "computed InChI=InChI=1S/C21H20O10/c22-8-16-18(26)19(27)20(28)21(31-16)29-11-5-12(24)17-13(25)7-14(30-15(17)6-11)9-1-3-10(23)4-2-9/h1-7,16,18-24,26-28H,8H2" "license=License CC-BY-NC-SA 4.0 International" "author=Plant Biology, The Noble Foundation, Ardmore, OK, US/Dennis Fine, Daniel Wherritt, and Lloyd Sumner" "ionization=ESI" "isolation width=5" "collision gas=Nitrogen" "peak width=0.013" "date=2014-01-04 11:22:09+01:00" "column=Waters Acquity BEH C18 1.7um x 2.1 x 150 mm" "retention time=388.2" "raw data file=C:\Data\Confirmed Standards\Confirmed stds MSMS 2Jan14\Apigenin-7-O-glucoside _MSMS_2412.d" "computed mass accuracy=5.035627778585108" "computed mass error=-0.0021708399999624817" "SPLASH=splash10-001i-0000900000-6b95a61b7f083354af67" "submitter=Aiko Barsch (Bruker)" "MoNA Rating=4.545454545454546"
Num Peaks: 6
268.0370 2.902903
269.0428 6.506507
270.0479 1.601602
431.0962 100.000000
432.0988 16.416416
433.1019 2.302302


Name: Apigenin-7-O-glucoside
Synon: Apigetrin
Synon: $:00in-source
DB#: MetaboBASE0712
InChIKey: KMOUJOKENFFTPU-QNDFHXLGSA-N
Precursor_type: [M-H]-
Spectrum_type: MS2
PrecursorMZ: 431.0958
Instrument_type: LC-ESI-TOF
Instrument: impact HD
Ion_mode: N
Collision_energy: 30
Formula: C21H20O10
MW: 432
ExactMass: 432.10564683999996
Comments: "cas number=578-74-5" "SMILES=c1cc(ccc1c2cc(=O)c3c(cc(cc3o2)O[C@H]4[C@@H]([C@H]([C@@H]([C@H](O4)CO)O)O)O)O)O" "InChI=InChI=1S/C21H20O10/c22-8-16-18(26)19(27)20(28)21(31-16)29-11-5-12(24)17-13(25)7-14(30-15(17)6-11)9-1-3-10(23)4-2-9/h1-7,16,18-24,26-28H,8H2/t16-,18-,19+,20-,21-/m1/s1" "computed SMILES=O=C1C=C(OC2=CC(OC3OC(CO)C(O)C(O)C3O)=CC(O)=C12)C=4C=CC(O)=CC4" "computed InChI=InChI=1S/C21H20O10/c22-8-16-18(26)19(27)20(28)21(31-16)29-11-5-12(24)17-13(25)7-14(30-15(17)6-11)9-1-3-10(23)4-2-9/h1-7,16,18-24,26-28H,8H2" "license=License CC-BY-NC-SA 4.0 International" "author=Plant Biology, The Noble Foundation, Ardmore, OK, US/Dennis Fine, Daniel Wherritt, and Lloyd Sumner" "ionization=ESI" "isolation width=5" "collision gas=Nitrogen" "peak width=0.015" "date=2014-01-04 11:22:09+01:00" "column=Waters Acquity BEH C18 1.7um x 2.1 x 150 mm" "retention time=388.2" "raw data file=C:\Data\Confirmed Standards\Confirmed stds MSMS 2Jan14\Apigenin-7-O-glucoside _MSMS_2412.d" "computed mass accuracy=5.963500456222864" "computed mass error=-0.0025708399999757603" "SPLASH=splash10-0159-0090500000-9dec13c3df392c53fc7f" "submitter=Aiko Barsch (Bruker)" "MoNA Rating=4.545454545454546"
Num Peaks: 8
268.0360 100.000000
269.0428 58.458458
270.0453 7.907908
271.0504 1.301301
311.0519 1.901902
431.0958 89.389389
432.0997 17.117117
433.1058 5.205205


Name: Apigenin-7-O-glucoside
Synon: Apigetrin
Synon: $:00in-source
DB#: MetaboBASE0713
InChIKey: KMOUJOKENFFTPU-QNDFHXLGSA-N
Precursor_type: [M-H]-
Spectrum_type: MS2
PrecursorMZ: 431.0963
Instrument_type: LC-ESI-TOF
Instrument: impact HD
Ion_mode: N
Collision_energy: 10
Formula: C21H20O10
MW: 432
ExactMass: 432.10564683999996
Comments: "cas number=578-74-5" "SMILES=c1cc(ccc1c2cc(=O)c3c(cc(cc3o2)O[C@H]4[C@@H]([C@H]([C@@H]([C@H](O4)CO)O)O)O)O)O" "InChI=InChI=1S/C21H20O10/c22-8-16-18(26)19(27)20(28)21(31-16)29-11-5-12(24)17-13(25)7-14(30-15(17)6-11)9-1-3-10(23)4-2-9/h1-7,16,18-24,26-28H,8H2/t16-,18-,19+,20-,21-/m1/s1" "computed SMILES=O=C1C=C(OC2=CC(OC3OC(CO)C(O)C(O)C3O)=CC(O)=C12)C=4C=CC(O)=CC4" "computed InChI=InChI=1S/C21H20O10/c22-8-16-18(26)19(27)20(28)21(31-16)29-11-5-12(24)17-13(25)7-14(30-15(17)6-11)9-1-3-10(23)4-2-9/h1-7,16,18-24,26-28H,8H2" "license=License CC-BY-NC-SA 4.0 International" "author=Plant Biology, The Noble Foundation, Ardmore, OK, US/Dennis Fine, Daniel Wherritt, and Lloyd Sumner" "ionization=ESI" "isolation width=5" "collision gas=Nitrogen" "peak width=0.012" "date=2014-01-04 11:22:09+01:00" "column=Waters Acquity BEH C18 1.7um x 2.1 x 150 mm" "retention time=388.2" "raw data file=C:\Data\Confirmed Standards\Confirmed stds MSMS 2Jan14\Apigenin-7-O-glucoside _MSMS_2412.d" "computed mass accuracy=4.803659878286091" "computed mass error=-0.0020708399999875837" "SPLASH=splash10-001i-0000900000-114bf84bfc5450c46662" "submitter=Aiko Barsch (Bruker)" "MoNA Rating=4.583333333333334"
Num Peaks: 3
431.0963 100.000000
432.0995 16.416416
433.0999 2.002002


Name: Apigenin-7-O-glucoside
Synon: Apigetrin
Synon: $:00in-source
DB#: MetaboBASE0714
InChIKey: KMOUJOKENFFTPU-QNDFHXLGSA-N
Precursor_type: [M-H]-
Spectrum_type: MS2
PrecursorMZ: 431.0956
Instrument_type: LC-ESI-TOF
Instrument: impact HD
Ion_mode: N
Collision_energy: 40
Formula: C21H20O10
MW: 432
ExactMass: 432.10564683999996
Comments: "cas number=578-74-5" "SMILES=c1cc(ccc1c2cc(=O)c3c(cc(cc3o2)O[C@H]4[C@@H]([C@H]([C@@H]([C@H](O4)CO)O)O)O)O)O" "InChI=InChI=1S/C21H20O10/c22-8-16-18(26)19(27)20(28)21(31-16)29-11-5-12(24)17-13(25)7-14(30-15(17)6-11)9-1-3-10(23)4-2-9/h1-7,16,18-24,26-28H,8H2/t16-,18-,19+,20-,21-/m1/s1" "computed SMILES=O=C1C=C(OC2=CC(OC3OC(CO)C(O)C(O)C3O)=CC(O)=C12)C=4C=CC(O)=CC4" "computed InChI=InChI=1S/C21H20O10/c22-8-16-18(26)19(27)20(28)21(31-16)29-11-5-12(24)17-13(25)7-14(30-15(17)6-11)9-1-3-10(23)4-2-9/h1-7,16,18-24,26-28H,8H2" "license=License CC-BY-NC-SA 4.0 International" "author=Plant Biology, The Noble Foundation, Ardmore, OK, US/Dennis Fine, Daniel Wherritt, and Lloyd Sumner" "ionization=ESI" "isolation width=5" "collision gas=Nitrogen" "peak width=0.014" "date=2014-01-04 11:22:09+01:00" "column=Waters Acquity BEH C18 1.7um x 2.1 x 150 mm" "retention time=388.2" "raw data file=C:\Data\Confirmed Standards\Confirmed stds MSMS 2Jan14\Apigenin-7-O-glucoside _MSMS_2412.d" "computed mass accuracy=6.427437440749568" "computed mass error=-0.0027708399999823996" "SPLASH=splash10-014i-0090000000-3a998f4ea3964dd9d677" "submitter=Aiko Barsch (Bruker)" "MoNA Rating=4.545454545454546"
Num Peaks: 8
239.0333 0.600601
240.0405 1.201201
267.0264 0.600601
268.0363 100.000000
269.0414 23.123123
270.0453 3.403403
431.0956 3.803804
432.1018 0.900901


Name: Apigenin-7-O-glucoside
Synon: Apigetrin
Synon: $:00in-source
DB#: MetaboBASE0715
InChIKey: KMOUJOKENFFTPU-QNDFHXLGSA-N
Precursor_type: [M-H]-
Spectrum_type: MS2
PrecursorMZ: 431.1
Instrument_type: LC-ESI-TOF
Instrument: impact HD
Ion_mode: N
Collision_energy: 50
Formula: C21H20O10
MW: 432
ExactMass: 432.10564683999996
Comments: "cas number=578-74-5" "SMILES=c1cc(ccc1c2cc(=O)c3c(cc(cc3o2)O[C@H]4[C@@H]([C@H]([C@@H]([C@H](O4)CO)O)O)O)O)O" "InChI=InChI=1S/C21H20O10/c22-8-16-18(26)19(27)20(28)21(31-16)29-11-5-12(24)17-13(25)7-14(30-15(17)6-11)9-1-3-10(23)4-2-9/h1-7,16,18-24,26-28H,8H2/t16-,18-,19+,20-,21-/m1/s1" "computed SMILES=O=C1C=C(OC2=CC(OC3OC(CO)C(O)C(O)C3O)=CC(O)=C12)C=4C=CC(O)=CC4" "computed InChI=InChI=1S/C21H20O10/c22-8-16-18(26)19(27)20(28)21(31-16)29-11-5-12(24)17-13(25)7-14(30-15(17)6-11)9-1-3-10(23)4-2-9/h1-7,16,18-24,26-28H,8H2" "license=License CC-BY-NC-SA 4.0 International" "author=Plant Biology, The Noble Foundation, Ardmore, OK, US/Dennis Fine, Daniel Wherritt, and Lloyd Sumner" "ionization=ESI" "isolation width=5" "collision gas=Nitrogen" "peak width=0.013" "date=2014-01-04 11:22:09+01:00" "column=Waters Acquity BEH C18 1.7um x 2.1 x 150 mm" "retention time=388.2" "raw data file=C:\Data\Confirmed Standards\Confirmed stds MSMS 2Jan14\Apigenin-7-O-glucoside _MSMS_2412.d" "computed mass accuracy=3.779076780445322" "computed mass error=0.0016291600000499784" "SPLASH=splash10-014i-0090000000-eedd23913ab9497a0eac" "submitter=Aiko Barsch (Bruker)" "MoNA Rating=4.583333333333334"
Num Peaks: 10
117.0342 1.301301
151.0053 1.901902
225.0531 1.001001
239.0332 3.703704
240.0414 6.406406
241.0435 1.601602
267.0306 1.401401
268.0358 100.000000
269.0412 18.718719
270.0446 2.302302


Name: Apigenin-7-O-glucoside
Synon: Apigetrin
Synon: $:00in-source
DB#: MetaboBASE0716
InChIKey: KMOUJOKENFFTPU-QNDFHXLGSA-N
Instrument_type: LC-ESI-TOF
Instrument: impact HD
Ion_mode: N
Formula: C21H20O10
MW: 432
ExactMass: 432.10564683999996
Comments: "cas number=578-74-5" "SMILES=c1cc(ccc1c2cc(=O)c3c(cc(cc3o2)O[C@H]4[C@@H]([C@H]([C@@H]([C@H](O4)CO)O)O)O)O)O" "InChI=InChI=1S/C21H20O10/c22-8-16-18(26)19(27)20(28)21(31-16)29-11-5-12(24)17-13(25)7-14(30-15(17)6-11)9-1-3-10(23)4-2-9/h1-7,16,18-24,26-28H,8H2/t16-,18-,19+,20-,21-/m1/s1" "computed SMILES=O=C1C=C(OC2=CC(OC3OC(CO)C(O)C(O)C3O)=CC(O)=C12)C=4C=CC(O)=CC4" "computed InChI=InChI=1S/C21H20O10/c22-8-16-18(26)19(27)20(28)21(31-16)29-11-5-12(24)17-13(25)7-14(30-15(17)6-11)9-1-3-10(23)4-2-9/h1-7,16,18-24,26-28H,8H2" "license=License CC-BY-NC-SA 4.0 International" "author=Plant Biology, The Noble Foundation, Ardmore, OK, US/Dennis Fine, Daniel Wherritt, and Lloyd Sumner" "ionization=ESI" "collision gas=Nitrogen" "peak width=0.013" "date=2014-01-04 11:22:09+01:00" "column=Waters Acquity BEH C18 1.7um x 2.1 x 150 mm" "retention time=388.2" "raw data file=C:\Data\Confirmed Standards\Confirmed stds MSMS 2Jan14\Apigenin-7-O-glucoside _MSMS_2412.d" "SPLASH=splash10-001i-0000900000-e2260ea719dbee112e94" "submitter=Aiko Barsch (Bruker)" "MoNA Rating=3.888888888888889"
Num Peaks: 12
112.9854 0.800801
431.0966 100.000000
432.0996 19.719720
433.1004 3.303303
499.0837 5.805806
500.0877 1.001001
556.0020 1.001001
567.0696 1.401401
666.0186 3.703704
863.2005 6.206206
864.2050 2.502503
865.2026 0.800801


Name: Apigenin-7-neohesperidoside
Synon: Rhoifolin
Synon: $:00in-source
DB#: MetaboBASE0717
InChIKey: RPMNUQRUHXIGHK-PYXJVEIZSA-N
Precursor_type: [M-H]-
Spectrum_type: MS2
PrecursorMZ: 577.1615
Instrument_type: LC-ESI-TOF
Instrument: impact HD
Ion_mode: N
Collision_energy: 10
Formula: C27H30O14
MW: 578
ExactMass: 578.1635556399999
Comments: "cas number=17306-46-6" "SMILES=C[C@H]1[C@@H]([C@H]([C@H]([C@@H](O1)O[C@@H]2[C@H]([C@@H]([C@H](O[C@H]2Oc3cc(c4c(=O)cc(oc4c3)c5ccc(cc5)O)O)CO)O)O)O)O)O" "InChI=InChI=1S/C27H30O14/c1-10-20(32)22(34)24(36)26(37-10)41-25-23(35)21(33)18(9-28)40-27(25)38-13-6-14(30)19-15(31)8-16(39-17(19)7-13)11-2-4-12(29)5-3-11/h2-8,10,18,20-30,32-36H,9H2,1H3/t10-,18+,20-,21+,22+,23-,24+,25+,26-,27+/m0/s1" "computed SMILES=O=C1C=C(OC2=CC(OC3OC(CO)C(O)C(O)C3OC4OC(C)C(O)C(O)C4O)=CC(O)=C12)C=5C=CC(O)=CC5" "license=License CC-BY-NC-SA 4.0 International" "author=Plant Biology, The Noble Foundation, Ardmore, OK, US/Dennis Fine, Daniel Wherritt, and Lloyd Sumner" "ionization=ESI" "isolation width=5" "collision gas=Nitrogen" "peak width=0.013" "date=2014-01-11 07:21:22+01:00" "column=Waters Acquity BEH C18 1.7um x 2.1 x 150 mm" "retention time=404.4" "raw data file=C:\Data\Confirmed Standards\14Jan10 Confirmed stds MSMS\Apigenin7neohesperidoside_MSMS.d" "computed mass accuracy=9.04488605040415" "computed mass error=0.005220360000180335" "SPLASH=splash10-004i-0000090000-15f767265f6e184ea28f" "submitter=Aiko Barsch (Bruker)" "MoNA Rating=4.545454545454546"
Num Peaks: 4
386.8570 5.305305
577.1615 100.000000
578.1662 25.125125
579.1628 5.405405


Name: Apigenin-7-neohesperidoside
Synon: Rhoifolin
Synon: $:00in-source
DB#: MetaboBASE0718
InChIKey: RPMNUQRUHXIGHK-PYXJVEIZSA-N
Precursor_type: [M-H]-
Spectrum_type: MS2
PrecursorMZ: 577.161
Instrument_type: LC-ESI-TOF
Instrument: impact HD
Ion_mode: N
Collision_energy: 20
Formula: C27H30O14
MW: 578
ExactMass: 578.1635556399999
Comments: "cas number=17306-46-6" "SMILES=C[C@H]1[C@@H]([C@H]([C@H]([C@@H](O1)O[C@@H]2[C@H]([C@@H]([C@H](O[C@H]2Oc3cc(c4c(=O)cc(oc4c3)c5ccc(cc5)O)O)CO)O)O)O)O)O" "InChI=InChI=1S/C27H30O14/c1-10-20(32)22(34)24(36)26(37-10)41-25-23(35)21(33)18(9-28)40-27(25)38-13-6-14(30)19-15(31)8-16(39-17(19)7-13)11-2-4-12(29)5-3-11/h2-8,10,18,20-30,32-36H,9H2,1H3/t10-,18+,20-,21+,22+,23-,24+,25+,26-,27+/m0/s1" "computed SMILES=O=C1C=C(OC2=CC(OC3OC(CO)C(O)C(O)C3OC4OC(C)C(O)C(O)C4O)=CC(O)=C12)C=5C=CC(O)=CC5" "license=License CC-BY-NC-SA 4.0 International" "author=Plant Biology, The Noble Foundation, Ardmore, OK, US/Dennis Fine, Daniel Wherritt, and Lloyd Sumner" "ionization=ESI" "isolation width=5" "collision gas=Nitrogen" "peak width=0.012" "date=2014-01-11 07:21:22+01:00" "column=Waters Acquity BEH C18 1.7um x 2.1 x 150 mm" "retention time=404.4" "raw data file=C:\Data\Confirmed Standards\14Jan10 Confirmed stds MSMS\Apigenin7neohesperidoside_MSMS.d" "computed mass accuracy=8.178584485227645" "computed mass error=0.004720360000078472" "SPLASH=splash10-004i-0000090000-6fcd226ab5a5c4f22e10" "submitter=Aiko Barsch (Bruker)" "MoNA Rating=4.545454545454546"
Num Peaks: 5
269.0482 9.209209
577.1610 100.000000
578.1642 42.542543
579.1682 9.509510
1200.8192 5.205205


Name: Apigenin-7-neohesperidoside
Synon: Rhoifolin
Synon: $:00in-source
DB#: MetaboBASE0719
InChIKey: RPMNUQRUHXIGHK-PYXJVEIZSA-N
Instrument_type: LC-ESI-TOF
Instrument: impact HD
Ion_mode: N
Formula: C27H30O14
MW: 578
ExactMass: 578.1635556399999
Comments: "cas number=17306-46-6" "SMILES=C[C@H]1[C@@H]([C@H]([C@H]([C@@H](O1)O[C@@H]2[C@H]([C@@H]([C@H](O[C@H]2Oc3cc(c4c(=O)cc(oc4c3)c5ccc(cc5)O)O)CO)O)O)O)O)O" "InChI=InChI=1S/C27H30O14/c1-10-20(32)22(34)24(36)26(37-10)41-25-23(35)21(33)18(9-28)40-27(25)38-13-6-14(30)19-15(31)8-16(39-17(19)7-13)11-2-4-12(29)5-3-11/h2-8,10,18,20-30,32-36H,9H2,1H3/t10-,18+,20-,21+,22+,23-,24+,25+,26-,27+/m0/s1" "computed SMILES=O=C1C=C(OC2=CC(OC3OC(CO)C(O)C(O)C3OC4OC(C)C(O)C(O)C4O)=CC(O)=C12)C=5C=CC(O)=CC5" "license=License CC-BY-NC-SA 4.0 International" "author=Plant Biology, The Noble Foundation, Ardmore, OK, US/Dennis Fine, Daniel Wherritt, and Lloyd Sumner" "ionization=ESI" "collision gas=Nitrogen" "peak width=0.012" "date=2014-01-04 07:58:30+01:00" "column=Waters Acquity BEH C18 1.7um x 2.1 x 150 mm" "retention time=404.4" "raw data file=C:\Data\Confirmed Standards\Confirmed stds MSMS 2Jan14\Apigenin7neohesperidoside_MSMS_2407.d" "SPLASH=splash10-004i-0000092000-fe08120bacfe47df17f2" "submitter=Aiko Barsch (Bruker)" "MoNA Rating=3.888888888888889"
Num Peaks: 20
556.0019 1.201201
577.1575 100.000000
577.6571 7.607608
578.1609 23.523524
579.1619 3.603604
623.1633 14.214214
624.1661 4.204204
625.1675 1.201201
645.1440 5.705706
646.1495 1.601602
666.0197 4.404404
691.1501 2.102102
695.0922 1.501502
866.2382 5.205205
866.7349 4.504505
867.2427 2.202202
867.7396 1.001001
1155.3215 1.801802
1155.8148 1.501502
1156.3185 1.301301


Name: Apigenin-7-neohesperidoside
Synon: Rhoifolin
Synon: $:00in-source
DB#: MetaboBASE0720
InChIKey: RPMNUQRUHXIGHK-PYXJVEIZSA-N
Precursor_type: [M-H]-
Spectrum_type: MS2
PrecursorMZ: 577.1622
Instrument_type: LC-ESI-TOF
Instrument: impact HD
Ion_mode: N
Collision_energy: 30
Formula: C27H30O14
MW: 578
ExactMass: 578.16355564
Comments: "cas number=17306-46-6" "SMILES=C[C@H]1[C@@H]([C@H]([C@H]([C@@H](O1)O[C@@H]2[C@H]([C@@H]([C@H](O[C@H]2Oc3cc(c4c(=O)cc(oc4c3)c5ccc(cc5)O)O)CO)O)O)O)O)O" "InChI=InChI=1S/C27H30O14/c1-10-20(32)22(34)24(36)26(37-10)41-25-23(35)21(33)18(9-28)40-27(25)38-13-6-14(30)19-15(31)8-16(39-17(19)7-13)11-2-4-12(29)5-3-11/h2-8,10,18,20-30,32-36H,9H2,1H3/t10-,18+,20-,21+,22+,23-,24+,25+,26-,27+/m0/s1" "computed SMILES=O=C1C=C(OC2=CC(OC3OC(CO)C(O)C(O)C3OC4OC(C)C(O)C(O)C4O)=CC(O)=C12)C=5C=CC(O)=CC5" "license=License CC-BY-NC-SA 4.0 International" "author=Plant Biology, The Noble Foundation, Ardmore, OK, US/Dennis Fine, Daniel Wherritt, and Lloyd Sumner" "ionization=ESI" "isolation width=5" "collision gas=Nitrogen" "peak width=0.015" "date=2014-01-11 07:21:22+01:00" "column=Waters Acquity BEH C18 1.7um x 2.1 x 150 mm" "retention time=404.4" "raw data file=C:\Data\Confirmed Standards\14Jan10 Confirmed stds MSMS\Apigenin7neohesperidoside_MSMS.d" "computed mass accuracy=10.257705719474735" "computed mass error=0.005920360000004621" "SPLASH=splash10-00or-0050090000-628bb867fd8508d3f6e4" "submitter=Aiko Barsch (Bruker)" "MoNA Rating=4.545454545454546"
Num Peaks: 5
269.0483 76.776777
270.0482 9.709710
577.1622 100.000000
578.1669 38.838839
579.1631 10.710711


Name: Apigenin-7-neohesperidoside
Synon: Rhoifolin
Synon: $:00in-source
DB#: MetaboBASE0721
InChIKey: RPMNUQRUHXIGHK-PYXJVEIZSA-N
Precursor_type: [M-H]-
Spectrum_type: MS2
PrecursorMZ: 577.1603
Instrument_type: LC-ESI-TOF
Instrument: impact HD
Ion_mode: N
Collision_energy: 40
Formula: C27H30O14
MW: 578
ExactMass: 578.16355564
Comments: "cas number=17306-46-6" "SMILES=C[C@H]1[C@@H]([C@H]([C@H]([C@@H](O1)O[C@@H]2[C@H]([C@@H]([C@H](O[C@H]2Oc3cc(c4c(=O)cc(oc4c3)c5ccc(cc5)O)O)CO)O)O)O)O)O" "InChI=InChI=1S/C27H30O14/c1-10-20(32)22(34)24(36)26(37-10)41-25-23(35)21(33)18(9-28)40-27(25)38-13-6-14(30)19-15(31)8-16(39-17(19)7-13)11-2-4-12(29)5-3-11/h2-8,10,18,20-30,32-36H,9H2,1H3/t10-,18+,20-,21+,22+,23-,24+,25+,26-,27+/m0/s1" "computed SMILES=O=C1C=C(OC2=CC(OC3OC(CO)C(O)C(O)C3OC4OC(C)C(O)C(O)C4O)=CC(O)=C12)C=5C=CC(O)=CC5" "license=License CC-BY-NC-SA 4.0 International" "author=Plant Biology, The Noble Foundation, Ardmore, OK, US/Dennis Fine, Daniel Wherritt, and Lloyd Sumner" "ionization=ESI" "isolation width=5" "collision gas=Nitrogen" "peak width=0.015" "date=2014-01-11 07:21:22+01:00" "column=Waters Acquity BEH C18 1.7um x 2.1 x 150 mm" "retention time=404.4" "raw data file=C:\Data\Confirmed Standards\14Jan10 Confirmed stds MSMS\Apigenin7neohesperidoside_MSMS.d" "computed mass accuracy=6.965759772504818" "computed mass error=0.0040203600000268125" "SPLASH=splash10-014i-0090000000-8afbcb85ff2819e996d8" "submitter=Aiko Barsch (Bruker)" "MoNA Rating=4.545454545454546"
Num Peaks: 6
268.0409 7.307307
269.0480 100.000000
270.0518 15.715716
271.0594 2.502503
577.1603 10.510511
578.1686 3.303303


Name: Apigenin-7-neohesperidoside
Synon: Rhoifolin
Synon: $:00in-source
DB#: MetaboBASE0722
InChIKey: RPMNUQRUHXIGHK-PYXJVEIZSA-N
Instrument_type: LC-ESI-TOF
Instrument: impact HD
Ion_mode: N
Formula: C27H30O14
MW: 578
ExactMass: 578.1635556399999
Comments: "cas number=17306-46-6" "SMILES=C[C@H]1[C@@H]([C@H]([C@H]([C@@H](O1)O[C@@H]2[C@H]([C@@H]([C@H](O[C@H]2Oc3cc(c4c(=O)cc(oc4c3)c5ccc(cc5)O)O)CO)O)O)O)O)O" "InChI=InChI=1S/C27H30O14/c1-10-20(32)22(34)24(36)26(37-10)41-25-23(35)21(33)18(9-28)40-27(25)38-13-6-14(30)19-15(31)8-16(39-17(19)7-13)11-2-4-12(29)5-3-11/h2-8,10,18,20-30,32-36H,9H2,1H3/t10-,18+,20-,21+,22+,23-,24+,25+,26-,27+/m0/s1" "computed SMILES=O=C1C=C(OC2=CC(OC3OC(CO)C(O)C(O)C3OC4OC(C)C(O)C(O)C4O)=CC(O)=C12)C=5C=CC(O)=CC5" "license=License CC-BY-NC-SA 4.0 International" "author=Plant Biology, The Noble Foundation, Ardmore, OK, US/Dennis Fine, Daniel Wherritt, and Lloyd Sumner" "ionization=ESI" "collision gas=Nitrogen" "peak width=0.0092" "date=2014-01-11 07:21:22+01:00" "column=Waters Acquity BEH C18 1.7um x 2.1 x 150 mm" "retention time=404.4" "raw data file=C:\Data\Confirmed Standards\14Jan10 Confirmed stds MSMS\Apigenin7neohesperidoside_MSMS.d" "SPLASH=splash10-016r-0090060000-f9acda844cd242c13410" "submitter=Aiko Barsch (Bruker)" "MoNA Rating=3.888888888888889"
Num Peaks: 6
268.0403 7.207207
269.0485 100.000000
270.0517 11.411411
577.1627 66.366366
578.1661 16.916917
579.1684 2.902903


Name: Acacetin-5-O-xyloside
Synon: $:00in-source
DB#: MetaboBASE0723
InChIKey: NCCOYBTYDAMVTO-ZQEFQCJFSA-N
Precursor_type: [M-H]-
Spectrum_type: MS2
PrecursorMZ: 415.1048
Instrument_type: LC-ESI-TOF
Instrument: impact HD
Ion_mode: N
Collision_energy: 10
Formula: C21H20O9
MW: 416
ExactMass: 416.11073222
Comments: "computed SMILES=O=C1C=C(OC2=CC(O)=CC(OC3OCC(O)C(O)C3O)=C12)C=4C=CC(OC)=CC4" "computed InChI=InChI=1S/C21H20O9/c1-27-12-4-2-10(3-5-12)15-8-13(23)18-16(29-15)6-11(22)7-17(18)30-21-20(26)19(25)14(24)9-28-21/h2-8,14,19-22,24-26H,9H2,1H3/t14-,19+,20-,21+/m1/s1" "license=License CC-BY-NC-SA 4.0 International" "author=Plant Biology, The Noble Foundation, Ardmore, OK, US/Dennis Fine, Daniel Wherritt, and Lloyd Sumner" "ionization=ESI" "isolation width=5" "collision gas=Nitrogen" "peak width=0.011" "date=2014-01-04 05:56:17+01:00" "column=Waters Acquity BEH C18 1.7um x 2.1 x 150 mm" "retention time=623.4" "raw data file=C:\Data\Confirmed Standards\Confirmed stds MSMS 2Jan14\Acacetin-5-O-xyloside v301_MSM_2404.d" "computed mass accuracy=3.2372066042438905" "computed mass error=0.0013437800000133393" "SPLASH=splash10-014i-0000900000-33fcaf8e01c9a99d9a3d" "submitter=Aiko Barsch (Bruker)" "MoNA Rating=4.583333333333334"
Num Peaks: 4
283.0625 1.201201
415.1048 100.000000
416.1073 15.115115
417.1077 2.502503


Name: Acacetin-5-O-xyloside
Synon: $:00in-source
DB#: MetaboBASE0724
InChIKey: NCCOYBTYDAMVTO-ZQEFQCJFSA-N
Precursor_type: [M-H]-
Spectrum_type: MS2
PrecursorMZ: 415.1039
Instrument_type: LC-ESI-TOF
Instrument: impact HD
Ion_mode: N
Collision_energy: 20
Formula: C21H20O9
MW: 416
ExactMass: 416.11073222
Comments: "computed SMILES=O=C1C=C(OC2=CC(O)=CC(OC3OCC(O)C(O)C3O)=C12)C=4C=CC(OC)=CC4" "computed InChI=InChI=1S/C21H20O9/c1-27-12-4-2-10(3-5-12)15-8-13(23)18-16(29-15)6-11(22)7-17(18)30-21-20(26)19(25)14(24)9-28-21/h2-8,14,19-22,24-26H,9H2,1H3/t14-,19+,20-,21+/m1/s1" "license=License CC-BY-NC-SA 4.0 International" "author=Plant Biology, The Noble Foundation, Ardmore, OK, US/Dennis Fine, Daniel Wherritt, and Lloyd Sumner" "ionization=ESI" "isolation width=5" "collision gas=Nitrogen" "peak width=0.012" "date=2014-01-04 05:56:17+01:00" "column=Waters Acquity BEH C18 1.7um x 2.1 x 150 mm" "retention time=623.4" "raw data file=C:\Data\Confirmed Standards\Confirmed stds MSMS 2Jan14\Acacetin-5-O-xyloside v301_MSM_2404.d" "computed mass accuracy=1.0690817407687188" "computed mass error=4.437800000118841E-4" "SPLASH=splash10-014i-0040900000-4b4a94d4a89d1a40e895" "submitter=Aiko Barsch (Bruker)" "MoNA Rating=4.583333333333334"
Num Peaks: 8
268.0381 1.301301
283.0613 42.342342
284.0635 5.905906
285.0670 1.401401
325.0732 0.600601
415.1039 100.000000
416.1080 11.811812
417.1129 1.501502


Name: Acacetin-5-O-xyloside
Synon: $:00in-source
DB#: MetaboBASE0725
InChIKey: NCCOYBTYDAMVTO-ZQEFQCJFSA-N
Precursor_type: [M-H]-
Spectrum_type: MS2
PrecursorMZ: 415.1034
Instrument_type: LC-ESI-TOF
Instrument: impact HD
Ion_mode: N
Collision_energy: 30
Formula: C21H20O9
MW: 416
ExactMass: 416.11073222
Comments: "computed SMILES=O=C1C=C(OC2=CC(O)=CC(OC3OCC(O)C(O)C3O)=C12)C=4C=CC(OC)=CC4" "computed InChI=InChI=1S/C21H20O9/c1-27-12-4-2-10(3-5-12)15-8-13(23)18-16(29-15)6-11(22)7-17(18)30-21-20(26)19(25)14(24)9-28-21/h2-8,14,19-22,24-26H,9H2,1H3/t14-,19+,20-,21+/m1/s1" "license=License CC-BY-NC-SA 4.0 International" "author=Plant Biology, The Noble Foundation, Ardmore, OK, US/Dennis Fine, Daniel Wherritt, and Lloyd Sumner" "ionization=ESI" "isolation width=5" "collision gas=Nitrogen" "peak width=0.011" "date=2014-01-04 05:56:17+01:00" "column=Waters Acquity BEH C18 1.7um x 2.1 x 150 mm" "retention time=623.4" "raw data file=C:\Data\Confirmed Standards\Confirmed stds MSMS 2Jan14\Acacetin-5-O-xyloside v301_MSM_2404.d" "computed mass accuracy=0.13543613465052912" "computed mass error=-5.6219999976292456E-5" "SPLASH=splash10-001i-0090000000-41b2699ae10772c949bb" "submitter=Aiko Barsch (Bruker)" "MoNA Rating=4.615384615384616"
Num Peaks: 13
225.0475 0.500501
239.0700 0.900901
268.0376 8.308308
269.0402 1.601602
282.0511 0.800801
283.0613 100.000000
284.0643 11.311311
285.0645 1.601602
325.0716 1.201201
400.0823 0.900901
415.1034 10.010010
416.1082 1.401401
417.1120 0.400400


Name: Acacetin-5-O-xyloside
Synon: $:00in-source
DB#: MetaboBASE0726
InChIKey: NCCOYBTYDAMVTO-ZQEFQCJFSA-N
Precursor_type: [M-H]-
Spectrum_type: MS2
PrecursorMZ: 415.1041
Instrument_type: LC-ESI-TOF
Instrument: impact HD
Ion_mode: N
Collision_energy: 40
Formula: C21H20O9
MW: 416
ExactMass: 416.11073222
Comments: "computed SMILES=O=C1C=C(OC2=CC(O)=CC(OC3OCC(O)C(O)C3O)=C12)C=4C=CC(OC)=CC4" "computed InChI=InChI=1S/C21H20O9/c1-27-12-4-2-10(3-5-12)15-8-13(23)18-16(29-15)6-11(22)7-17(18)30-21-20(26)19(25)14(24)9-28-21/h2-8,14,19-22,24-26H,9H2,1H3/t14-,19+,20-,21+/m1/s1" "license=License CC-BY-NC-SA 4.0 International" "author=Plant Biology, The Noble Foundation, Ardmore, OK, US/Dennis Fine, Daniel Wherritt, and Lloyd Sumner" "ionization=ESI" "isolation width=5" "collision gas=Nitrogen" "peak width=0.015" "date=2014-01-04 05:56:17+01:00" "column=Waters Acquity BEH C18 1.7um x 2.1 x 150 mm" "retention time=623.4" "raw data file=C:\Data\Confirmed Standards\Confirmed stds MSMS 2Jan14\Acacetin-5-O-xyloside v301_MSM_2404.d" "computed mass accuracy=1.5508880784808519" "computed mass error=6.437800000185234E-4" "SPLASH=splash10-00lr-0090000000-add436eb7d2c1a005621" "submitter=Aiko Barsch (Bruker)" "MoNA Rating=4.583333333333334"
Num Peaks: 16
224.0459 1.801802
239.0344 4.404404
239.0698 3.403403
240.0405 1.501502
252.0407 1.401401
254.0583 1.801802
255.0643 1.301301
267.0285 3.303303
268.0372 75.075075
269.0416 10.010010
270.0428 1.701702
282.0522 2.502503
283.0609 100.000000
284.0648 13.613614
285.0642 1.301301
415.1041 1.001001


Name: Acacetin-5-O-xyloside
Synon: $:00in-source
DB#: MetaboBASE0727
InChIKey: NCCOYBTYDAMVTO-ZQEFQCJFSA-N
Precursor_type: [M-H]-
Spectrum_type: MS2
PrecursorMZ: 415.2
Instrument_type: LC-ESI-TOF
Instrument: impact HD
Ion_mode: N
Collision_energy: 50
Formula: C21H20O9
MW: 416
ExactMass: 416.11073222
Comments: "computed SMILES=O=C1C=C(OC2=CC(O)=CC(OC3OCC(O)C(O)C3O)=C12)C=4C=CC(OC)=CC4" "computed InChI=InChI=1S/C21H20O9/c1-27-12-4-2-10(3-5-12)15-8-13(23)18-16(29-15)6-11(22)7-17(18)30-21-20(26)19(25)14(24)9-28-21/h2-8,14,19-22,24-26H,9H2,1H3/t14-,19+,20-,21+/m1/s1" "license=License CC-BY-NC-SA 4.0 International" "author=Plant Biology, The Noble Foundation, Ardmore, OK, US/Dennis Fine, Daniel Wherritt, and Lloyd Sumner" "ionization=ESI" "isolation width=5" "collision gas=Nitrogen" "peak width=0.015" "date=2014-01-04 05:56:17+01:00" "column=Waters Acquity BEH C18 1.7um x 2.1 x 150 mm" "retention time=623.4" "raw data file=C:\Data\Confirmed Standards\Confirmed stds MSMS 2Jan14\Acacetin-5-O-xyloside v301_MSM_2404.d" "computed mass accuracy=232.52355491327174" "computed mass error=0.09654377999999042" "SPLASH=splash10-014i-0090000000-f2ba2160614419b387cb" "submitter=Aiko Barsch (Bruker)" "MoNA Rating=4.545454545454546"
Num Peaks: 12
151.0039 1.401401
224.0471 3.103103
239.0336 13.013013
239.0690 4.504505
240.0414 4.604605
254.0547 1.201201
267.0290 9.909910
268.0375 100.000000
269.0410 16.516517
270.0475 1.201201
283.0608 21.321321
284.0635 3.003003


Name: Acacetin-5-O-xyloside
Synon: $:00in-source
DB#: MetaboBASE0728
InChIKey: NCCOYBTYDAMVTO-ZQEFQCJFSA-N
Instrument_type: LC-ESI-TOF
Instrument: impact HD
Ion_mode: N
Formula: C21H20O9
MW: 416
ExactMass: 416.11073222
Comments: "computed SMILES=O=C1C=C(OC2=CC(O)=CC(OC3OCC(O)C(O)C3O)=C12)C=4C=CC(OC)=CC4" "computed InChI=InChI=1S/C21H20O9/c1-27-12-4-2-10(3-5-12)15-8-13(23)18-16(29-15)6-11(22)7-17(18)30-21-20(26)19(25)14(24)9-28-21/h2-8,14,19-22,24-26H,9H2,1H3/t14-,19+,20-,21+/m1/s1" "license=License CC-BY-NC-SA 4.0 International" "author=Plant Biology, The Noble Foundation, Ardmore, OK, US/Dennis Fine, Daniel Wherritt, and Lloyd Sumner" "ionization=ESI" "collision gas=Nitrogen" "peak width=0.014" "date=2014-01-04 05:56:17+01:00" "column=Waters Acquity BEH C18 1.7um x 2.1 x 150 mm" "retention time=623.4" "raw data file=C:\Data\Confirmed Standards\Confirmed stds MSMS 2Jan14\Acacetin-5-O-xyloside v301_MSM_2404.d" "SPLASH=splash10-014i-0000900010-d52ae8e0a209847a9693" "submitter=Aiko Barsch (Bruker)" "MoNA Rating=3.888888888888889"
Num Peaks: 15
116.9288 0.900901
415.1046 100.000000
416.1078 17.417417
417.1095 2.402402
483.0902 5.605606
484.0938 0.900901
551.0755 1.101101
666.0206 7.207207
667.0241 1.001001
831.2141 17.517518
832.2174 6.506507
833.2206 1.801802
899.1977 0.900901
1247.3203 2.302302
1248.3274 1.301301


Name: 3,7,4'-Trihydroxyflavone
Synon: 5-Deoxykampferol
Synon: $:00in-source
DB#: MetaboBASE0729
InChIKey: OBWHQJYOOCRPST-UHFFFAOYSA-N
Precursor_type: [M-H]-
Spectrum_type: MS2
PrecursorMZ: 269
Instrument_type: LC-ESI-TOF
Instrument: impact HD
Ion_mode: N
Collision_energy: 40
Formula: C15H10O5
MW: 270
ExactMass: 270.05282342
Comments: "cas number=2034-65-3" "SMILES=c1cc(ccc1c2c(c(=O)c3ccc(cc3o2)O)O)O" "InChI=InChI=1S/C15H10O5/c16-9-3-1-8(2-4-9)15-14(19)13(18)11-6-5-10(17)7-12(11)20-15/h1-7,16-17,19H" "computed SMILES=O=C1C(O)=C(OC2=CC(O)=CC=C12)C=3C=CC(O)=CC3" "license=License CC-BY-NC-SA 4.0 International" "author=Plant Biology, The Noble Foundation, Ardmore, OK, US/Dennis Fine, Daniel Wherritt, and Lloyd Sumner" "ionization=ESI" "isolation width=5" "collision gas=Nitrogen" "peak width=0.012" "date=2014-01-04 17:28:45+01:00" "column=Waters Acquity BEH C18 1.7um x 2.1 x 150 mm" "retention time=478.2" "raw data file=C:\Data\Confirmed Standards\Confirmed stds MSMS 2Jan14\374'Trihydroxyflavone _MSMS.d" "computed mass accuracy=169.32126394048785" "computed mass error=-0.045547419999991234" "SPLASH=splash10-00di-0190000000-bd42fd151c5c65b10c8c" "submitter=Aiko Barsch (Bruker)" "MoNA Rating=4.545454545454546"
Num Peaks: 5
195.0488 36.936937
211.0405 49.149149
223.0409 100.000000
224.0477 61.761762
239.0332 51.251251


Name: 3,7,4'-Trihydroxyflavone
Synon: 5-Deoxykampferol
Synon: $:00in-source
DB#: MetaboBASE0730
InChIKey: OBWHQJYOOCRPST-UHFFFAOYSA-N
Precursor_type: [M-H]-
Spectrum_type: MS2
PrecursorMZ: 269.0444
Instrument_type: LC-ESI-TOF
Instrument: impact HD
Ion_mode: N
Collision_energy: 10
Formula: C15H10O5
MW: 270
ExactMass: 270.05282342
Comments: "cas number=2034-65-3" "SMILES=c1cc(ccc1c2c(c(=O)c3ccc(cc3o2)O)O)O" "InChI=InChI=1S/C15H10O5/c16-9-3-1-8(2-4-9)15-14(19)13(18)11-6-5-10(17)7-12(11)20-15/h1-7,16-17,19H" "computed SMILES=O=C1C(O)=C(OC2=CC(O)=CC=C12)C=3C=CC(O)=CC3" "license=License CC-BY-NC-SA 4.0 International" "author=Plant Biology, The Noble Foundation, Ardmore, OK, US/Dennis Fine, Daniel Wherritt, and Lloyd Sumner" "ionization=ESI" "isolation width=5" "collision gas=Nitrogen" "peak width=0.015" "date=2014-01-04 17:28:45+01:00" "column=Waters Acquity BEH C18 1.7um x 2.1 x 150 mm" "retention time=478.2" "raw data file=C:\Data\Confirmed Standards\Confirmed stds MSMS 2Jan14\374'Trihydroxyflavone _MSMS.d" "computed mass accuracy=4.264797929246014" "computed mass error=-0.0011474199999952361" "SPLASH=splash10-014i-0090000000-0b575ed6e01323396383" "submitter=Aiko Barsch (Bruker)" "MoNA Rating=4.583333333333334"
Num Peaks: 3
269.0444 100.000000
270.0476 12.612613
271.0469 1.701702


Name: 3,7,4'-Trihydroxyflavone
Synon: 5-Deoxykampferol
Synon: $:00in-source
DB#: MetaboBASE0731
InChIKey: OBWHQJYOOCRPST-UHFFFAOYSA-N
Precursor_type: [M-H]-
Spectrum_type: MS2
PrecursorMZ: 269.0408
Instrument_type: LC-ESI-TOF
Instrument: impact HD
Ion_mode: N
Collision_energy: 20
Formula: C15H10O5
MW: 270
ExactMass: 270.05282342
Comments: "cas number=2034-65-3" "SMILES=c1cc(ccc1c2c(c(=O)c3ccc(cc3o2)O)O)O" "InChI=InChI=1S/C15H10O5/c16-9-3-1-8(2-4-9)15-14(19)13(18)11-6-5-10(17)7-12(11)20-15/h1-7,16-17,19H" "computed SMILES=O=C1C(O)=C(OC2=CC(O)=CC=C12)C=3C=CC(O)=CC3" "license=License CC-BY-NC-SA 4.0 International" "author=Plant Biology, The Noble Foundation, Ardmore, OK, US/Dennis Fine, Daniel Wherritt, and Lloyd Sumner" "ionization=ESI" "isolation width=5" "collision gas=Nitrogen" "peak width=0.014" "date=2014-01-04 17:28:45+01:00" "column=Waters Acquity BEH C18 1.7um x 2.1 x 150 mm" "retention time=478.2" "raw data file=C:\Data\Confirmed Standards\Confirmed stds MSMS 2Jan14\374'Trihydroxyflavone _MSMS.d" "computed mass accuracy=17.645725109355375" "computed mass error=-0.004747420000001057" "SPLASH=splash10-014i-0090000000-1d425fce1f63dc47da17" "submitter=Aiko Barsch (Bruker)" "MoNA Rating=4.545454545454546"
Num Peaks: 5
224.0447 1.701702
239.0320 2.302302
269.0408 100.000000
270.0436 10.410410
271.0444 2.302302


Name: 3,7,4'-Trihydroxyflavone
Synon: 5-Deoxykampferol
Synon: $:00in-source
DB#: MetaboBASE0732
InChIKey: OBWHQJYOOCRPST-UHFFFAOYSA-N
Precursor_type: [M-H]-
Spectrum_type: MS2
PrecursorMZ: 269.0439
Instrument_type: LC-ESI-TOF
Instrument: impact HD
Ion_mode: N
Collision_energy: 30
Formula: C15H10O5
MW: 270
ExactMass: 270.05282342
Comments: "cas number=2034-65-3" "SMILES=c1cc(ccc1c2c(c(=O)c3ccc(cc3o2)O)O)O" "InChI=InChI=1S/C15H10O5/c16-9-3-1-8(2-4-9)15-14(19)13(18)11-6-5-10(17)7-12(11)20-15/h1-7,16-17,19H" "computed SMILES=O=C1C(O)=C(OC2=CC(O)=CC=C12)C=3C=CC(O)=CC3" "license=License CC-BY-NC-SA 4.0 International" "author=Plant Biology, The Noble Foundation, Ardmore, OK, US/Dennis Fine, Daniel Wherritt, and Lloyd Sumner" "ionization=ESI" "isolation width=5" "collision gas=Nitrogen" "peak width=0.015" "date=2014-01-04 17:28:45+01:00" "column=Waters Acquity BEH C18 1.7um x 2.1 x 150 mm" "retention time=478.2" "raw data file=C:\Data\Confirmed Standards\Confirmed stds MSMS 2Jan14\374'Trihydroxyflavone _MSMS.d" "computed mass accuracy=6.123238623820918" "computed mass error=-0.0016474199999834127" "SPLASH=splash10-01b9-0090000000-bfa2b00522d21af7ec25" "submitter=Aiko Barsch (Bruker)" "MoNA Rating=4.545454545454546"
Num Peaks: 9
121.0300 6.806807
197.0598 6.606607
223.0404 18.918919
224.0479 30.030030
239.0333 11.711712
240.0420 7.507508
252.0387 9.009009
269.0439 100.000000
270.0468 14.314314


Name: 3,7,4'-Trihydroxyflavone
Synon: 5-Deoxykampferol
Synon: $:00in-source
DB#: MetaboBASE0733
InChIKey: OBWHQJYOOCRPST-UHFFFAOYSA-N
Instrument_type: LC-ESI-TOF
Instrument: impact HD
Ion_mode: N
Formula: C15H10O5
MW: 270
ExactMass: 270.05282342
Comments: "cas number=2034-65-3" "SMILES=c1cc(ccc1c2c(c(=O)c3ccc(cc3o2)O)O)O" "InChI=InChI=1S/C15H10O5/c16-9-3-1-8(2-4-9)15-14(19)13(18)11-6-5-10(17)7-12(11)20-15/h1-7,16-17,19H" "computed SMILES=O=C1C(O)=C(OC2=CC(O)=CC=C12)C=3C=CC(O)=CC3" "license=License CC-BY-NC-SA 4.0 International" "author=Plant Biology, The Noble Foundation, Ardmore, OK, US/Dennis Fine, Daniel Wherritt, and Lloyd Sumner" "ionization=ESI" "collision gas=Nitrogen" "peak width=0.015" "date=2014-01-04 17:28:45+01:00" "column=Waters Acquity BEH C18 1.7um x 2.1 x 150 mm" "retention time=478.2" "raw data file=C:\Data\Confirmed Standards\Confirmed stds MSMS 2Jan14\374'Trihydroxyflavone _MSMS.d" "SPLASH=splash10-014i-0090000000-e18e2a9b8ec8bedec0a2" "submitter=Aiko Barsch (Bruker)" "MoNA Rating=3.888888888888889"
Num Peaks: 18
235.9262 1.001001
242.9431 0.700701
257.0443 3.603604
267.0286 2.702703
269.0444 100.000000
270.0479 12.112112
271.0492 1.501502
285.0390 29.829830
286.0421 5.005005
287.0444 0.700701
331.0441 2.102102
337.0300 1.601602
353.0256 0.800801
539.0975 1.801802
555.0927 1.401401
571.0884 2.402402
572.0929 1.101101
666.0183 1.901902


Name: 3',4',7-Trihydroxyisoflavone
Synon: $:00in-source
DB#: MetaboBASE0734
InChIKey: DDKGKOOLFLYZDL-UHFFFAOYSA-N
Precursor_type: [M-H]-
Spectrum_type: MS2
PrecursorMZ: 269
Instrument_type: LC-ESI-TOF
Instrument: impact HD
Ion_mode: N
Collision_energy: 40
Formula: C15H10O5
MW: 270
ExactMass: 270.05282342
Comments: "cas number=485-63-2" "SMILES=c1cc(c(cc1c2coc3cc(ccc3c2=O)O)O)O" "InChI=InChI=1S/C15H10O5/c16-9-2-3-10-14(6-9)20-7-11(15(10)19)8-1-4-12(17)13(18)5-8/h1-7,16-18H" "computed SMILES=O=C1C(=COC2=CC(O)=CC=C12)C=3C=CC(O)=C(O)C3" "license=License CC-BY-NC-SA 4.0 International" "author=Plant Biology, The Noble Foundation, Ardmore, OK, US/Dennis Fine, Daniel Wherritt, and Lloyd Sumner" "ionization=ESI" "isolation width=5" "collision gas=Nitrogen" "peak width=0.013" "date=2014-01-05 03:39:43+01:00" "column=Waters Acquity BEH C18 1.7um x 2.1 x 150 mm" "retention time=362.4" "raw data file=C:\Data\Confirmed Standards\Confirmed stds MSMS 2Jan14\73'4'Trihydroxyisoflavone_MSMS.d" "computed mass accuracy=169.32126394048785" "computed mass error=-0.045547419999991234" "SPLASH=splash10-01p9-0490000000-c781897b2ad783232f71" "submitter=Aiko Barsch (Bruker)" "MoNA Rating=4.545454545454546"
Num Peaks: 10
119.0129 58.358358
135.0076 80.980981
195.0415 41.241241
211.0394 69.969970
213.0536 40.540541
223.0396 49.149149
224.0496 41.241241
225.0520 37.637638
226.0213 35.335335
239.0330 100.000000


Name: 3',4',7-Trihydroxyisoflavone
Synon: $:00in-source
DB#: MetaboBASE0735
InChIKey: DDKGKOOLFLYZDL-UHFFFAOYSA-N
Instrument_type: LC-ESI-TOF
Instrument: impact HD
Ion_mode: N
Formula: C15H10O5
MW: 270
ExactMass: 270.05282342
Comments: "cas number=485-63-2" "SMILES=c1cc(c(cc1c2coc3cc(ccc3c2=O)O)O)O" "InChI=InChI=1S/C15H10O5/c16-9-2-3-10-14(6-9)20-7-11(15(10)19)8-1-4-12(17)13(18)5-8/h1-7,16-18H" "computed SMILES=O=C1C(=COC2=CC(O)=CC=C12)C=3C=CC(O)=C(O)C3" "license=License CC-BY-NC-SA 4.0 International" "author=Plant Biology, The Noble Foundation, Ardmore, OK, US/Dennis Fine, Daniel Wherritt, and Lloyd Sumner" "ionization=ESI" "collision gas=Nitrogen" "peak width=0.012" "date=2014-01-05 03:39:43+01:00" "column=Waters Acquity BEH C18 1.7um x 2.1 x 150 mm" "retention time=362.4" "raw data file=C:\Data\Confirmed Standards\Confirmed stds MSMS 2Jan14\73'4'Trihydroxyisoflavone_MSMS.d" "SPLASH=splash10-014i-0090000000-fed2e6e8e1cde5241ea2" "submitter=Aiko Barsch (Bruker)" "MoNA Rating=3.888888888888889"
Num Peaks: 17
235.9259 1.701702
239.0340 1.901902
242.9433 1.101101
248.9591 1.001001
267.0295 100.000000
268.0328 12.912913
269.0452 89.189189
270.0486 11.211211
271.0518 1.701702
283.0246 1.201201
285.0406 2.402402
337.0335 2.502503
535.0663 3.403403
536.0679 1.301301
537.0804 1.401401
539.0949 2.002002
666.0178 1.501502


Name: 3',4',7-Trihydroxyisoflavone
Synon: $:00in-source
DB#: MetaboBASE0736
InChIKey: DDKGKOOLFLYZDL-UHFFFAOYSA-N
Precursor_type: [M-H]-
Spectrum_type: MS2
PrecursorMZ: 269.0458
Instrument_type: LC-ESI-TOF
Instrument: impact HD
Ion_mode: N
Collision_energy: 30
Formula: C15H10O5
MW: 270
ExactMass: 270.05282342
Comments: "cas number=485-63-2" "SMILES=c1cc(c(cc1c2coc3cc(ccc3c2=O)O)O)O" "InChI=InChI=1S/C15H10O5/c16-9-2-3-10-14(6-9)20-7-11(15(10)19)8-1-4-12(17)13(18)5-8/h1-7,16-18H" "computed SMILES=O=C1C(=COC2=CC(O)=CC=C12)C=3C=CC(O)=C(O)C3" "license=License CC-BY-NC-SA 4.0 International" "author=Plant Biology, The Noble Foundation, Ardmore, OK, US/Dennis Fine, Daniel Wherritt, and Lloyd Sumner" "ionization=ESI" "isolation width=5" "collision gas=Nitrogen" "peak width=0.014" "date=2014-01-05 03:39:43+01:00" "column=Waters Acquity BEH C18 1.7um x 2.1 x 150 mm" "retention time=362.4" "raw data file=C:\Data\Confirmed Standards\Confirmed stds MSMS 2Jan14\73'4'Trihydroxyisoflavone_MSMS.d" "computed mass accuracy=0.9387992676131559" "computed mass error=2.525799999943956E-4" "SPLASH=splash10-000l-0090000000-19a30ebdf377ccbe424b" "submitter=Aiko Barsch (Bruker)" "MoNA Rating=4.615384615384616"
Num Peaks: 17
133.0284 7.307307
135.0074 15.215215
211.0385 12.812813
213.0541 17.717718
223.0389 6.906907
224.0458 6.906907
225.0570 8.908909
226.0259 14.114114
239.0335 100.000000
240.0397 19.819820
241.0497 39.739740
242.0522 6.906907
252.0428 7.607608
268.0355 8.908909
269.0458 52.052052
270.0461 8.708709
294.1682 5.605606


Name: 3',4',7-Trihydroxyisoflavone
Synon: $:00in-source
DB#: MetaboBASE0737
InChIKey: DDKGKOOLFLYZDL-UHFFFAOYSA-N
Precursor_type: [M-H]-
Spectrum_type: MS2
PrecursorMZ: 269.0449
Instrument_type: LC-ESI-TOF
Instrument: impact HD
Ion_mode: N
Collision_energy: 20
Formula: C15H10O5
MW: 270
ExactMass: 270.05282342
Comments: "cas number=485-63-2" "SMILES=c1cc(c(cc1c2coc3cc(ccc3c2=O)O)O)O" "InChI=InChI=1S/C15H10O5/c16-9-2-3-10-14(6-9)20-7-11(15(10)19)8-1-4-12(17)13(18)5-8/h1-7,16-18H" "computed SMILES=O=C1C(=COC2=CC(O)=CC=C12)C=3C=CC(O)=C(O)C3" "license=License CC-BY-NC-SA 4.0 International" "author=Plant Biology, The Noble Foundation, Ardmore, OK, US/Dennis Fine, Daniel Wherritt, and Lloyd Sumner" "ionization=ESI" "isolation width=5" "collision gas=Nitrogen" "peak width=0.014" "date=2014-01-05 03:39:43+01:00" "column=Waters Acquity BEH C18 1.7um x 2.1 x 150 mm" "retention time=362.4" "raw data file=C:\Data\Confirmed Standards\Confirmed stds MSMS 2Jan14\73'4'Trihydroxyisoflavone_MSMS.d" "computed mass accuracy=2.406364142219606" "computed mass error=-6.474200000070596E-4" "SPLASH=splash10-014r-0090000000-37c6f5fc192f20fe028a" "submitter=Aiko Barsch (Bruker)" "MoNA Rating=4.583333333333334"
Num Peaks: 12
213.0526 1.601602
223.0407 2.702703
225.0521 2.702703
226.0265 2.002002
239.0337 71.471471
240.0381 11.111111
241.0507 9.909910
242.0560 2.502503
267.0280 8.408408
269.0449 100.000000
270.0488 11.211211
271.0531 1.801802


Name: 3',4',7-Trihydroxyisoflavone
Synon: $:00in-source
DB#: MetaboBASE0738
InChIKey: DDKGKOOLFLYZDL-UHFFFAOYSA-N
Precursor_type: [M-H]-
Spectrum_type: MS2
PrecursorMZ: 269.0451
Instrument_type: LC-ESI-TOF
Instrument: impact HD
Ion_mode: N
Collision_energy: 10
Formula: C15H10O5
MW: 270
ExactMass: 270.05282342
Comments: "cas number=485-63-2" "SMILES=c1cc(c(cc1c2coc3cc(ccc3c2=O)O)O)O" "InChI=InChI=1S/C15H10O5/c16-9-2-3-10-14(6-9)20-7-11(15(10)19)8-1-4-12(17)13(18)5-8/h1-7,16-18H" "computed SMILES=O=C1C(=COC2=CC(O)=CC=C12)C=3C=CC(O)=C(O)C3" "license=License CC-BY-NC-SA 4.0 International" "author=Plant Biology, The Noble Foundation, Ardmore, OK, US/Dennis Fine, Daniel Wherritt, and Lloyd Sumner" "ionization=ESI" "isolation width=5" "collision gas=Nitrogen" "peak width=0.014" "date=2014-01-05 03:39:43+01:00" "column=Waters Acquity BEH C18 1.7um x 2.1 x 150 mm" "retention time=362.4" "raw data file=C:\Data\Confirmed Standards\Confirmed stds MSMS 2Jan14\73'4'Trihydroxyisoflavone_MSMS.d" "computed mass accuracy=1.6629925614717394" "computed mass error=-4.4742000000042026E-4" "SPLASH=splash10-014i-0090000000-1882606cde229ce00d52" "submitter=Aiko Barsch (Bruker)" "MoNA Rating=4.583333333333334"
Num Peaks: 7
239.0345 11.611612
240.0371 4.104104
267.0294 47.747748
268.0334 7.607608
269.0451 100.000000
270.0483 15.015015
271.0494 2.102102


Name: 5,7-Dimethoxy-4'-hydroxyflavanone
Synon: $:00in-source
DB#: MetaboBASE0739
InChIKey: REBBZOCNEVVAPX-UHFFFAOYSA-N
Instrument_type: LC-ESI-TOF
Instrument: impact HD
Ion_mode: N
Formula: C17H16O5
MW: 300
ExactMass: 300.099773612
Comments: "cas number=26207-67-0" "SMILES=COc1cc2c(c(c1)OC)C(=O)CC(O2)c3ccc(cc3)O" "InChI=InChI=1S/C17H16O5/c1-20-12-7-15(21-2)17-13(19)9-14(22-16(17)8-12)10-3-5-11(18)6-4-10/h3-8,14,18H,9H2,1-2H3" "computed SMILES=O=C1C=2C(OC)=CC(OC)=CC2OC(C3=CC=C(O)C=C3)C1" "license=License CC-BY-NC-SA 4.0 International" "author=Plant Biology, The Noble Foundation, Ardmore, OK, US/Dennis Fine, Daniel Wherritt, and Lloyd Sumner" "ionization=ESI" "collision gas=Nitrogen" "peak width=0.012" "date=2014-01-05 02:58:59+01:00" "column=Waters Acquity BEH C18 1.7um x 2.1 x 150 mm" "retention time=638.4" "raw data file=C:\Data\Confirmed Standards\Confirmed stds MSMS 2Jan14\57Dimethyl4'hydroxyfla_MSMS.d" "SPLASH=splash10-0002-0092000000-3852931919159fd64dee" "submitter=Aiko Barsch (Bruker)" "MoNA Rating=3.888888888888889"
Num Peaks: 21
112.9862 0.800801
174.9570 0.800801
180.9734 0.500501
235.9264 1.601602
239.9029 0.600601
242.9439 1.601602
248.9600 1.601602
299.0919 100.000000
300.0957 16.016016
301.0966 1.801802
304.9138 0.700701
310.9290 1.201201
316.9471 1.001001
335.0683 0.800801
345.0968 6.106106
346.1005 1.001001
378.9157 1.001001
490.0154 0.500501
599.1945 0.900901
655.9920 0.500501
666.0217 3.903904


Name: 5,7-Dimethoxy-4'-hydroxyflavanone
Synon: $:00in-source
DB#: MetaboBASE0740
InChIKey: REBBZOCNEVVAPX-UHFFFAOYSA-N
Precursor_type: [M-H]-
Spectrum_type: MS2
PrecursorMZ: 299.0899
Instrument_type: LC-ESI-TOF
Instrument: impact HD
Ion_mode: N
Collision_energy: 20
Formula: C17H16O5
MW: 300
ExactMass: 300.09977361200004
Comments: "cas number=26207-67-0" "SMILES=COc1cc2c(c(c1)OC)C(=O)CC(O2)c3ccc(cc3)O" "InChI=InChI=1S/C17H16O5/c1-20-12-7-15(21-2)17-13(19)9-14(22-16(17)8-12)10-3-5-11(18)6-4-10/h3-8,14,18H,9H2,1-2H3" "computed SMILES=O=C1C=2C(OC)=CC(OC)=CC2OC(C3=CC=C(O)C=C3)C1" "license=License CC-BY-NC-SA 4.0 International" "author=Plant Biology, The Noble Foundation, Ardmore, OK, US/Dennis Fine, Daniel Wherritt, and Lloyd Sumner" "ionization=ESI" "isolation width=5" "collision gas=Nitrogen" "peak width=0.013" "date=2014-01-05 02:58:59+01:00" "column=Waters Acquity BEH C18 1.7um x 2.1 x 150 mm" "retention time=638.4" "raw data file=C:\Data\Confirmed Standards\Confirmed stds MSMS 2Jan14\57Dimethyl4'hydroxyfla_MSMS.d" "computed mass accuracy=8.685054226321405" "computed mass error=-0.0025976120000450464" "SPLASH=splash10-014i-0900000000-6fa9a328856a35d2cd71" "submitter=Aiko Barsch (Bruker)" "MoNA Rating=4.545454545454546"
Num Peaks: 3
119.0505 100.000000
120.0561 6.806807
299.0899 5.805806


Name: 5,7-Dimethoxy-4'-hydroxyflavanone
Synon: $:00in-source
DB#: MetaboBASE0741
InChIKey: REBBZOCNEVVAPX-UHFFFAOYSA-N
Precursor_type: [M-H]-
Spectrum_type: MS2
PrecursorMZ: 299.0919
Instrument_type: LC-ESI-TOF
Instrument: impact HD
Ion_mode: N
Collision_energy: 10
Formula: C17H16O5
MW: 300
ExactMass: 300.099773612
Comments: "cas number=26207-67-0" "SMILES=COc1cc2c(c(c1)OC)C(=O)CC(O2)c3ccc(cc3)O" "InChI=InChI=1S/C17H16O5/c1-20-12-7-15(21-2)17-13(19)9-14(22-16(17)8-12)10-3-5-11(18)6-4-10/h3-8,14,18H,9H2,1-2H3" "computed SMILES=O=C1C=2C(OC)=CC(OC)=CC2OC(C3=CC=C(O)C=C3)C1" "license=License CC-BY-NC-SA 4.0 International" "author=Plant Biology, The Noble Foundation, Ardmore, OK, US/Dennis Fine, Daniel Wherritt, and Lloyd Sumner" "ionization=ESI" "isolation width=5" "collision gas=Nitrogen" "peak width=0.016" "date=2014-01-05 02:58:59+01:00" "column=Waters Acquity BEH C18 1.7um x 2.1 x 150 mm" "retention time=638.4" "raw data file=C:\Data\Confirmed Standards\Confirmed stds MSMS 2Jan14\57Dimethyl4'hydroxyfla_MSMS.d" "computed mass accuracy=1.9980882129494422" "computed mass error=-5.976119999786533E-4" "SPLASH=splash10-0002-0292000000-7b02008183cad60d255c" "submitter=Aiko Barsch (Bruker)" "MoNA Rating=4.583333333333334"
Num Peaks: 4
119.0510 22.622623
299.0919 100.000000
300.0967 20.320320
301.0937 5.505506


Name: 5,7-Dimethoxy-4'-hydroxyflavanone
Synon: $:00in-source
DB#: MetaboBASE0742
InChIKey: REBBZOCNEVVAPX-UHFFFAOYSA-N
Precursor_type: [M-H]-
Spectrum_type: MS2
PrecursorMZ: 299.1
Instrument_type: LC-ESI-TOF
Instrument: impact HD
Ion_mode: N
Collision_energy: 30
Formula: C17H16O5
MW: 300
ExactMass: 300.099773612
Comments: "cas number=26207-67-0" "SMILES=COc1cc2c(c(c1)OC)C(=O)CC(O2)c3ccc(cc3)O" "InChI=InChI=1S/C17H16O5/c1-20-12-7-15(21-2)17-13(19)9-14(22-16(17)8-12)10-3-5-11(18)6-4-10/h3-8,14,18H,9H2,1-2H3" "computed SMILES=O=C1C=2C(OC)=CC(OC)=CC2OC(C3=CC=C(O)C=C3)C1" "license=License CC-BY-NC-SA 4.0 International" "author=Plant Biology, The Noble Foundation, Ardmore, OK, US/Dennis Fine, Daniel Wherritt, and Lloyd Sumner" "ionization=ESI" "isolation width=5" "collision gas=Nitrogen" "peak width=0.015" "date=2014-01-05 02:58:59+01:00" "column=Waters Acquity BEH C18 1.7um x 2.1 x 150 mm" "retention time=638.4" "raw data file=C:\Data\Confirmed Standards\Confirmed stds MSMS 2Jan14\57Dimethyl4'hydroxyfla_MSMS.d" "computed mass accuracy=25.083209629001814" "computed mass error=0.007502388000034443" "SPLASH=splash10-014i-0900000000-6b2d13150e9cdf9ef70d" "submitter=Aiko Barsch (Bruker)" "MoNA Rating=3.846153846153846"
Num Peaks: 2
119.0507 100.000000
120.0543 8.008008


Name: 5,7-Dimethoxy-4'-hydroxyflavanone
Synon: $:00in-source
DB#: MetaboBASE0743
InChIKey: REBBZOCNEVVAPX-UHFFFAOYSA-N
Precursor_type: [M-H]-
Spectrum_type: MS2
PrecursorMZ: 299.0919
Instrument_type: LC-ESI-TOF
Instrument: impact HD
Ion_mode: N
Collision_energy: 10
Formula: C17H16O5
MW: 300
ExactMass: 300.09977361200004
Comments: "cas number=26207-67-0" "SMILES=COc1cc2c(c(c1)OC)C(=O)CC(O2)c3ccc(cc3)O" "InChI=InChI=1S/C17H16O5/c1-20-12-7-15(21-2)17-13(19)9-14(22-16(17)8-12)10-3-5-11(18)6-4-10/h3-8,14,18H,9H2,1-2H3" "computed SMILES=O=C1C=2C(OC)=CC(OC)=CC2OC(C3=CC=C(O)C=C3)C1" "license=License CC-BY-NC-SA 4.0 International" "author=Plant Biology, The Noble Foundation, Ardmore, OK, US/Dennis Fine, Daniel Wherritt, and Lloyd Sumner" "ionization=ESI" "isolation width=5" "collision gas=Nitrogen" "peak width=0.016" "date=2014-01-05 02:58:59+01:00" "column=Waters Acquity BEH C18 1.7um x 2.1 x 150 mm" "retention time=639" "raw data file=C:\Data\Confirmed Standards\Confirmed stds MSMS 2Jan14\57Dimethyl4'hydroxyfla_MSMS.d" "computed mass accuracy=1.9980882131394957" "computed mass error=-5.976120000354967E-4" "SPLASH=splash10-0002-0292000000-7b02008183cad60d255c" "submitter=Aiko Barsch (Bruker)" "MoNA Rating=4.583333333333334"
Num Peaks: 4
119.0510 22.622623
299.0919 100.000000
300.0967 20.320320
301.0937 5.505506


Name: 5,7-Dimethoxy-4'-hydroxyflavanone
Synon: $:00in-source
DB#: MetaboBASE0744
InChIKey: REBBZOCNEVVAPX-UHFFFAOYSA-N
Precursor_type: [M-H]-
Spectrum_type: MS2
PrecursorMZ: 299.0899
Instrument_type: LC-ESI-TOF
Instrument: impact HD
Ion_mode: N
Collision_energy: 20
Formula: C17H16O5
MW: 300
ExactMass: 300.099773612
Comments: "cas number=26207-67-0" "SMILES=COc1cc2c(c(c1)OC)C(=O)CC(O2)c3ccc(cc3)O" "InChI=InChI=1S/C17H16O5/c1-20-12-7-15(21-2)17-13(19)9-14(22-16(17)8-12)10-3-5-11(18)6-4-10/h3-8,14,18H,9H2,1-2H3" "computed SMILES=O=C1C=2C(OC)=CC(OC)=CC2OC(C3=CC=C(O)C=C3)C1" "license=License CC-BY-NC-SA 4.0 International" "author=Plant Biology, The Noble Foundation, Ardmore, OK, US/Dennis Fine, Daniel Wherritt, and Lloyd Sumner" "ionization=ESI" "isolation width=5" "collision gas=Nitrogen" "peak width=0.013" "date=2014-01-05 02:58:59+01:00" "column=Waters Acquity BEH C18 1.7um x 2.1 x 150 mm" "retention time=639" "raw data file=C:\Data\Confirmed Standards\Confirmed stds MSMS 2Jan14\57Dimethyl4'hydroxyfla_MSMS.d" "computed mass accuracy=8.685054226131351" "computed mass error=-0.002597611999988203" "SPLASH=splash10-014i-0900000000-6fa9a328856a35d2cd71" "submitter=Aiko Barsch (Bruker)" "MoNA Rating=4.545454545454546"
Num Peaks: 3
119.0505 100.000000
120.0561 6.806807
299.0899 5.805806


Name: 5,7-Dimethoxy-4'-hydroxyflavanone
Synon: $:00in-source
DB#: MetaboBASE0745
InChIKey: REBBZOCNEVVAPX-UHFFFAOYSA-N
Instrument_type: LC-ESI-TOF
Instrument: impact HD
Ion_mode: N
Formula: C17H16O5
MW: 300
ExactMass: 300.099773612
Comments: "cas number=26207-67-0" "SMILES=COc1cc2c(c(c1)OC)C(=O)CC(O2)c3ccc(cc3)O" "InChI=InChI=1S/C17H16O5/c1-20-12-7-15(21-2)17-13(19)9-14(22-16(17)8-12)10-3-5-11(18)6-4-10/h3-8,14,18H,9H2,1-2H3" "computed SMILES=O=C1C=2C(OC)=CC(OC)=CC2OC(C3=CC=C(O)C=C3)C1" "license=License CC-BY-NC-SA 4.0 International" "author=Plant Biology, The Noble Foundation, Ardmore, OK, US/Dennis Fine, Daniel Wherritt, and Lloyd Sumner" "ionization=ESI" "collision gas=Nitrogen" "peak width=0.012" "date=2014-01-05 02:58:59+01:00" "column=Waters Acquity BEH C18 1.7um x 2.1 x 150 mm" "retention time=639" "raw data file=C:\Data\Confirmed Standards\Confirmed stds MSMS 2Jan14\57Dimethyl4'hydroxyfla_MSMS.d" "SPLASH=splash10-0002-0092000000-3852931919159fd64dee" "submitter=Aiko Barsch (Bruker)" "MoNA Rating=3.888888888888889"
Num Peaks: 21
112.9862 0.800801
174.9570 0.800801
180.9734 0.500501
235.9264 1.601602
239.9029 0.600601
242.9439 1.601602
248.9600 1.601602
299.0919 100.000000
300.0957 16.016016
301.0966 1.801802
304.9138 0.700701
310.9290 1.201201
316.9471 1.001001
335.0683 0.800801
345.0968 6.106106
346.1005 1.001001
378.9157 1.001001
490.0154 0.500501
599.1945 0.900901
655.9920 0.500501
666.0217 3.903904


Name: 5,4'-Dihydroxy-7-methoxyflavone
Synon: Genkwanin, 7-methoxyapigenin
Synon: $:00in-source
DB#: MetaboBASE0746
InChIKey: JPMYFOBNRRGFNO-UHFFFAOYSA-N
Precursor_type: [M-H]-
Spectrum_type: MS2
PrecursorMZ: 283.0587
Instrument_type: LC-ESI-TOF
Instrument: impact HD
Ion_mode: N
Collision_energy: 20
Formula: C16H12O5
MW: 284
ExactMass: 284.068473484
Comments: "cas number=437-64-9" "SMILES=COc1cc(c2c(=O)cc(oc2c1)c3ccc(cc3)O)O" "InChI=InChI=1S/C16H12O5/c1-20-11-6-12(18)16-13(19)8-14(21-15(16)7-11)9-2-4-10(17)5-3-9/h2-8,17-18H,1H3" "computed SMILES=O=C1C=C(OC=2C=C(OC)C=C(O)C12)C=3C=CC(O)=CC3" "license=License CC-BY-NC-SA 4.0 International" "author=Plant Biology, The Noble Foundation, Ardmore, OK, US/Dennis Fine, Daniel Wherritt, and Lloyd Sumner" "ionization=ESI" "isolation width=5" "collision gas=Nitrogen" "peak width=0.015" "date=2014-01-04 18:09:28+01:00" "column=Waters Acquity BEH C18 1.7um x 2.1 x 150 mm" "retention time=874.8" "raw data file=C:\Data\Confirmed Standards\Confirmed stds MSMS 2Jan14\54'Dihydroxy7methoxyfla_MSMS.d" "computed mass accuracy=8.82320168927051" "computed mass error=-0.0024974840000027143" "SPLASH=splash10-00lr-0090000000-4c3de81663f050010211" "submitter=Aiko Barsch (Bruker)" "MoNA Rating=4.545454545454546"
Num Peaks: 4
268.0357 89.989990
269.0391 13.813814
283.0587 100.000000
284.0612 11.211211


Name: 5,4'-Dihydroxy-7-methoxyflavone
Synon: Genkwanin, 7-methoxyapigenin
Synon: $:00in-source
DB#: MetaboBASE0747
InChIKey: JPMYFOBNRRGFNO-UHFFFAOYSA-N
Precursor_type: [M-H]-
Spectrum_type: MS2
PrecursorMZ: 283.0583
Instrument_type: LC-ESI-TOF
Instrument: impact HD
Ion_mode: N
Collision_energy: 30
Formula: C16H12O5
MW: 284
ExactMass: 284.068473484
Comments: "cas number=437-64-9" "SMILES=COc1cc(c2c(=O)cc(oc2c1)c3ccc(cc3)O)O" "InChI=InChI=1S/C16H12O5/c1-20-11-6-12(18)16-13(19)8-14(21-15(16)7-11)9-2-4-10(17)5-3-9/h2-8,17-18H,1H3" "computed SMILES=O=C1C=C(OC=2C=C(OC)C=C(O)C12)C=3C=CC(O)=CC3" "license=License CC-BY-NC-SA 4.0 International" "author=Plant Biology, The Noble Foundation, Ardmore, OK, US/Dennis Fine, Daniel Wherritt, and Lloyd Sumner" "ionization=ESI" "isolation width=5" "collision gas=Nitrogen" "peak width=0.014" "date=2014-01-04 18:09:28+01:00" "column=Waters Acquity BEH C18 1.7um x 2.1 x 150 mm" "retention time=874.8" "raw data file=C:\Data\Confirmed Standards\Confirmed stds MSMS 2Jan14\54'Dihydroxy7methoxyfla_MSMS.d" "computed mass accuracy=10.2363506034481" "computed mass error=-0.002897484000015993" "SPLASH=splash10-014i-0090000000-a1705d73399beaa8e2ab" "submitter=Aiko Barsch (Bruker)" "MoNA Rating=4.545454545454546"
Num Peaks: 8
117.0350 3.103103
239.0357 6.106106
240.0432 5.105105
267.0276 3.503504
268.0360 100.000000
269.0397 11.011011
270.0383 2.802803
283.0583 9.209209


Name: 5,4'-Dihydroxy-7-methoxyflavone
Synon: Genkwanin, 7-methoxyapigenin
Synon: $:00in-source
DB#: MetaboBASE0748
InChIKey: JPMYFOBNRRGFNO-UHFFFAOYSA-N
Instrument_type: LC-ESI-TOF
Instrument: impact HD
Ion_mode: N
Formula: C16H12O5
MW: 284
ExactMass: 284.068473484
Comments: "cas number=437-64-9" "SMILES=COc1cc(c2c(=O)cc(oc2c1)c3ccc(cc3)O)O" "InChI=InChI=1S/C16H12O5/c1-20-11-6-12(18)16-13(19)8-14(21-15(16)7-11)9-2-4-10(17)5-3-9/h2-8,17-18H,1H3" "computed SMILES=O=C1C=C(OC=2C=C(OC)C=C(O)C12)C=3C=CC(O)=CC3" "license=License CC-BY-NC-SA 4.0 International" "author=Plant Biology, The Noble Foundation, Ardmore, OK, US/Dennis Fine, Daniel Wherritt, and Lloyd Sumner" "ionization=ESI" "collision gas=Nitrogen" "peak width=0.017" "date=2014-01-04 18:09:28+01:00" "column=Waters Acquity BEH C18 1.7um x 2.1 x 150 mm" "retention time=874.8" "raw data file=C:\Data\Confirmed Standards\Confirmed stds MSMS 2Jan14\54'Dihydroxy7methoxyfla_MSMS.d" "SPLASH=splash10-001i-0090000000-b4de09d6b13f8987a7b3" "submitter=Aiko Barsch (Bruker)" "MoNA Rating=3.888888888888889"
Num Peaks: 14
112.9848 0.900901
174.9575 0.500501
235.9271 0.900901
242.9444 1.301301
248.9607 1.601602
283.0595 100.000000
284.0630 14.714715
285.0642 1.501502
310.9297 0.600601
316.9462 0.700701
351.0429 1.101101
378.9163 0.400400
567.1252 0.800801
666.0204 3.303303


Name: 5,4'-Dihydroxy-7-methoxyflavone
Synon: Genkwanin, 7-methoxyapigenin
Synon: $:00in-source
DB#: MetaboBASE0749
InChIKey: JPMYFOBNRRGFNO-UHFFFAOYSA-N
Precursor_type: [M-H]-
Spectrum_type: MS2
PrecursorMZ: 283.0592
Instrument_type: LC-ESI-TOF
Instrument: impact HD
Ion_mode: N
Collision_energy: 10
Formula: C16H12O5
MW: 284
ExactMass: 284.068473484
Comments: "cas number=437-64-9" "SMILES=COc1cc(c2c(=O)cc(oc2c1)c3ccc(cc3)O)O" "InChI=InChI=1S/C16H12O5/c1-20-11-6-12(18)16-13(19)8-14(21-15(16)7-11)9-2-4-10(17)5-3-9/h2-8,17-18H,1H3" "computed SMILES=O=C1C=C(OC=2C=C(OC)C=C(O)C12)C=3C=CC(O)=CC3" "license=License CC-BY-NC-SA 4.0 International" "author=Plant Biology, The Noble Foundation, Ardmore, OK, US/Dennis Fine, Daniel Wherritt, and Lloyd Sumner" "ionization=ESI" "isolation width=5" "collision gas=Nitrogen" "peak width=0.014" "date=2014-01-04 18:09:28+01:00" "column=Waters Acquity BEH C18 1.7um x 2.1 x 150 mm" "retention time=874.8" "raw data file=C:\Data\Confirmed Standards\Confirmed stds MSMS 2Jan14\54'Dihydroxy7methoxyfla_MSMS.d" "computed mass accuracy=7.056771163115482" "computed mass error=-0.0019974840000145377" "SPLASH=splash10-001i-0090000000-761f15526ca32fccbaa8" "submitter=Aiko Barsch (Bruker)" "MoNA Rating=4.545454545454546"
Num Peaks: 5
268.0361 2.302302
269.0339 1.301301
283.0592 100.000000
284.0623 12.712713
285.0626 1.801802


Name: 5,4'-Dihydroxy-7-methoxyflavone
Synon: Genkwanin, 7-methoxyapigenin
Synon: $:00in-source
DB#: MetaboBASE0750
InChIKey: JPMYFOBNRRGFNO-UHFFFAOYSA-N
Precursor_type: [M-H]-
Spectrum_type: MS2
PrecursorMZ: 283.1
Instrument_type: LC-ESI-TOF
Instrument: impact HD
Ion_mode: N
Collision_energy: 40
Formula: C16H12O5
MW: 284
ExactMass: 284.068473484
Comments: "cas number=437-64-9" "SMILES=COc1cc(c2c(=O)cc(oc2c1)c3ccc(cc3)O)O" "InChI=InChI=1S/C16H12O5/c1-20-11-6-12(18)16-13(19)8-14(21-15(16)7-11)9-2-4-10(17)5-3-9/h2-8,17-18H,1H3" "computed SMILES=O=C1C=C(OC=2C=C(OC)C=C(O)C12)C=3C=CC(O)=CC3" "license=License CC-BY-NC-SA 4.0 International" "author=Plant Biology, The Noble Foundation, Ardmore, OK, US/Dennis Fine, Daniel Wherritt, and Lloyd Sumner" "ionization=ESI" "isolation width=5" "collision gas=Nitrogen" "peak width=0.016" "date=2014-01-04 18:09:28+01:00" "column=Waters Acquity BEH C18 1.7um x 2.1 x 150 mm" "retention time=874.8" "raw data file=C:\Data\Confirmed Standards\Confirmed stds MSMS 2Jan14\54'Dihydroxy7methoxyfla_MSMS.d" "computed mass accuracy=137.06293182632453" "computed mass error=0.03880251600003248" "SPLASH=splash10-014i-0290000000-7f0762551fb6c96fab9b" "submitter=Aiko Barsch (Bruker)" "MoNA Rating=4.545454545454546"
Num Peaks: 8
117.0331 33.433433
151.0037 17.117117
211.0397 17.017017
239.0347 31.531532
240.0403 32.332332
267.0269 16.216216
268.0354 100.000000
269.0399 17.717718


Name: 3',4'-Dimethoxy-7-hydroxyflavone
Synon: $:00in-source
DB#: MetaboBASE0751
InChIKey: MEDOAKSPIIOKFU-UHFFFAOYSA-N
Spectrum_type: MS2
PrecursorMZ: 311.0937
Instrument_type: LC-ESI-TOF
Instrument: impact HD
Ion_mode: N
Collision_energy: 6
Formula: C17H14O5
MW: 298
ExactMass: 298.084123548
Comments: "cas number=33513-36-9" "SMILES=COc1ccc(cc1OC)c2cc(=O)c3ccc(cc3o2)O" "InChI=InChI=1S/C17H14O5/c1-20-14-6-3-10(7-17(14)21-2)15-9-13(19)12-5-4-11(18)8-16(12)22-15/h3-9,18H,1-2H3" "computed SMILES=O=C1C=C(OC2=CC(O)=CC=C12)C=3C=CC(OC)=C(OC)C3" "license=License CC-BY-NC-SA 4.0 International" "author=Plant Biology, The Noble Foundation, Ardmore, OK, US/Dennis Fine, Daniel Wherritt, and Lloyd Sumner" "ionization=ESI" "isolation width=5" "collision gas=Nitrogen" "peak width=0.012" "date=2014-01-04 03:13:24+01:00" "column=Waters Acquity BEH C18 1.7um x 2.1 x 150 mm" "retention time=744" "raw data file=C:\Data\Confirmed Standards\Confirmed stds MSMS 2Jan14\34'Dimethoxy7hydroxyflavo_MSMS_2400.d" "SPLASH=splash10-03di-0009000000-0d1bde5bf0d699e6b214" "submitter=Aiko Barsch (Bruker)" "MoNA Rating=3.125"
Num Peaks: 4
296.0693 0.100100
311.0937 100.000000
312.0967 13.213213
313.1001 1.401401


Name: 3',4'-Dimethoxy-7-hydroxyflavone
Synon: $:00in-source
DB#: MetaboBASE0752
InChIKey: MEDOAKSPIIOKFU-UHFFFAOYSA-N
Spectrum_type: MS2
PrecursorMZ: 311.1
Instrument_type: LC-ESI-TOF
Instrument: impact HD
Ion_mode: N
Collision_energy: 40
Formula: C17H14O5
MW: 298
ExactMass: 298.084123548
Comments: "cas number=33513-36-9" "SMILES=COc1ccc(cc1OC)c2cc(=O)c3ccc(cc3o2)O" "InChI=InChI=1S/C17H14O5/c1-20-14-6-3-10(7-17(14)21-2)15-9-13(19)12-5-4-11(18)8-16(12)22-15/h3-9,18H,1-2H3" "computed SMILES=O=C1C=C(OC2=CC(O)=CC=C12)C=3C=CC(OC)=C(OC)C3" "license=License CC-BY-NC-SA 4.0 International" "author=Plant Biology, The Noble Foundation, Ardmore, OK, US/Dennis Fine, Daniel Wherritt, and Lloyd Sumner" "ionization=ESI" "isolation width=5" "collision gas=Nitrogen" "peak width=0.016" "date=2014-01-04 03:13:24+01:00" "column=Waters Acquity BEH C18 1.7um x 2.1 x 150 mm" "retention time=744" "raw data file=C:\Data\Confirmed Standards\Confirmed stds MSMS 2Jan14\34'Dimethoxy7hydroxyflavo_MSMS_2400.d" "SPLASH=splash10-0udi-0090000000-f7b5e6971d118fadf6bd" "submitter=Aiko Barsch (Bruker)" "MoNA Rating=3.125"
Num Peaks: 16
149.0257 1.301301
225.0566 3.503504
237.0561 1.101101
253.0515 100.000000
254.0546 10.910911
255.0568 1.001001
265.0509 1.601602
266.0582 1.301301
267.0667 17.117117
268.0699 2.402402
279.0670 1.801802
281.0459 10.910911
282.0490 1.301301
293.0465 1.001001
295.0621 23.323323
296.0659 3.903904


Name: 3',4'-Dimethoxy-7-hydroxyflavone
Synon: $:00in-source
DB#: MetaboBASE0753
InChIKey: MEDOAKSPIIOKFU-UHFFFAOYSA-N
Instrument_type: LC-ESI-TOF
Instrument: impact HD
Ion_mode: N
Formula: C17H14O5
MW: 298
ExactMass: 298.084123548
Comments: "cas number=33513-36-9" "SMILES=COc1ccc(cc1OC)c2cc(=O)c3ccc(cc3o2)O" "InChI=InChI=1S/C17H14O5/c1-20-14-6-3-10(7-17(14)21-2)15-9-13(19)12-5-4-11(18)8-16(12)22-15/h3-9,18H,1-2H3" "computed SMILES=O=C1C=C(OC2=CC(O)=CC=C12)C=3C=CC(OC)=C(OC)C3" "license=License CC-BY-NC-SA 4.0 International" "author=Plant Biology, The Noble Foundation, Ardmore, OK, US/Dennis Fine, Daniel Wherritt, and Lloyd Sumner" "ionization=ESI" "collision gas=Nitrogen" "peak width=0.016" "date=2014-01-04 03:13:24+01:00" "column=Waters Acquity BEH C18 1.7um x 2.1 x 150 mm" "retention time=744" "raw data file=C:\Data\Confirmed Standards\Confirmed stds MSMS 2Jan14\34'Dimethoxy7hydroxyflavo_MSMS_2400.d" "SPLASH=splash10-03di-0049000000-086b7c88177974446417" "submitter=Aiko Barsch (Bruker)" "MoNA Rating=3.888888888888889"
Num Peaks: 18
149.0254 0.900901
225.0559 1.901902
253.0512 19.819820
254.0546 2.602603
267.0666 4.304304
281.0460 5.105105
282.0493 0.800801
295.0616 6.306306
296.0695 20.620621
297.0729 3.103103
311.0934 100.000000
312.0968 17.317317
313.0988 2.002002
623.1940 7.007007
624.1981 2.302302
645.1752 2.602603
646.1769 0.900901
935.3007 0.800801


Name: 3',4'-Dimethoxy-7-hydroxyflavone
Synon: $:00in-source
DB#: MetaboBASE0754
InChIKey: MEDOAKSPIIOKFU-UHFFFAOYSA-N
Spectrum_type: MS2
PrecursorMZ: 311.1
Instrument_type: LC-ESI-TOF
Instrument: impact HD
Ion_mode: N
Collision_energy: 50
Formula: C17H14O5
MW: 298
ExactMass: 298.084123548
Comments: "cas number=33513-36-9" "SMILES=COc1ccc(cc1OC)c2cc(=O)c3ccc(cc3o2)O" "InChI=InChI=1S/C17H14O5/c1-20-14-6-3-10(7-17(14)21-2)15-9-13(19)12-5-4-11(18)8-16(12)22-15/h3-9,18H,1-2H3" "computed SMILES=O=C1C=C(OC2=CC(O)=CC=C12)C=3C=CC(OC)=C(OC)C3" "license=License CC-BY-NC-SA 4.0 International" "author=Plant Biology, The Noble Foundation, Ardmore, OK, US/Dennis Fine, Daniel Wherritt, and Lloyd Sumner" "ionization=ESI" "isolation width=5" "collision gas=Nitrogen" "peak width=0.017" "date=2014-01-11 06:40:36+01:00" "column=Waters Acquity BEH C18 1.7um x 2.1 x 150 mm" "retention time=744.6" "raw data file=C:\Data\Confirmed Standards\14Jan10 Confirmed stds MSMS\3'4'Dimethoxy7hydroxyflavanone.d" "SPLASH=splash10-0udi-0090000000-a98d7a5c368ef953911a" "submitter=Aiko Barsch (Bruker)" "MoNA Rating=3.125"
Num Peaks: 10
117.0353 2.002002
149.0257 4.004004
224.0515 2.702703
225.0570 14.214214
237.0577 3.303303
253.0525 100.000000
254.0556 10.310310
265.0522 3.903904
267.0675 9.709710
295.0638 6.406406


Name: 3',4'-Dimethoxy-7-hydroxyflavone
Synon: $:00in-source
DB#: MetaboBASE0755
InChIKey: MEDOAKSPIIOKFU-UHFFFAOYSA-N
Instrument_type: LC-ESI-TOF
Instrument: impact HD
Ion_mode: N
Formula: C17H14O5
MW: 298
ExactMass: 298.084123548
Comments: "cas number=33513-36-9" "SMILES=COc1ccc(cc1OC)c2cc(=O)c3ccc(cc3o2)O" "InChI=InChI=1S/C17H14O5/c1-20-14-6-3-10(7-17(14)21-2)15-9-13(19)12-5-4-11(18)8-16(12)22-15/h3-9,18H,1-2H3" "computed SMILES=O=C1C=C(OC2=CC(O)=CC=C12)C=3C=CC(OC)=C(OC)C3" "license=License CC-BY-NC-SA 4.0 International" "author=Plant Biology, The Noble Foundation, Ardmore, OK, US/Dennis Fine, Daniel Wherritt, and Lloyd Sumner" "ionization=ESI" "collision gas=Nitrogen" "peak width=0.013" "date=2014-01-11 06:40:36+01:00" "column=Waters Acquity BEH C18 1.7um x 2.1 x 150 mm" "retention time=744.6" "raw data file=C:\Data\Confirmed Standards\14Jan10 Confirmed stds MSMS\3'4'Dimethoxy7hydroxyflavanone.d" "SPLASH=splash10-03di-0009004000-33f806f55a39f83fd765" "submitter=Aiko Barsch (Bruker)" "MoNA Rating=3.888888888888889"
Num Peaks: 7
311.0947 100.000000
312.0981 16.516517
623.1971 42.742743
624.2007 14.914915
625.2030 3.103103
935.2997 3.903904
936.3026 2.302302


Name: 3',4'-Dimethoxy-7-hydroxyflavone
Synon: $:00in-source
DB#: MetaboBASE0756
InChIKey: MEDOAKSPIIOKFU-UHFFFAOYSA-N
Spectrum_type: MS2
PrecursorMZ: 311.0936
Instrument_type: LC-ESI-TOF
Instrument: impact HD
Ion_mode: N
Collision_energy: 10
Formula: C17H14O5
MW: 298
ExactMass: 298.084123548
Comments: "cas number=33513-36-9" "SMILES=COc1ccc(cc1OC)c2cc(=O)c3ccc(cc3o2)O" "InChI=InChI=1S/C17H14O5/c1-20-14-6-3-10(7-17(14)21-2)15-9-13(19)12-5-4-11(18)8-16(12)22-15/h3-9,18H,1-2H3" "computed SMILES=O=C1C=C(OC2=CC(O)=CC=C12)C=3C=CC(OC)=C(OC)C3" "license=License CC-BY-NC-SA 4.0 International" "author=Plant Biology, The Noble Foundation, Ardmore, OK, US/Dennis Fine, Daniel Wherritt, and Lloyd Sumner" "ionization=ESI" "isolation width=5" "collision gas=Nitrogen" "peak width=0.012" "date=2014-01-04 03:13:24+01:00" "column=Waters Acquity BEH C18 1.7um x 2.1 x 150 mm" "retention time=744.6" "raw data file=C:\Data\Confirmed Standards\Confirmed stds MSMS 2Jan14\34'Dimethoxy7hydroxyflavo_MSMS_2400.d" "SPLASH=splash10-03di-0009000000-111450eb4fb2f7c92451" "submitter=Aiko Barsch (Bruker)" "MoNA Rating=3.125"
Num Peaks: 8
267.0650 0.100100
281.0466 0.200200
295.0604 0.200200
296.0690 1.401401
297.0733 0.200200
311.0936 100.000000
312.0970 13.413413
313.0987 1.501502


Name: 3',4'-Dimethoxy-7-hydroxyflavone
Synon: $:00in-source
DB#: MetaboBASE0757
InChIKey: MEDOAKSPIIOKFU-UHFFFAOYSA-N
Spectrum_type: MS2
PrecursorMZ: 311.0935
Instrument_type: LC-ESI-TOF
Instrument: impact HD
Ion_mode: N
Collision_energy: 20
Formula: C17H14O5
MW: 298
ExactMass: 298.084123548
Comments: "cas number=33513-36-9" "SMILES=COc1ccc(cc1OC)c2cc(=O)c3ccc(cc3o2)O" "InChI=InChI=1S/C17H14O5/c1-20-14-6-3-10(7-17(14)21-2)15-9-13(19)12-5-4-11(18)8-16(12)22-15/h3-9,18H,1-2H3" "computed SMILES=O=C1C=C(OC2=CC(O)=CC=C12)C=3C=CC(OC)=C(OC)C3" "license=License CC-BY-NC-SA 4.0 International" "author=Plant Biology, The Noble Foundation, Ardmore, OK, US/Dennis Fine, Daniel Wherritt, and Lloyd Sumner" "ionization=ESI" "isolation width=5" "collision gas=Nitrogen" "peak width=0.015" "date=2014-01-04 03:13:24+01:00" "column=Waters Acquity BEH C18 1.7um x 2.1 x 150 mm" "retention time=744" "raw data file=C:\Data\Confirmed Standards\Confirmed stds MSMS 2Jan14\34'Dimethoxy7hydroxyflavo_MSMS_2400.d" "SPLASH=splash10-03dj-0097000000-2ab4e6378baae3cb99ca" "submitter=Aiko Barsch (Bruker)" "MoNA Rating=3.125"
Num Peaks: 18
253.0511 2.802803
254.0558 0.500501
266.0589 0.500501
267.0666 7.007007
268.0696 1.301301
269.0745 0.200200
279.0664 0.400400
281.0462 19.319319
282.0498 2.602603
283.0484 0.400400
294.0533 0.400400
295.0616 14.714715
296.0698 74.374374
297.0728 8.708709
298.0765 0.900901
311.0935 100.000000
312.0965 13.013013
313.0996 1.401401


Name: 3',4'-Dimethoxy-7-hydroxyflavone
Synon: $:00in-source
DB#: MetaboBASE0758
InChIKey: MEDOAKSPIIOKFU-UHFFFAOYSA-N
Spectrum_type: MS2
PrecursorMZ: 311.0934
Instrument_type: LC-ESI-TOF
Instrument: impact HD
Ion_mode: N
Collision_energy: 30
Formula: C17H14O5
MW: 298
ExactMass: 298.084123548
Comments: "cas number=33513-36-9" "SMILES=COc1ccc(cc1OC)c2cc(=O)c3ccc(cc3o2)O" "InChI=InChI=1S/C17H14O5/c1-20-14-6-3-10(7-17(14)21-2)15-9-13(19)12-5-4-11(18)8-16(12)22-15/h3-9,18H,1-2H3" "computed SMILES=O=C1C=C(OC2=CC(O)=CC=C12)C=3C=CC(OC)=C(OC)C3" "license=License CC-BY-NC-SA 4.0 International" "author=Plant Biology, The Noble Foundation, Ardmore, OK, US/Dennis Fine, Daniel Wherritt, and Lloyd Sumner" "ionization=ESI" "isolation width=5" "collision gas=Nitrogen" "peak width=0.014" "date=2014-01-04 03:13:24+01:00" "column=Waters Acquity BEH C18 1.7um x 2.1 x 150 mm" "retention time=744" "raw data file=C:\Data\Confirmed Standards\Confirmed stds MSMS 2Jan14\34'Dimethoxy7hydroxyflavo_MSMS_2400.d" "SPLASH=splash10-0f7k-0090000000-bf01ee47ec97ce4b9b75" "submitter=Aiko Barsch (Bruker)" "MoNA Rating=3.125"
Num Peaks: 24
149.0250 0.500501
225.0560 1.201201
237.0574 0.500501
238.0649 0.900901
253.0513 65.965966
254.0542 8.008008
255.0568 0.700701
265.0492 0.400400
266.0586 5.005005
267.0669 34.134134
268.0706 3.803804
269.0715 0.500501
279.0668 2.302302
280.0710 0.500501
281.0462 100.000000
282.0499 11.511512
283.0518 1.701702
293.0457 0.500501
295.0623 79.979980
296.0690 44.744745
297.0721 5.405405
298.0763 0.800801
311.0934 5.605606
312.0952 1.001001


Name: 7-Hydroxy-3(4-methoxyphenyl) coumarin
Synon: $:00in-source
DB#: MetaboBASE0759
InChIKey: VGYCHSOZFBOOKO-UHFFFAOYSA-N
Precursor_type: [M-H]-
Spectrum_type: MS2
PrecursorMZ: 267.1
Instrument_type: LC-ESI-TOF
Instrument: impact HD
Ion_mode: N
Collision_energy: 50
Formula: C16H12O4
MW: 268
ExactMass: 268.073558864
Comments: "cas number=66267-82-1" "SMILES=COc1ccc(cc1)c2cc3ccc(cc3oc2=O)O" "InChI=InChI=1S/C16H12O4/c1-19-13-6-3-10(4-7-13)14-8-11-2-5-12(17)9-15(11)20-16(14)18/h2-9,17H,1H3" "computed SMILES=O=C1OC=2C=C(O)C=CC2C=C1C3=CC=C(OC)C=C3" "license=License CC-BY-NC-SA 4.0 International" "author=Plant Biology, The Noble Foundation, Ardmore, OK, US/Dennis Fine, Daniel Wherritt, and Lloyd Sumner" "ionization=ESI" "isolation width=5" "collision gas=Nitrogen" "peak width=0.017" "date=2014-01-04 20:52:25+01:00" "column=Waters Acquity BEH C18 1.7um x 2.1 x 150 mm" "retention time=808.2" "raw data file=C:\Data\Confirmed Standards\Confirmed stds MSMS 2Jan14\7Hydroxy3(4methoxyphen_MSMS.d" "computed mass accuracy=126.23412953952464" "computed mass error=0.03371713600000703" "SPLASH=splash10-00dj-0590000000-e7ea7b4a40a2187f08a8" "submitter=Aiko Barsch (Bruker)" "MoNA Rating=4.545454545454546"
Num Peaks: 9
167.0501 20.320320
179.0505 3.903904
195.0446 68.168168
196.0503 17.717718
208.0500 3.703704
223.0391 100.000000
224.0462 57.157157
225.0494 7.207207
252.0416 7.707708


Name: 7-Hydroxy-3(4-methoxyphenyl) coumarin
Synon: $:00in-source
DB#: MetaboBASE0760
InChIKey: VGYCHSOZFBOOKO-UHFFFAOYSA-N
Precursor_type: [M-H]-
Spectrum_type: MS2
PrecursorMZ: 267.0658
Instrument_type: LC-ESI-TOF
Instrument: impact HD
Ion_mode: N
Collision_energy: 10
Formula: C16H12O4
MW: 268
ExactMass: 268.073558864
Comments: "cas number=66267-82-1" "SMILES=COc1ccc(cc1)c2cc3ccc(cc3oc2=O)O" "InChI=InChI=1S/C16H12O4/c1-19-13-6-3-10(4-7-13)14-8-11-2-5-12(17)9-15(11)20-16(14)18/h2-9,17H,1H3" "computed SMILES=O=C1OC=2C=C(O)C=CC2C=C1C3=CC=C(OC)C=C3" "license=License CC-BY-NC-SA 4.0 International" "author=Plant Biology, The Noble Foundation, Ardmore, OK, US/Dennis Fine, Daniel Wherritt, and Lloyd Sumner" "ionization=ESI" "isolation width=5" "collision gas=Nitrogen" "peak width=0.01" "date=2014-01-04 20:52:25+01:00" "column=Waters Acquity BEH C18 1.7um x 2.1 x 150 mm" "retention time=808.2" "raw data file=C:\Data\Confirmed Standards\Confirmed stds MSMS 2Jan14\7Hydroxy3(4methoxyphen_MSMS.d" "computed mass accuracy=1.808033825339759" "computed mass error=-4.8286399999142304E-4" "SPLASH=splash10-014i-0090000000-bf25dc9ed5fa61be63e7" "submitter=Aiko Barsch (Bruker)" "MoNA Rating=4.583333333333334"
Num Peaks: 7
224.0478 0.300300
252.0423 10.510511
253.0457 1.701702
254.0489 0.200200
267.0658 100.000000
268.0689 8.708709
269.0711 1.101101


Name: 7-Hydroxy-3(4-methoxyphenyl) coumarin
Synon: $:00in-source
DB#: MetaboBASE0761
InChIKey: VGYCHSOZFBOOKO-UHFFFAOYSA-N
Precursor_type: [M-H]-
Spectrum_type: MS2
PrecursorMZ: 267.0656
Instrument_type: LC-ESI-TOF
Instrument: impact HD
Ion_mode: N
Collision_energy: 20
Formula: C16H12O4
MW: 268
ExactMass: 268.073558864
Comments: "cas number=66267-82-1" "SMILES=COc1ccc(cc1)c2cc3ccc(cc3oc2=O)O" "InChI=InChI=1S/C16H12O4/c1-19-13-6-3-10(4-7-13)14-8-11-2-5-12(17)9-15(11)20-16(14)18/h2-9,17H,1H3" "computed SMILES=O=C1OC=2C=C(O)C=CC2C=C1C3=CC=C(OC)C=C3" "license=License CC-BY-NC-SA 4.0 International" "author=Plant Biology, The Noble Foundation, Ardmore, OK, US/Dennis Fine, Daniel Wherritt, and Lloyd Sumner" "ionization=ESI" "isolation width=5" "collision gas=Nitrogen" "peak width=0.014" "date=2014-01-04 20:52:25+01:00" "column=Waters Acquity BEH C18 1.7um x 2.1 x 150 mm" "retention time=808.2" "raw data file=C:\Data\Confirmed Standards\Confirmed stds MSMS 2Jan14\7Hydroxy3(4methoxyphen_MSMS.d" "computed mass accuracy=2.5569148553691017" "computed mass error=-6.828639999980624E-4" "SPLASH=splash10-0udi-0090000000-f378e2108f0d11d77a85" "submitter=Aiko Barsch (Bruker)" "MoNA Rating=4.583333333333334"
Num Peaks: 10
151.1531 0.200200
223.0389 1.001001
224.0465 2.202202
225.0489 0.300300
252.0424 100.000000
253.0457 10.510511
254.0472 1.001001
267.0656 14.714715
268.0680 1.401401
269.0702 0.200200


Name: 7-Hydroxy-3(4-methoxyphenyl) coumarin
Synon: $:00in-source
DB#: MetaboBASE0762
InChIKey: VGYCHSOZFBOOKO-UHFFFAOYSA-N
Precursor_type: [M-H]-
Spectrum_type: MS2
PrecursorMZ: 267.0656
Instrument_type: LC-ESI-TOF
Instrument: impact HD
Ion_mode: N
Collision_energy: 30
Formula: C16H12O4
MW: 268
ExactMass: 268.073558864
Comments: "cas number=66267-82-1" "SMILES=COc1ccc(cc1)c2cc3ccc(cc3oc2=O)O" "InChI=InChI=1S/C16H12O4/c1-19-13-6-3-10(4-7-13)14-8-11-2-5-12(17)9-15(11)20-16(14)18/h2-9,17H,1H3" "computed SMILES=O=C1OC=2C=C(O)C=CC2C=C1C3=CC=C(OC)C=C3" "license=License CC-BY-NC-SA 4.0 International" "author=Plant Biology, The Noble Foundation, Ardmore, OK, US/Dennis Fine, Daniel Wherritt, and Lloyd Sumner" "ionization=ESI" "isolation width=5" "collision gas=Nitrogen" "peak width=0.015" "date=2014-01-04 20:52:25+01:00" "column=Waters Acquity BEH C18 1.7um x 2.1 x 150 mm" "retention time=808.2" "raw data file=C:\Data\Confirmed Standards\Confirmed stds MSMS 2Jan14\7Hydroxy3(4methoxyphen_MSMS.d" "computed mass accuracy=2.5569148553691017" "computed mass error=-6.828639999980624E-4" "SPLASH=splash10-0udi-0090000000-041447595e729c80f50f" "submitter=Aiko Barsch (Bruker)" "MoNA Rating=4.583333333333334"
Num Peaks: 11
195.0467 0.400400
196.0529 0.300300
208.0543 0.300300
223.0391 9.909910
224.0469 23.923924
225.0508 2.602603
226.0536 0.400400
252.0424 100.000000
253.0455 9.309309
254.0482 1.001001
267.0656 0.500501


Name: 7-Hydroxy-3(4-methoxyphenyl) coumarin
Synon: $:00in-source
DB#: MetaboBASE0763
InChIKey: VGYCHSOZFBOOKO-UHFFFAOYSA-N
Precursor_type: [M-H]-
Spectrum_type: MS2
PrecursorMZ: 267.1
Instrument_type: LC-ESI-TOF
Instrument: impact HD
Ion_mode: N
Collision_energy: 40
Formula: C16H12O4
MW: 268
ExactMass: 268.073558864
Comments: "cas number=66267-82-1" "SMILES=COc1ccc(cc1)c2cc3ccc(cc3oc2=O)O" "InChI=InChI=1S/C16H12O4/c1-19-13-6-3-10(4-7-13)14-8-11-2-5-12(17)9-15(11)20-16(14)18/h2-9,17H,1H3" "computed SMILES=O=C1OC=2C=C(O)C=CC2C=C1C3=CC=C(OC)C=C3" "license=License CC-BY-NC-SA 4.0 International" "author=Plant Biology, The Noble Foundation, Ardmore, OK, US/Dennis Fine, Daniel Wherritt, and Lloyd Sumner" "ionization=ESI" "isolation width=5" "collision gas=Nitrogen" "peak width=0.015" "date=2014-01-04 20:52:25+01:00" "column=Waters Acquity BEH C18 1.7um x 2.1 x 150 mm" "retention time=808.2" "raw data file=C:\Data\Confirmed Standards\Confirmed stds MSMS 2Jan14\7Hydroxy3(4methoxyphen_MSMS.d" "computed mass accuracy=126.23412953952464" "computed mass error=0.03371713600000703" "SPLASH=splash10-00di-0090000000-9fd646d60e48c6cdd3ce" "submitter=Aiko Barsch (Bruker)" "MoNA Rating=4.545454545454546"
Num Peaks: 14
167.0491 1.701702
168.0569 1.501502
180.0587 1.301301
195.0449 11.211211
196.0520 6.706707
196.0762 1.001001
197.0570 1.301301
208.0531 1.201201
223.0396 88.888889
224.0467 100.000000
225.0504 10.210210
226.0541 1.501502
252.0421 43.743744
253.0447 5.305305


Name: 7-Hydroxy-3(4-methoxyphenyl) coumarin
Synon: $:00in-source
DB#: MetaboBASE0764
InChIKey: VGYCHSOZFBOOKO-UHFFFAOYSA-N
Instrument_type: LC-ESI-TOF
Instrument: impact HD
Ion_mode: N
Formula: C16H12O4
MW: 268
ExactMass: 268.073558864
Comments: "cas number=66267-82-1" "SMILES=COc1ccc(cc1)c2cc3ccc(cc3oc2=O)O" "InChI=InChI=1S/C16H12O4/c1-19-13-6-3-10(4-7-13)14-8-11-2-5-12(17)9-15(11)20-16(14)18/h2-9,17H,1H3" "computed SMILES=O=C1OC=2C=C(O)C=CC2C=C1C3=CC=C(OC)C=C3" "license=License CC-BY-NC-SA 4.0 International" "author=Plant Biology, The Noble Foundation, Ardmore, OK, US/Dennis Fine, Daniel Wherritt, and Lloyd Sumner" "ionization=ESI" "collision gas=Nitrogen" "peak width=0.015" "date=2014-01-04 20:52:25+01:00" "column=Waters Acquity BEH C18 1.7um x 2.1 x 150 mm" "retention time=808.2" "raw data file=C:\Data\Confirmed Standards\Confirmed stds MSMS 2Jan14\7Hydroxy3(4methoxyphen_MSMS.d" "SPLASH=splash10-014i-0090000000-ccacc5cd9c146bbeab1a" "submitter=Aiko Barsch (Bruker)" "MoNA Rating=3.888888888888889"
Num Peaks: 17
112.9856 0.400400
174.9558 0.200200
235.9252 0.200200
242.9432 0.300300
248.9597 0.300300
252.0418 1.301301
253.0470 0.200200
267.0660 100.000000
268.0691 11.611612
269.0717 1.201201
310.9308 0.200200
316.9479 0.100100
335.0550 0.700701
397.0250 0.200200
535.1385 0.400400
555.9975 0.200200
666.0228 0.500501


Name: 4-Hydroxy-2',4',6'-trimethoxychalcone
Synon: Flavokawain A
Synon: $:00in-source
DB#: MetaboBASE0765
InChIKey: ZWNLSRDFHQCTQW-RMKNXTFCSA-N
Precursor_type: [M-H]-
Spectrum_type: MS2
PrecursorMZ: 313.1092
Instrument_type: LC-ESI-TOF
Instrument: impact HD
Ion_mode: N
Collision_energy: 10
Formula: C18H18O5
MW: 314
ExactMass: 314.115423676
Comments: "computed SMILES=O=C(C=CC1=CC=C(O)C=C1)C=2C(OC)=CC(OC)=CC2OC" "computed InChI=InChI=1S/C18H18O5/c1-21-14-10-16(22-2)18(17(11-14)23-3)15(20)9-6-12-4-7-13(19)8-5-12/h4-11,19H,1-3H3/b9-6+" "license=License CC-BY-NC-SA 4.0 International" "author=Plant Biology, The Noble Foundation, Ardmore, OK, US/Dennis Fine, Daniel Wherritt, and Lloyd Sumner" "ionization=ESI" "isolation width=5" "collision gas=Nitrogen" "peak width=0.0093" "date=2014-01-04 22:13:53+01:00" "column=Waters Acquity BEH C18 1.7um x 2.1 x 150 mm" "retention time=742.2" "raw data file=C:\Data\Confirmed Standards\Confirmed stds MSMS 2Jan14\4Hydroxy2'4'6'trimethoxy_MSMS.d" "computed mass accuracy=3.360884956429806" "computed mass error=0.0010523239999997713" "SPLASH=splash10-03di-0009000000-e767fdc701dc761033f2" "submitter=Aiko Barsch (Bruker)" "MoNA Rating=4.583333333333334"
Num Peaks: 8
283.0632 0.300300
298.0853 0.200200
299.0865 0.200200
313.0679 0.200200
313.1092 100.000000
314.1128 13.013013
315.1141 1.201201
877.6237 0.200200


Name: 4-Hydroxy-2',4',6'-trimethoxychalcone
Synon: Flavokawain A
Synon: $:00in-source
DB#: MetaboBASE0766
InChIKey: ZWNLSRDFHQCTQW-RMKNXTFCSA-N
Precursor_type: [M-H]-
Spectrum_type: MS2
PrecursorMZ: 313.1094
Instrument_type: LC-ESI-TOF
Instrument: impact HD
Ion_mode: N
Collision_energy: 20
Formula: C18H18O5
MW: 314
ExactMass: 314.115423676
Comments: "computed SMILES=O=C(C=CC1=CC=C(O)C=C1)C=2C(OC)=CC(OC)=CC2OC" "computed InChI=InChI=1S/C18H18O5/c1-21-14-10-16(22-2)18(17(11-14)23-3)15(20)9-6-12-4-7-13(19)8-5-12/h4-11,19H,1-3H3/b9-6+" "license=License CC-BY-NC-SA 4.0 International" "author=Plant Biology, The Noble Foundation, Ardmore, OK, US/Dennis Fine, Daniel Wherritt, and Lloyd Sumner" "ionization=ESI" "isolation width=5" "collision gas=Nitrogen" "peak width=0.012" "date=2014-01-04 22:13:53+01:00" "column=Waters Acquity BEH C18 1.7um x 2.1 x 150 mm" "retention time=742.2" "raw data file=C:\Data\Confirmed Standards\Confirmed stds MSMS 2Jan14\4Hydroxy2'4'6'trimethoxy_MSMS.d" "computed mass accuracy=3.999637187533848" "computed mass error=0.0012523240000064106" "SPLASH=splash10-03di-0049000000-0d6c9535455ef9afb37f" "submitter=Aiko Barsch (Bruker)" "MoNA Rating=4.583333333333334"
Num Peaks: 32
139.0418 0.400400
145.0286 0.700701
158.0355 0.300300
165.0173 0.300300
166.0249 0.400400
223.0413 0.400400
237.0548 0.400400
238.0650 0.500501
251.0725 0.400400
252.0419 0.600601
252.0782 0.500501
255.0672 2.002002
256.0706 0.400400
257.0844 0.900901
266.0588 3.103103
267.0671 12.512513
268.0382 1.501502
268.0716 1.401401
269.0737 0.300300
270.0895 0.700701
280.0734 0.400400
281.0828 3.403403
282.0840 0.600601
283.0619 9.709710
284.0649 1.101101
297.0767 0.600601
298.0854 9.609610
299.0877 1.701702
300.0967 0.300300
313.1094 100.000000
314.1123 12.212212
315.1140 1.801802


Name: 4-Hydroxy-2',4',6'-trimethoxychalcone
Synon: Flavokawain A
Synon: $:00in-source
DB#: MetaboBASE0767
InChIKey: ZWNLSRDFHQCTQW-RMKNXTFCSA-N
Precursor_type: [M-H]-
Spectrum_type: MS2
PrecursorMZ: 313.1093
Instrument_type: LC-ESI-TOF
Instrument: impact HD
Ion_mode: N
Collision_energy: 30
Formula: C18H18O5
MW: 314
ExactMass: 314.115423676
Comments: "computed SMILES=O=C(C=CC1=CC=C(O)C=C1)C=2C(OC)=CC(OC)=CC2OC" "computed InChI=InChI=1S/C18H18O5/c1-21-14-10-16(22-2)18(17(11-14)23-3)15(20)9-6-12-4-7-13(19)8-5-12/h4-11,19H,1-3H3/b9-6+" "license=License CC-BY-NC-SA 4.0 International" "author=Plant Biology, The Noble Foundation, Ardmore, OK, US/Dennis Fine, Daniel Wherritt, and Lloyd Sumner" "ionization=ESI" "isolation width=5" "collision gas=Nitrogen" "peak width=0.013" "date=2014-01-04 22:13:53+01:00" "column=Waters Acquity BEH C18 1.7um x 2.1 x 150 mm" "retention time=742.2" "raw data file=C:\Data\Confirmed Standards\Confirmed stds MSMS 2Jan14\4Hydroxy2'4'6'trimethoxy_MSMS.d" "computed mass accuracy=3.6802611740740776" "computed mass error=0.0011523240000315127" "SPLASH=splash10-0159-0190000000-1cb467a0ee587800d6be" "submitter=Aiko Barsch (Bruker)" "MoNA Rating=4.583333333333334"
Num Peaks: 58
109.0277 3.603604
117.0342 9.009009
119.0499 3.403403
124.0164 2.602603
132.0555 2.402402
133.0641 2.902903
137.0571 4.204204
138.0301 4.804805
139.0380 8.208208
145.0277 10.010010
149.0232 2.502503
159.0440 2.602603
164.0110 3.403403
165.0178 4.304304
166.0240 2.702703
177.0175 4.804805
179.0346 2.702703
192.0434 2.402402
223.0402 7.907908
224.0472 3.403403
225.0515 2.602603
227.0704 2.902903
237.0569 5.205205
238.0609 6.206206
239.0356 6.606607
239.0700 2.502503
240.0418 6.506507
241.0470 3.503504
249.0587 3.303303
251.0350 2.902903
251.0748 3.103103
252.0430 32.132132
252.0773 3.003003
253.0485 6.106106
254.0540 3.403403
255.0658 22.822823
256.0717 3.303303
257.0813 11.111111
265.0515 3.103103
266.0594 23.623624
267.0660 100.000000
268.0379 64.764765
268.0691 13.913914
269.0422 10.610611
269.0733 2.902903
270.0421 2.302302
279.0703 3.403403
281.0837 30.230230
282.0564 4.904905
282.0853 5.505506
283.0621 94.994995
284.0665 14.814815
285.0705 2.302302
297.0784 6.406406
298.0867 15.015015
299.0860 3.103103
313.1093 22.922923
314.1110 6.906907


Name: 4-Hydroxy-2',4',6'-trimethoxychalcone
Synon: Flavokawain A
Synon: $:00in-source
DB#: MetaboBASE0768
InChIKey: ZWNLSRDFHQCTQW-RMKNXTFCSA-N
Precursor_type: [M-H]-
Spectrum_type: MS2
PrecursorMZ: 313.1
Instrument_type: LC-ESI-TOF
Instrument: impact HD
Ion_mode: N
Collision_energy: 40
Formula: C18H18O5
MW: 314
ExactMass: 314.115423676
Comments: "computed SMILES=O=C(C=CC1=CC=C(O)C=C1)C=2C(OC)=CC(OC)=CC2OC" "computed InChI=InChI=1S/C18H18O5/c1-21-14-10-16(22-2)18(17(11-14)23-3)15(20)9-6-12-4-7-13(19)8-5-12/h4-11,19H,1-3H3/b9-6+" "license=License CC-BY-NC-SA 4.0 International" "author=Plant Biology, The Noble Foundation, Ardmore, OK, US/Dennis Fine, Daniel Wherritt, and Lloyd Sumner" "ionization=ESI" "isolation width=5" "collision gas=Nitrogen" "peak width=0.013" "date=2014-01-04 22:13:53+01:00" "column=Waters Acquity BEH C18 1.7um x 2.1 x 150 mm" "retention time=742.2" "raw data file=C:\Data\Confirmed Standards\Confirmed stds MSMS 2Jan14\4Hydroxy2'4'6'trimethoxy_MSMS.d" "computed mass accuracy=26.022599808254792" "computed mass error=-0.008147675999964576" "SPLASH=splash10-014i-0190000000-34aabcc8b5642c88250d" "submitter=Aiko Barsch (Bruker)" "MoNA Rating=4.545454545454546"
Num Peaks: 43
116.0288 8.208208
117.0352 28.528529
119.0503 6.306306
121.0287 8.608609
124.0150 11.911912
132.0584 4.904905
137.0234 8.208208
138.0311 7.107107
145.0289 15.115115
149.0232 5.905906
164.0105 9.909910
179.0340 6.606607
207.0466 4.804805
212.0459 6.006006
222.0654 6.706707
223.0390 35.435435
223.0778 7.207207
224.0481 16.316316
225.0555 5.205205
227.0714 15.715716
237.0578 14.514515
238.0624 10.910911
239.0351 47.947948
240.0423 36.836837
241.0480 10.110110
251.0346 5.205205
252.0434 72.572573
253.0452 17.317317
254.0546 5.705706
255.0653 13.313313
257.0810 5.805806
265.0503 10.010010
266.0601 28.928929
267.0307 5.605606
267.0660 23.323323
268.0385 100.000000
268.0676 5.005005
269.0388 12.512513
270.0434 5.605606
281.0837 19.019019
282.0514 12.112112
283.0603 16.516517
297.0803 4.704705


Name: 4-Hydroxy-2',4',6'-trimethoxychalcone
Synon: Flavokawain A
Synon: $:00in-source
DB#: MetaboBASE0769
InChIKey: ZWNLSRDFHQCTQW-RMKNXTFCSA-N
Precursor_type: [M-H]-
Spectrum_type: MS2
PrecursorMZ: 313.1
Instrument_type: LC-ESI-TOF
Instrument: impact HD
Ion_mode: N
Collision_energy: 50
Formula: C18H18O5
MW: 314
ExactMass: 314.115423676
Comments: "computed SMILES=O=C(C=CC1=CC=C(O)C=C1)C=2C(OC)=CC(OC)=CC2OC" "computed InChI=InChI=1S/C18H18O5/c1-21-14-10-16(22-2)18(17(11-14)23-3)15(20)9-6-12-4-7-13(19)8-5-12/h4-11,19H,1-3H3/b9-6+" "license=License CC-BY-NC-SA 4.0 International" "author=Plant Biology, The Noble Foundation, Ardmore, OK, US/Dennis Fine, Daniel Wherritt, and Lloyd Sumner" "ionization=ESI" "isolation width=5" "collision gas=Nitrogen" "peak width=0.014" "date=2014-01-04 22:13:53+01:00" "column=Waters Acquity BEH C18 1.7um x 2.1 x 150 mm" "retention time=742.2" "raw data file=C:\Data\Confirmed Standards\Confirmed stds MSMS 2Jan14\4Hydroxy2'4'6'trimethoxy_MSMS.d" "computed mass accuracy=26.022599808254792" "computed mass error=-0.008147675999964576" "SPLASH=splash10-01bi-0390000000-d1ee03265a9e735ff2d8" "submitter=Aiko Barsch (Bruker)" "MoNA Rating=4.545454545454546"
Num Peaks: 21
117.0348 81.281281
119.0502 11.311311
121.0298 16.116116
124.0159 10.910911
138.0315 12.012012
145.0282 13.313313
196.0518 9.709710
211.0399 21.821822
212.0483 15.315315
221.0598 11.211211
223.0396 35.135135
224.0468 28.828829
237.0558 15.215215
239.0354 100.000000
239.0625 8.308308
240.0420 33.233233
241.0430 13.913914
251.0341 9.409409
252.0439 40.840841
268.0384 32.032032
269.0436 10.410410


Name: 4-Hydroxy-2',4',6'-trimethoxychalcone
Synon: Flavokawain A
Synon: $:00in-source
DB#: MetaboBASE0770
InChIKey: ZWNLSRDFHQCTQW-RMKNXTFCSA-N
Instrument_type: LC-ESI-TOF
Instrument: impact HD
Ion_mode: N
Formula: C18H18O5
MW: 314
ExactMass: 314.115423676
Comments: "computed SMILES=O=C(C=CC1=CC=C(O)C=C1)C=2C(OC)=CC(OC)=CC2OC" "computed InChI=InChI=1S/C18H18O5/c1-21-14-10-16(22-2)18(17(11-14)23-3)15(20)9-6-12-4-7-13(19)8-5-12/h4-11,19H,1-3H3/b9-6+" "license=License CC-BY-NC-SA 4.0 International" "author=Plant Biology, The Noble Foundation, Ardmore, OK, US/Dennis Fine, Daniel Wherritt, and Lloyd Sumner" "ionization=ESI" "collision gas=Nitrogen" "peak width=0.014" "date=2014-01-04 22:13:53+01:00" "column=Waters Acquity BEH C18 1.7um x 2.1 x 150 mm" "retention time=742.2" "raw data file=C:\Data\Confirmed Standards\Confirmed stds MSMS 2Jan14\4Hydroxy2'4'6'trimethoxy_MSMS.d" "SPLASH=splash10-03di-0009000000-1a43de6c1c7f912b1402" "submitter=Aiko Barsch (Bruker)" "MoNA Rating=3.888888888888889"
Num Peaks: 21
112.9857 0.600601
116.9289 0.200200
180.9710 0.300300
235.9259 0.300300
242.9441 0.700701
248.9614 0.800801
304.9149 0.200200
310.9316 0.300300
313.1095 100.000000
314.1126 13.213213
315.1145 1.501502
316.1158 0.200200
316.9485 0.400400
378.9185 0.300300
381.0945 0.500501
384.9350 0.200200
627.2268 0.600601
628.2252 0.200200
655.9949 0.200200
666.0217 1.601602
667.0247 0.200200


Name: 3'-Hydroxyflavone
Synon: $:00in-source
DB#: MetaboBASE0771
InChIKey: ISZWRZGKEWQACU-UHFFFAOYSA-N
Instrument_type: LC-ESI-TOF
Instrument: impact HD
Ion_mode: N
Formula: C15H10O3
MW: 238
ExactMass: 238.06299417999998
Comments: "cas number=70460-18-3" "SMILES=c1ccc2c(c1)c(=O)cc(o2)c3cccc(c3)O" "InChI=InChI=1S/C15H10O3/c16-11-5-3-4-10(8-11)15-9-13(17)12-6-1-2-7-14(12)18-15/h1-9,16H" "computed SMILES=O=C1C=C(OC=2C=CC=CC12)C=3C=CC=C(O)C3" "license=License CC-BY-NC-SA 4.0 International" "author=Plant Biology, The Noble Foundation, Ardmore, OK, US/Dennis Fine, Daniel Wherritt, and Lloyd Sumner" "ionization=ESI" "collision gas=Nitrogen" "peak width=0.014" "date=2014-01-05 04:20:30+01:00" "column=Waters Acquity BEH C18 1.7um x 2.1 x 150 mm" "retention time=680.4" "raw data file=C:\Data\Confirmed Standards\Confirmed stds MSMS 2Jan14\3'-Hydroxyflavone _MSMS.d" "SPLASH=splash10-000i-0090000000-2432ac5c36d959d164be" "submitter=Aiko Barsch (Bruker)" "MoNA Rating=3.888888888888889"
Num Peaks: 16
112.9868 0.300300
174.9570 0.200200
235.9278 0.300300
237.0572 100.000000
238.0604 13.213213
239.0632 1.301301
242.9445 0.300300
248.9610 0.300300
305.0448 0.300300
316.9486 0.200200
427.9836 0.200200
475.1207 3.003003
476.1234 0.800801
477.1273 0.200200
666.0214 0.700701
1004.1663 0.200200


Name: 3'-Hydroxyflavone
Synon: $:00in-source
DB#: MetaboBASE0772
InChIKey: ISZWRZGKEWQACU-UHFFFAOYSA-N
Precursor_type: [M-H]-
Spectrum_type: MS2
PrecursorMZ: 237.0568
Instrument_type: LC-ESI-TOF
Instrument: impact HD
Ion_mode: N
Collision_energy: 10
Formula: C15H10O3
MW: 238
ExactMass: 238.06299417999998
Comments: "cas number=70460-18-3" "SMILES=c1ccc2c(c1)c(=O)cc(o2)c3cccc(c3)O" "InChI=InChI=1S/C15H10O3/c16-11-5-3-4-10(8-11)15-9-13(17)12-6-1-2-7-14(12)18-15/h1-9,16H" "computed SMILES=O=C1C=C(OC=2C=CC=CC12)C=3C=CC=C(O)C3" "license=License CC-BY-NC-SA 4.0 International" "author=Plant Biology, The Noble Foundation, Ardmore, OK, US/Dennis Fine, Daniel Wherritt, and Lloyd Sumner" "ionization=ESI" "isolation width=5" "collision gas=Nitrogen" "peak width=0.012" "date=2014-01-05 04:20:30+01:00" "column=Waters Acquity BEH C18 1.7um x 2.1 x 150 mm" "retention time=680.4" "raw data file=C:\Data\Confirmed Standards\Confirmed stds MSMS 2Jan14\3'-Hydroxyflavone _MSMS.d" "computed mass accuracy=4.563547639318661" "computed mass error=0.001081820000024436" "SPLASH=splash10-000i-0090000000-16cf24900d1c2d5d34d0" "submitter=Aiko Barsch (Bruker)" "MoNA Rating=4.583333333333334"
Num Peaks: 3
237.0568 100.000000
238.0603 11.711712
239.0623 1.101101


Name: 3'-Hydroxyflavone
Synon: $:00in-source
DB#: MetaboBASE0773
InChIKey: ISZWRZGKEWQACU-UHFFFAOYSA-N
Precursor_type: [M-H]-
Spectrum_type: MS2
PrecursorMZ: 237.0574
Instrument_type: LC-ESI-TOF
Instrument: impact HD
Ion_mode: N
Collision_energy: 30
Formula: C15H10O3
MW: 238
ExactMass: 238.06299417999998
Comments: "cas number=70460-18-3" "SMILES=c1ccc2c(c1)c(=O)cc(o2)c3cccc(c3)O" "InChI=InChI=1S/C15H10O3/c16-11-5-3-4-10(8-11)15-9-13(17)12-6-1-2-7-14(12)18-15/h1-9,16H" "computed SMILES=O=C1C=C(OC=2C=CC=CC12)C=3C=CC=C(O)C3" "license=License CC-BY-NC-SA 4.0 International" "author=Plant Biology, The Noble Foundation, Ardmore, OK, US/Dennis Fine, Daniel Wherritt, and Lloyd Sumner" "ionization=ESI" "isolation width=5" "collision gas=Nitrogen" "peak width=0.016" "date=2014-01-05 04:20:30+01:00" "column=Waters Acquity BEH C18 1.7um x 2.1 x 150 mm" "retention time=680.4" "raw data file=C:\Data\Confirmed Standards\Confirmed stds MSMS 2Jan14\3'-Hydroxyflavone _MSMS.d" "computed mass accuracy=7.0945686572785" "computed mass error=0.0016818200000159322" "SPLASH=splash10-014i-0920000000-3b799ca82f564c939f86" "submitter=Aiko Barsch (Bruker)" "MoNA Rating=4.545454545454546"
Num Peaks: 6
117.0358 100.000000
118.0392 7.107107
209.0639 1.301301
235.0399 1.101101
237.0574 21.421421
238.0584 3.703704


Name: 3'-Hydroxyflavone
Synon: $:00in-source
DB#: MetaboBASE0774
InChIKey: ISZWRZGKEWQACU-UHFFFAOYSA-N
Precursor_type: [M-H]-
Spectrum_type: MS2
PrecursorMZ: 237.057
Instrument_type: LC-ESI-TOF
Instrument: impact HD
Ion_mode: N
Collision_energy: 20
Formula: C15H10O3
MW: 238
ExactMass: 238.06299417999998
Comments: "cas number=70460-18-3" "SMILES=c1ccc2c(c1)c(=O)cc(o2)c3cccc(c3)O" "InChI=InChI=1S/C15H10O3/c16-11-5-3-4-10(8-11)15-9-13(17)12-6-1-2-7-14(12)18-15/h1-9,16H" "computed SMILES=O=C1C=C(OC=2C=CC=CC12)C=3C=CC=C(O)C3" "license=License CC-BY-NC-SA 4.0 International" "author=Plant Biology, The Noble Foundation, Ardmore, OK, US/Dennis Fine, Daniel Wherritt, and Lloyd Sumner" "ionization=ESI" "isolation width=5" "collision gas=Nitrogen" "peak width=0.013" "date=2014-01-05 04:20:30+01:00" "column=Waters Acquity BEH C18 1.7um x 2.1 x 150 mm" "retention time=680.4" "raw data file=C:\Data\Confirmed Standards\Confirmed stds MSMS 2Jan14\3'-Hydroxyflavone _MSMS.d" "computed mass accuracy=5.407222735471442" "computed mass error=0.0012818200000026536" "SPLASH=splash10-000i-0090000000-4bb7edad9630cdc4512c" "submitter=Aiko Barsch (Bruker)" "MoNA Rating=4.545454545454546"
Num Peaks: 5
117.0358 6.406406
118.0401 0.700701
237.0570 100.000000
238.0604 8.908909
239.0622 1.201201


Name: 3'-Hydroxyflavone
Synon: $:00in-source
DB#: MetaboBASE0775
InChIKey: ISZWRZGKEWQACU-UHFFFAOYSA-N
Precursor_type: [M-H]-
Spectrum_type: MS2
PrecursorMZ: 237.1
Instrument_type: LC-ESI-TOF
Instrument: impact HD
Ion_mode: N
Collision_energy: 40
Formula: C15H10O3
MW: 238
ExactMass: 238.06299417999998
Comments: "cas number=70460-18-3" "SMILES=c1ccc2c(c1)c(=O)cc(o2)c3cccc(c3)O" "InChI=InChI=1S/C15H10O3/c16-11-5-3-4-10(8-11)15-9-13(17)12-6-1-2-7-14(12)18-15/h1-9,16H" "computed SMILES=O=C1C=C(OC=2C=CC=CC12)C=3C=CC=C(O)C3" "license=License CC-BY-NC-SA 4.0 International" "author=Plant Biology, The Noble Foundation, Ardmore, OK, US/Dennis Fine, Daniel Wherritt, and Lloyd Sumner" "ionization=ESI" "isolation width=5" "collision gas=Nitrogen" "peak width=0.017" "date=2014-01-05 04:20:30+01:00" "column=Waters Acquity BEH C18 1.7um x 2.1 x 150 mm" "retention time=680.4" "raw data file=C:\Data\Confirmed Standards\Confirmed stds MSMS 2Jan14\3'-Hydroxyflavone _MSMS.d" "computed mass accuracy=186.76431885284276" "computed mass error=0.04428182000000902" "SPLASH=splash10-014i-0900000000-f5467ee681f5166570e7" "submitter=Aiko Barsch (Bruker)" "MoNA Rating=3.846153846153846"
Num Peaks: 2
117.0355 100.000000
118.0389 4.704705


Name: 2',4'-Dihydroxychalcone
Synon: $:00in-source
DB#: MetaboBASE0776
InChIKey: JUMSUVHHUVPSOY-RMKNXTFCSA-N
Precursor_type: [M-H]-
Spectrum_type: MS2
PrecursorMZ: 239.0704
Instrument_type: LC-ESI-TOF
Instrument: impact HD
Ion_mode: N
Collision_energy: 30
Formula: C15H12O3
MW: 240
ExactMass: 240.07864424399997
Comments: "cas number=25515-43-9" "SMILES=c1ccc(cc1)/C=C/C(=O)c2ccc(cc2O)O" "InChI=InChI=1S/C15H12O3/c16-12-7-8-13(15(18)10-12)14(17)9-6-11-4-2-1-3-5-11/h1-10,16,18H/b9-6+" "computed SMILES=O=C(C=CC=1C=CC=CC1)C2=CC=C(O)C=C2O" "license=License CC-BY-NC-SA 4.0 International" "author=Plant Biology, The Noble Foundation, Ardmore, OK, US/Dennis Fine, Daniel Wherritt, and Lloyd Sumner" "ionization=ESI" "isolation width=5" "collision gas=Nitrogen" "peak width=0.015" "date=2014-01-04 21:33:08+01:00" "column=Waters Acquity BEH C18 1.7um x 2.1 x 150 mm" "retention time=984" "raw data file=C:\Data\Confirmed Standards\Confirmed stds MSMS 2Jan14\2'4'Dihydroxychalcone _MSMS.d" "computed mass accuracy=4.050037143777975" "computed mass error=-9.68243999977858E-4" "SPLASH=splash10-000i-0910000000-5197f62e97fa43617764" "submitter=Aiko Barsch (Bruker)" "MoNA Rating=4.583333333333334"
Num Peaks: 13
109.0286 17.617618
127.0532 7.107107
135.0079 100.000000
136.0119 15.715716
148.0151 15.715716
153.0181 11.511512
167.0881 8.308308
169.0649 6.906907
193.0619 10.210210
197.0591 31.231231
239.0704 26.526527
240.0747 7.607608
257.8921 9.409409


Name: 2',4'-Dihydroxychalcone
Synon: $:00in-source
DB#: MetaboBASE0777
InChIKey: JUMSUVHHUVPSOY-RMKNXTFCSA-N
Instrument_type: LC-ESI-TOF
Instrument: impact HD
Ion_mode: N
Formula: C15H12O3
MW: 240
ExactMass: 240.07864424399997
Comments: "cas number=25515-43-9" "SMILES=c1ccc(cc1)/C=C/C(=O)c2ccc(cc2O)O" "InChI=InChI=1S/C15H12O3/c16-12-7-8-13(15(18)10-12)14(17)9-6-11-4-2-1-3-5-11/h1-10,16,18H/b9-6+" "computed SMILES=O=C(C=CC=1C=CC=CC1)C2=CC=C(O)C=C2O" "license=License CC-BY-NC-SA 4.0 International" "author=Plant Biology, The Noble Foundation, Ardmore, OK, US/Dennis Fine, Daniel Wherritt, and Lloyd Sumner" "ionization=ESI" "collision gas=Nitrogen" "peak width=0.014" "date=2014-01-04 21:33:08+01:00" "column=Waters Acquity BEH C18 1.7um x 2.1 x 150 mm" "retention time=984" "raw data file=C:\Data\Confirmed Standards\Confirmed stds MSMS 2Jan14\2'4'Dihydroxychalcone _MSMS.d" "SPLASH=splash10-000i-0090000000-1e95c1448711047b0d01" "submitter=Aiko Barsch (Bruker)" "MoNA Rating=3.888888888888889"
Num Peaks: 11
112.9864 0.200200
174.9550 0.100100
239.0711 100.000000
240.0746 10.910911
241.0767 1.101101
242.0794 0.100100
242.9434 0.100100
248.9605 0.100100
307.0592 0.300300
479.1517 0.200200
666.0224 0.300300


Name: 2',4'-Dihydroxychalcone
Synon: $:00in-source
DB#: MetaboBASE0778
InChIKey: JUMSUVHHUVPSOY-RMKNXTFCSA-N
Precursor_type: [M-H]-
Spectrum_type: MS2
PrecursorMZ: 239.0707
Instrument_type: LC-ESI-TOF
Instrument: impact HD
Ion_mode: N
Collision_energy: 20
Formula: C15H12O3
MW: 240
ExactMass: 240.078644244
Comments: "cas number=25515-43-9" "SMILES=c1ccc(cc1)/C=C/C(=O)c2ccc(cc2O)O" "InChI=InChI=1S/C15H12O3/c16-12-7-8-13(15(18)10-12)14(17)9-6-11-4-2-1-3-5-11/h1-10,16,18H/b9-6+" "computed SMILES=O=C(C=CC=1C=CC=CC1)C2=CC=C(O)C=C2O" "license=License CC-BY-NC-SA 4.0 International" "author=Plant Biology, The Noble Foundation, Ardmore, OK, US/Dennis Fine, Daniel Wherritt, and Lloyd Sumner" "ionization=ESI" "isolation width=5" "collision gas=Nitrogen" "peak width=0.014" "date=2014-01-04 21:33:08+01:00" "column=Waters Acquity BEH C18 1.7um x 2.1 x 150 mm" "retention time=984" "raw data file=C:\Data\Confirmed Standards\Confirmed stds MSMS 2Jan14\2'4'Dihydroxychalcone _MSMS.d" "computed mass accuracy=2.7951731434456106" "computed mass error=-6.682440000247425E-4" "SPLASH=splash10-000i-0390000000-00289c359ca4fca6dd18" "submitter=Aiko Barsch (Bruker)" "MoNA Rating=4.583333333333334"
Num Peaks: 17
109.0296 2.802803
135.0082 24.324324
136.0125 1.401401
147.0454 0.500501
148.0154 3.803804
153.0180 3.103103
167.0852 1.701702
180.0069 1.101101
193.0653 0.600601
195.0802 2.102102
196.0850 0.500501
197.0594 5.505506
198.0634 1.201201
211.0777 0.700701
239.0707 100.000000
240.0736 19.619620
241.0764 2.202202


Name: 2',4'-Dihydroxychalcone
Synon: $:00in-source
DB#: MetaboBASE0779
InChIKey: JUMSUVHHUVPSOY-RMKNXTFCSA-N
Precursor_type: [M-H]-
Spectrum_type: MS2
PrecursorMZ: 239.071
Instrument_type: LC-ESI-TOF
Instrument: impact HD
Ion_mode: N
Collision_energy: 10
Formula: C15H12O3
MW: 240
ExactMass: 240.07864424399997
Comments: "cas number=25515-43-9" "SMILES=c1ccc(cc1)/C=C/C(=O)c2ccc(cc2O)O" "InChI=InChI=1S/C15H12O3/c16-12-7-8-13(15(18)10-12)14(17)9-6-11-4-2-1-3-5-11/h1-10,16,18H/b9-6+" "computed SMILES=O=C(C=CC=1C=CC=CC1)C2=CC=C(O)C=C2O" "license=License CC-BY-NC-SA 4.0 International" "author=Plant Biology, The Noble Foundation, Ardmore, OK, US/Dennis Fine, Daniel Wherritt, and Lloyd Sumner" "ionization=ESI" "isolation width=5" "collision gas=Nitrogen" "peak width=0.011" "date=2014-01-04 21:33:08+01:00" "column=Waters Acquity BEH C18 1.7um x 2.1 x 150 mm" "retention time=984" "raw data file=C:\Data\Confirmed Standards\Confirmed stds MSMS 2Jan14\2'4'Dihydroxychalcone _MSMS.d" "computed mass accuracy=1.5403122921072059" "computed mass error=-3.682439999863618E-4" "SPLASH=splash10-000i-0090000000-ade0d7e1497cebf68d2f" "submitter=Aiko Barsch (Bruker)" "MoNA Rating=4.583333333333334"
Num Peaks: 5
135.0074 0.400400
197.0584 0.200200
239.0710 100.000000
240.0743 15.715716
241.0760 0.900901


Name: Icariin
Synon: $:00in-source
DB#: MetaboBASE0780
InChIKey: TZJALUIVHRYQQB-XLRXWWTNSA-N
Precursor_type: [M+FA-H]-
Spectrum_type: MS2
PrecursorMZ: 721.2
Instrument_type: LC-ESI-TOF
Instrument: impact HD
Ion_mode: N
Collision_energy: 50
Formula: C33H40O15
MW: 676
ExactMass: 676.23672058
Comments: "cas number=489-32-7" "SMILES=C[C@H]1[C@@H]([C@H]([C@H]([C@@H](O1)Oc2c(=O)c3c(cc(c(c3oc2c4ccc(cc4)OC)CC=C(C)C)O[C@H]5[C@@H]([C@H]([C@@H]([C@H](O5)CO)O)O)O)O)O)O)O" "InChI=InChI=1S/C33H40O15/c1-13(2)5-10-17-19(45-33-28(42)26(40)23(37)20(12-34)46-33)11-18(35)21-24(38)31(48-32-27(41)25(39)22(36)14(3)44-32)29(47-30(17)21)15-6-8-16(43-4)9-7-15/h5-9,11,14,20,22-23,25-28,32-37,39-42H,10,12H2,1-4H3/t14-,20+,22-,23+,25+,26-,27+,28+,32-,33+/m0/s1" "computed SMILES=O=C1C(OC2OC(C)C(O)C(O)C2O)=C(OC=3C1=C(O)C=C(OC4OC(CO)C(O)C(O)C4O)C3CC=C(C)C)C=5C=CC(OC)=CC5" "computed InChI=InChI=1S/C33H40O15/c1-13(2)5-10-17-19(45-33-28(42)26(40)23(37)20(12-34)46-33)11-18(35)21-24(38)31(48-32-27(41)25(39)22(36)14(3)44-32)29(47-30(17)21)15-6-8-16(43-4)9-7-15/h5-9,11,14,20,22-23,25-28,32-37,39-42H,10,12H2,1-4H3" "license=License CC-BY-NC-SA 4.0 International" "author=Plant Biology, The Noble Foundation, Ardmore, OK, US/Dennis Fine, Daniel Wherritt, and Lloyd Sumner" "ionization=ESI" "isolation width=5" "collision gas=Nitrogen" "peak width=0.012" "date=2014-01-04 08:39:15+01:00" "column=Waters Acquity BEH C18 1.7um x 2.1 x 150 mm" "retention time=732" "raw data file=C:\Data\Confirmed Standards\Confirmed stds MSMS 2Jan14\Icariin (vial 314)_MSMS_2408.d" "computed mass accuracy=48.4214919577726" "computed mass error=-0.03492157999994561" "SPLASH=splash10-014i-0009010000-167db01481198b102b0e" "submitter=Aiko Barsch (Bruker)" "MoNA Rating=4.545454545454546"
Num Peaks: 19
297.0455 0.900901
309.0439 1.001001
311.0597 1.001001
312.0648 0.600601
323.0956 1.101101
351.0893 1.901902
352.0974 2.002002
353.0971 0.700701
366.1128 12.412412
367.1206 100.000000
368.1237 17.017017
369.1275 2.102102
379.1278 0.600601
389.1400 0.900901
409.1278 1.701702
410.1329 0.700701
513.1790 14.314314
514.1827 4.004004
515.1855 0.800801


Name: Icariin
Synon: $:00in-source
DB#: MetaboBASE0781
InChIKey: TZJALUIVHRYQQB-XLRXWWTNSA-N
Instrument_type: LC-ESI-TOF
Instrument: impact HD
Ion_mode: N
Formula: C33H40O15
MW: 676
ExactMass: 676.23672058
Comments: "cas number=489-32-7" "SMILES=C[C@H]1[C@@H]([C@H]([C@H]([C@@H](O1)Oc2c(=O)c3c(cc(c(c3oc2c4ccc(cc4)OC)CC=C(C)C)O[C@H]5[C@@H]([C@H]([C@@H]([C@H](O5)CO)O)O)O)O)O)O)O" "InChI=InChI=1S/C33H40O15/c1-13(2)5-10-17-19(45-33-28(42)26(40)23(37)20(12-34)46-33)11-18(35)21-24(38)31(48-32-27(41)25(39)22(36)14(3)44-32)29(47-30(17)21)15-6-8-16(43-4)9-7-15/h5-9,11,14,20,22-23,25-28,32-37,39-42H,10,12H2,1-4H3/t14-,20+,22-,23+,25+,26-,27+,28+,32-,33+/m0/s1" "computed SMILES=O=C1C(OC2OC(C)C(O)C(O)C2O)=C(OC=3C1=C(O)C=C(OC4OC(CO)C(O)C(O)C4O)C3CC=C(C)C)C=5C=CC(OC)=CC5" "computed InChI=InChI=1S/C33H40O15/c1-13(2)5-10-17-19(45-33-28(42)26(40)23(37)20(12-34)46-33)11-18(35)21-24(38)31(48-32-27(41)25(39)22(36)14(3)44-32)29(47-30(17)21)15-6-8-16(43-4)9-7-15/h5-9,11,14,20,22-23,25-28,32-37,39-42H,10,12H2,1-4H3" "license=License CC-BY-NC-SA 4.0 International" "author=Plant Biology, The Noble Foundation, Ardmore, OK, US/Dennis Fine, Daniel Wherritt, and Lloyd Sumner" "ionization=ESI" "collision gas=Nitrogen" "peak width=0.012" "date=2014-01-04 08:39:15+01:00" "column=Waters Acquity BEH C18 1.7um x 2.1 x 150 mm" "retention time=732" "raw data file=C:\Data\Confirmed Standards\Confirmed stds MSMS 2Jan14\Icariin (vial 314)_MSMS_2408.d" "SPLASH=splash10-00di-0000000900-3b6c981c418eb6e5ac7b" "submitter=Aiko Barsch (Bruker)" "MoNA Rating=3.888888888888889"
Num Peaks: 15
112.9862 1.701702
666.0219 7.607608
667.0244 0.900901
721.2375 100.000000
722.2406 32.832833
723.2427 7.707708
724.2445 1.801802
743.2186 7.807808
744.2218 1.801802
793.1576 1.001001
811.2097 1.201201
1059.8589 0.900901
1397.4834 4.104104
1398.4803 2.702703
1399.4921 1.001001


Name: Icariin
Synon: $:00in-source
DB#: MetaboBASE0782
InChIKey: TZJALUIVHRYQQB-XLRXWWTNSA-N
Precursor_type: [M+FA-H]-
Spectrum_type: MS2
PrecursorMZ: 721.2375
Instrument_type: LC-ESI-TOF
Instrument: impact HD
Ion_mode: N
Collision_energy: 10
Formula: C33H40O15
MW: 676
ExactMass: 676.23672058
Comments: "cas number=489-32-7" "SMILES=C[C@H]1[C@@H]([C@H]([C@H]([C@@H](O1)Oc2c(=O)c3c(cc(c(c3oc2c4ccc(cc4)OC)CC=C(C)C)O[C@H]5[C@@H]([C@H]([C@@H]([C@H](O5)CO)O)O)O)O)O)O)O" "InChI=InChI=1S/C33H40O15/c1-13(2)5-10-17-19(45-33-28(42)26(40)23(37)20(12-34)46-33)11-18(35)21-24(38)31(48-32-27(41)25(39)22(36)14(3)44-32)29(47-30(17)21)15-6-8-16(43-4)9-7-15/h5-9,11,14,20,22-23,25-28,32-37,39-42H,10,12H2,1-4H3/t14-,20+,22-,23+,25+,26-,27+,28+,32-,33+/m0/s1" "computed SMILES=O=C1C(OC2OC(C)C(O)C(O)C2O)=C(OC=3C1=C(O)C=C(OC4OC(CO)C(O)C(O)C4O)C3CC=C(C)C)C=5C=CC(OC)=CC5" "computed InChI=InChI=1S/C33H40O15/c1-13(2)5-10-17-19(45-33-28(42)26(40)23(37)20(12-34)46-33)11-18(35)21-24(38)31(48-32-27(41)25(39)22(36)14(3)44-32)29(47-30(17)21)15-6-8-16(43-4)9-7-15/h5-9,11,14,20,22-23,25-28,32-37,39-42H,10,12H2,1-4H3" "license=License CC-BY-NC-SA 4.0 International" "author=Plant Biology, The Noble Foundation, Ardmore, OK, US/Dennis Fine, Daniel Wherritt, and Lloyd Sumner" "ionization=ESI" "isolation width=5" "collision gas=Nitrogen" "peak width=0.011" "date=2014-01-04 08:39:15+01:00" "column=Waters Acquity BEH C18 1.7um x 2.1 x 150 mm" "retention time=732" "raw data file=C:\Data\Confirmed Standards\Confirmed stds MSMS 2Jan14\Icariin (vial 314)_MSMS_2408.d" "computed mass accuracy=3.5749943672693725" "computed mass error=0.002578419999963444" "SPLASH=splash10-00di-0000020900-131c1c68f1f1b1537632" "submitter=Aiko Barsch (Bruker)" "MoNA Rating=4.583333333333334"
Num Peaks: 14
406.2135 1.201201
409.1322 0.900901
513.1766 19.819820
514.1813 5.305305
529.1757 3.003003
530.1752 1.301301
555.1876 1.401401
597.1998 0.800801
675.2272 1.501502
676.2432 1.001001
721.2375 100.000000
722.2408 30.230230
723.2446 7.307307
724.2442 1.101101


Name: Icariin
Synon: $:00in-source
DB#: MetaboBASE0783
InChIKey: TZJALUIVHRYQQB-XLRXWWTNSA-N
Precursor_type: [M+FA-H]-
Spectrum_type: MS2
PrecursorMZ: 721.2346
Instrument_type: LC-ESI-TOF
Instrument: impact HD
Ion_mode: N
Collision_energy: 20
Formula: C33H40O15
MW: 676
ExactMass: 676.23672058
Comments: "cas number=489-32-7" "SMILES=C[C@H]1[C@@H]([C@H]([C@H]([C@@H](O1)Oc2c(=O)c3c(cc(c(c3oc2c4ccc(cc4)OC)CC=C(C)C)O[C@H]5[C@@H]([C@H]([C@@H]([C@H](O5)CO)O)O)O)O)O)O)O" "InChI=InChI=1S/C33H40O15/c1-13(2)5-10-17-19(45-33-28(42)26(40)23(37)20(12-34)46-33)11-18(35)21-24(38)31(48-32-27(41)25(39)22(36)14(3)44-32)29(47-30(17)21)15-6-8-16(43-4)9-7-15/h5-9,11,14,20,22-23,25-28,32-37,39-42H,10,12H2,1-4H3/t14-,20+,22-,23+,25+,26-,27+,28+,32-,33+/m0/s1" "computed SMILES=O=C1C(OC2OC(C)C(O)C(O)C2O)=C(OC=3C1=C(O)C=C(OC4OC(CO)C(O)C(O)C4O)C3CC=C(C)C)C=5C=CC(OC)=CC5" "computed InChI=InChI=1S/C33H40O15/c1-13(2)5-10-17-19(45-33-28(42)26(40)23(37)20(12-34)46-33)11-18(35)21-24(38)31(48-32-27(41)25(39)22(36)14(3)44-32)29(47-30(17)21)15-6-8-16(43-4)9-7-15/h5-9,11,14,20,22-23,25-28,32-37,39-42H,10,12H2,1-4H3" "license=License CC-BY-NC-SA 4.0 International" "author=Plant Biology, The Noble Foundation, Ardmore, OK, US/Dennis Fine, Daniel Wherritt, and Lloyd Sumner" "ionization=ESI" "isolation width=5" "collision gas=Nitrogen" "peak width=0.013" "date=2014-01-04 08:39:15+01:00" "column=Waters Acquity BEH C18 1.7um x 2.1 x 150 mm" "retention time=732" "raw data file=C:\Data\Confirmed Standards\Confirmed stds MSMS 2Jan14\Icariin (vial 314)_MSMS_2408.d" "computed mass accuracy=0.44587433823989814" "computed mass error=-3.215799999907176E-4" "SPLASH=splash10-03di-0000090000-9de31877ecd025afa487" "submitter=Aiko Barsch (Bruker)" "MoNA Rating=4.615384615384616"
Num Peaks: 15
367.1216 3.903904
368.1204 1.401401
409.1311 6.406406
410.1320 1.001001
513.1780 100.000000
514.1817 25.025025
515.1828 4.404404
529.1725 36.936937
530.1763 9.809810
531.1824 1.801802
555.1890 2.702703
597.2022 0.900901
721.2346 6.606607
722.2375 1.801802
723.2554 0.900901


Name: Icariin
Synon: $:00in-source
DB#: MetaboBASE0784
InChIKey: TZJALUIVHRYQQB-XLRXWWTNSA-N
Precursor_type: [M+FA-H]-
Spectrum_type: MS2
PrecursorMZ: 721.2
Instrument_type: LC-ESI-TOF
Instrument: impact HD
Ion_mode: N
Collision_energy: 30
Formula: C33H40O15
MW: 676
ExactMass: 676.23672058
Comments: "cas number=489-32-7" "SMILES=C[C@H]1[C@@H]([C@H]([C@H]([C@@H](O1)Oc2c(=O)c3c(cc(c(c3oc2c4ccc(cc4)OC)CC=C(C)C)O[C@H]5[C@@H]([C@H]([C@@H]([C@H](O5)CO)O)O)O)O)O)O)O" "InChI=InChI=1S/C33H40O15/c1-13(2)5-10-17-19(45-33-28(42)26(40)23(37)20(12-34)46-33)11-18(35)21-24(38)31(48-32-27(41)25(39)22(36)14(3)44-32)29(47-30(17)21)15-6-8-16(43-4)9-7-15/h5-9,11,14,20,22-23,25-28,32-37,39-42H,10,12H2,1-4H3/t14-,20+,22-,23+,25+,26-,27+,28+,32-,33+/m0/s1" "computed SMILES=O=C1C(OC2OC(C)C(O)C(O)C2O)=C(OC=3C1=C(O)C=C(OC4OC(CO)C(O)C(O)C4O)C3CC=C(C)C)C=5C=CC(OC)=CC5" "computed InChI=InChI=1S/C33H40O15/c1-13(2)5-10-17-19(45-33-28(42)26(40)23(37)20(12-34)46-33)11-18(35)21-24(38)31(48-32-27(41)25(39)22(36)14(3)44-32)29(47-30(17)21)15-6-8-16(43-4)9-7-15/h5-9,11,14,20,22-23,25-28,32-37,39-42H,10,12H2,1-4H3" "license=License CC-BY-NC-SA 4.0 International" "author=Plant Biology, The Noble Foundation, Ardmore, OK, US/Dennis Fine, Daniel Wherritt, and Lloyd Sumner" "ionization=ESI" "isolation width=5" "collision gas=Nitrogen" "peak width=0.013" "date=2014-01-04 08:39:15+01:00" "column=Waters Acquity BEH C18 1.7um x 2.1 x 150 mm" "retention time=732" "raw data file=C:\Data\Confirmed Standards\Confirmed stds MSMS 2Jan14\Icariin (vial 314)_MSMS_2408.d" "computed mass accuracy=48.4214919577726" "computed mass error=-0.03492157999994561" "SPLASH=splash10-03xr-0003090000-2f314f54d3758131b887" "submitter=Aiko Barsch (Bruker)" "MoNA Rating=4.545454545454546"
Num Peaks: 14
366.1115 1.201201
367.1202 67.567568
368.1231 12.312312
369.1254 1.701702
409.1312 14.114114
410.1296 2.802803
513.1783 100.000000
514.1815 25.925926
515.1843 5.205205
516.1929 1.501502
529.1724 50.450450
530.1771 11.311311
531.1737 2.402402
555.1849 1.301301


Name: Icariin
Synon: $:00in-source
DB#: MetaboBASE0785
InChIKey: TZJALUIVHRYQQB-XLRXWWTNSA-N
Precursor_type: [M+FA-H]-
Spectrum_type: MS2
PrecursorMZ: 721.2
Instrument_type: LC-ESI-TOF
Instrument: impact HD
Ion_mode: N
Collision_energy: 40
Formula: C33H40O15
MW: 676
ExactMass: 676.23672058
Comments: "cas number=489-32-7" "SMILES=C[C@H]1[C@@H]([C@H]([C@H]([C@@H](O1)Oc2c(=O)c3c(cc(c(c3oc2c4ccc(cc4)OC)CC=C(C)C)O[C@H]5[C@@H]([C@H]([C@@H]([C@H](O5)CO)O)O)O)O)O)O)O" "InChI=InChI=1S/C33H40O15/c1-13(2)5-10-17-19(45-33-28(42)26(40)23(37)20(12-34)46-33)11-18(35)21-24(38)31(48-32-27(41)25(39)22(36)14(3)44-32)29(47-30(17)21)15-6-8-16(43-4)9-7-15/h5-9,11,14,20,22-23,25-28,32-37,39-42H,10,12H2,1-4H3/t14-,20+,22-,23+,25+,26-,27+,28+,32-,33+/m0/s1" "computed SMILES=O=C1C(OC2OC(C)C(O)C(O)C2O)=C(OC=3C1=C(O)C=C(OC4OC(CO)C(O)C(O)C4O)C3CC=C(C)C)C=5C=CC(OC)=CC5" "computed InChI=InChI=1S/C33H40O15/c1-13(2)5-10-17-19(45-33-28(42)26(40)23(37)20(12-34)46-33)11-18(35)21-24(38)31(48-32-27(41)25(39)22(36)14(3)44-32)29(47-30(17)21)15-6-8-16(43-4)9-7-15/h5-9,11,14,20,22-23,25-28,32-37,39-42H,10,12H2,1-4H3" "license=License CC-BY-NC-SA 4.0 International" "author=Plant Biology, The Noble Foundation, Ardmore, OK, US/Dennis Fine, Daniel Wherritt, and Lloyd Sumner" "ionization=ESI" "isolation width=5" "collision gas=Nitrogen" "peak width=0.014" "date=2014-01-04 08:39:15+01:00" "column=Waters Acquity BEH C18 1.7um x 2.1 x 150 mm" "retention time=732" "raw data file=C:\Data\Confirmed Standards\Confirmed stds MSMS 2Jan14\Icariin (vial 314)_MSMS_2408.d" "computed mass accuracy=48.4214919577726" "computed mass error=-0.03492157999994561" "SPLASH=splash10-014i-0009030000-86bc75df7adfcdc54933" "submitter=Aiko Barsch (Bruker)" "MoNA Rating=4.545454545454546"
Num Peaks: 11
366.1139 3.003003
367.1207 100.000000
368.1235 16.216216
369.1259 1.501502
409.1302 5.605606
410.1356 1.301301
513.1788 37.437437
514.1846 8.108108
515.1824 0.900901
529.1736 4.904905
530.1778 1.701702


Name: Homoeriodictyol
Synon: $:00in-source
DB#: MetaboBASE0786
InChIKey: FTODBIPDTXRIGS-ZDUSSCGKSA-N
Precursor_type: [M-H]-
Spectrum_type: MS2
PrecursorMZ: 301.1
Instrument_type: LC-ESI-TOF
Instrument: impact HD
Ion_mode: N
Collision_energy: 40
Formula: C16H14O6
MW: 302
ExactMass: 302.07903816799995
Comments: "cas number=446-71-9" "SMILES=COc1cc(ccc1O)[C@@H]2CC(=O)c3c(cc(cc3O2)O)O" "InChI=InChI=1S/C16H14O6/c1-21-14-4-8(2-3-10(14)18)13-7-12(20)16-11(19)5-9(17)6-15(16)22-13/h2-6,13,17-19H,7H2,1H3/t13-/m0/s1" "computed SMILES=O=C1C=2C(O)=CC(O)=CC2OC(C3=CC=C(O)C(OC)=C3)C1" "license=License CC-BY-NC-SA 4.0 International" "author=Plant Biology, The Noble Foundation, Ardmore, OK, US/Dennis Fine, Daniel Wherritt, and Lloyd Sumner" "ionization=ESI" "isolation width=5" "collision gas=Nitrogen" "peak width=0.014" "date=2014-01-04 20:11:41+01:00" "column=Waters Acquity BEH C18 1.7um x 2.1 x 150 mm" "retention time=596.4" "raw data file=C:\Data\Confirmed Standards\Confirmed stds MSMS 2Jan14\Homoeriodictyol _MSMS.d" "computed mass accuracy=93.78223845917938" "computed mass error=0.028237832000058916" "SPLASH=splash10-001i-0900000000-5bd7a56b8c4da5db2c20" "submitter=Aiko Barsch (Bruker)" "MoNA Rating=4.545454545454546"
Num Peaks: 8
107.0138 9.009009
108.0213 47.747748
134.0373 100.000000
135.0426 10.810811
136.0164 18.818819
149.0608 11.911912
151.0043 30.930931
164.0121 13.613614


Name: Homoeriodictyol
Synon: $:00in-source
DB#: MetaboBASE0787
InChIKey: FTODBIPDTXRIGS-ZDUSSCGKSA-N
Instrument_type: LC-ESI-TOF
Instrument: impact HD
Ion_mode: N
Formula: C16H14O6
MW: 302
ExactMass: 302.07903816799995
Comments: "cas number=446-71-9" "SMILES=COc1cc(ccc1O)[C@@H]2CC(=O)c3c(cc(cc3O2)O)O" "InChI=InChI=1S/C16H14O6/c1-21-14-4-8(2-3-10(14)18)13-7-12(20)16-11(19)5-9(17)6-15(16)22-13/h2-6,13,17-19H,7H2,1H3/t13-/m0/s1" "computed SMILES=O=C1C=2C(O)=CC(O)=CC2OC(C3=CC=C(O)C(OC)=C3)C1" "license=License CC-BY-NC-SA 4.0 International" "author=Plant Biology, The Noble Foundation, Ardmore, OK, US/Dennis Fine, Daniel Wherritt, and Lloyd Sumner" "ionization=ESI" "collision gas=Nitrogen" "peak width=0.013" "date=2014-01-04 20:11:41+01:00" "column=Waters Acquity BEH C18 1.7um x 2.1 x 150 mm" "retention time=596.4" "raw data file=C:\Data\Confirmed Standards\Confirmed stds MSMS 2Jan14\Homoeriodictyol _MSMS.d" "SPLASH=splash10-0udi-0009000000-babca2b5da308c2ea710" "submitter=Aiko Barsch (Bruker)" "MoNA Rating=3.888888888888889"
Num Peaks: 19
112.9860 0.400400
116.9293 0.300300
174.9561 0.200200
235.9257 0.400400
242.9429 0.300300
248.9601 0.300300
301.0722 100.000000
302.0757 13.813814
303.0773 1.301301
369.0599 1.701702
370.0644 0.300300
431.0286 0.200200
437.0480 0.300300
492.0022 0.200200
499.0193 0.200200
603.1502 6.906907
604.1539 2.202202
605.1551 0.400400
666.0187 0.700701


Name: Homoeriodictyol
Synon: $:00in-source
DB#: MetaboBASE0788
InChIKey: FTODBIPDTXRIGS-ZDUSSCGKSA-N
Precursor_type: [M-H]-
Spectrum_type: MS2
PrecursorMZ: 301.0722
Instrument_type: LC-ESI-TOF
Instrument: impact HD
Ion_mode: N
Collision_energy: 20
Formula: C16H14O6
MW: 302
ExactMass: 302.079038168
Comments: "cas number=446-71-9" "SMILES=COc1cc(ccc1O)[C@@H]2CC(=O)c3c(cc(cc3O2)O)O" "InChI=InChI=1S/C16H14O6/c1-21-14-4-8(2-3-10(14)18)13-7-12(20)16-11(19)5-9(17)6-15(16)22-13/h2-6,13,17-19H,7H2,1H3/t13-/m0/s1" "computed SMILES=O=C1C=2C(O)=CC(O)=CC2OC(C3=CC=C(O)C(OC)=C3)C1" "license=License CC-BY-NC-SA 4.0 International" "author=Plant Biology, The Noble Foundation, Ardmore, OK, US/Dennis Fine, Daniel Wherritt, and Lloyd Sumner" "ionization=ESI" "isolation width=5" "collision gas=Nitrogen" "peak width=0.014" "date=2014-01-04 20:11:41+01:00" "column=Waters Acquity BEH C18 1.7um x 2.1 x 150 mm" "retention time=596.4" "raw data file=C:\Data\Confirmed Standards\Confirmed stds MSMS 2Jan14\Homoeriodictyol _MSMS.d" "computed mass accuracy=1.4542425371346228" "computed mass error=4.378319999887026E-4" "SPLASH=splash10-0udi-0419000000-e0cf2e2879ffbeafcf19" "submitter=Aiko Barsch (Bruker)" "MoNA Rating=4.583333333333334"
Num Peaks: 17
107.0127 2.102102
108.0218 2.502503
123.0446 3.403403
134.0379 2.502503
149.0605 9.909910
151.0033 35.135135
152.0082 1.901902
164.0109 1.901902
177.0209 3.803804
241.0494 1.401401
257.0816 2.102102
258.0561 2.602603
286.0469 7.407407
287.0545 1.401401
301.0722 100.000000
302.0745 12.012012
303.0755 1.901902


Name: Homoeriodictyol
Synon: $:00in-source
DB#: MetaboBASE0789
InChIKey: FTODBIPDTXRIGS-ZDUSSCGKSA-N
Precursor_type: [M-H]-
Spectrum_type: MS2
PrecursorMZ: 301.072
Instrument_type: LC-ESI-TOF
Instrument: impact HD
Ion_mode: N
Collision_energy: 10
Formula: C16H14O6
MW: 302
ExactMass: 302.07903816799995
Comments: "cas number=446-71-9" "SMILES=COc1cc(ccc1O)[C@@H]2CC(=O)c3c(cc(cc3O2)O)O" "InChI=InChI=1S/C16H14O6/c1-21-14-4-8(2-3-10(14)18)13-7-12(20)16-11(19)5-9(17)6-15(16)22-13/h2-6,13,17-19H,7H2,1H3/t13-/m0/s1" "computed SMILES=O=C1C=2C(O)=CC(O)=CC2OC(C3=CC=C(O)C(OC)=C3)C1" "license=License CC-BY-NC-SA 4.0 International" "author=Plant Biology, The Noble Foundation, Ardmore, OK, US/Dennis Fine, Daniel Wherritt, and Lloyd Sumner" "ionization=ESI" "isolation width=5" "collision gas=Nitrogen" "peak width=0.011" "date=2014-01-04 20:11:41+01:00" "column=Waters Acquity BEH C18 1.7um x 2.1 x 150 mm" "retention time=596.4" "raw data file=C:\Data\Confirmed Standards\Confirmed stds MSMS 2Jan14\Homoeriodictyol _MSMS.d" "computed mass accuracy=0.7899505767354875" "computed mass error=2.378320000389067E-4" "SPLASH=splash10-0udi-0009000000-b0dd3c7a023ec99212fd" "submitter=Aiko Barsch (Bruker)" "MoNA Rating=4.615384615384616"
Num Peaks: 5
151.0028 0.300300
286.0469 0.300300
301.0720 100.000000
302.0755 9.009009
303.0772 1.301301


Name: Homoeriodictyol
Synon: $:00in-source
DB#: MetaboBASE0790
InChIKey: FTODBIPDTXRIGS-ZDUSSCGKSA-N
Precursor_type: [M-H]-
Spectrum_type: MS2
PrecursorMZ: 301.0729
Instrument_type: LC-ESI-TOF
Instrument: impact HD
Ion_mode: N
Collision_energy: 30
Formula: C16H14O6
MW: 302
ExactMass: 302.079038168
Comments: "cas number=446-71-9" "SMILES=COc1cc(ccc1O)[C@@H]2CC(=O)c3c(cc(cc3O2)O)O" "InChI=InChI=1S/C16H14O6/c1-21-14-4-8(2-3-10(14)18)13-7-12(20)16-11(19)5-9(17)6-15(16)22-13/h2-6,13,17-19H,7H2,1H3/t13-/m0/s1" "computed SMILES=O=C1C=2C(O)=CC(O)=CC2OC(C3=CC=C(O)C(OC)=C3)C1" "license=License CC-BY-NC-SA 4.0 International" "author=Plant Biology, The Noble Foundation, Ardmore, OK, US/Dennis Fine, Daniel Wherritt, and Lloyd Sumner" "ionization=ESI" "isolation width=5" "collision gas=Nitrogen" "peak width=0.016" "date=2014-01-04 20:11:41+01:00" "column=Waters Acquity BEH C18 1.7um x 2.1 x 150 mm" "retention time=596.4" "raw data file=C:\Data\Confirmed Standards\Confirmed stds MSMS 2Jan14\Homoeriodictyol _MSMS.d" "computed mass accuracy=3.779257448888686" "computed mass error=0.0011378319999835185" "SPLASH=splash10-0ue9-0900000000-5b9a0b6e761c35b33019" "submitter=Aiko Barsch (Bruker)" "MoNA Rating=4.583333333333334"
Num Peaks: 15
107.0134 21.521522
108.0211 24.424424
123.0445 13.113113
134.0374 96.596597
136.0171 19.319319
149.0610 46.346346
150.0634 7.807808
151.0036 100.000000
152.0067 8.208208
164.0115 41.141141
165.0198 12.112112
177.0221 10.410410
196.0017 10.010010
285.0382 8.108108
301.0729 10.110110


Name: Glycyrrhizic acid
Synon: $:00in-source
DB#: MetaboBASE0791
InChIKey: LPLVUJXQOOQHMX-QWBHMCJMSA-N
Precursor_type: [M-H]-
Spectrum_type: MS2
PrecursorMZ: 821.3934
Instrument_type: LC-ESI-TOF
Instrument: impact HD
Ion_mode: N
Collision_energy: 20
Formula: C42H62O16
MW: 822
ExactMass: 822.4037859040001
Comments: "cas number=1405-86-3" "SMILES=C[C@]12CC[C@](C[C@H]1C3=CC(=O)[C@@H]4[C@]5(CC[C@@H](C([C@@H]5CC[C@]4([C@@]3(CC2)C)C)(C)C)O[C@@H]6[C@@H]([C@H]([C@@H]([C@H](O6)C(=O)O)O)O)O[C@H]7[C@@H]([C@H]([C@@H]([C@H](O7)C(=O)O)O)O)O)C)(C)C(=O)O" "computed SMILES=O=C(O)C1OC(OC2C(OC(C(=O)O)C(O)C2O)OC3CCC4(C)C5C(=O)C=C6C7CC(C(=O)O)(C)CCC7(C)CCC6(C)C5(C)CCC4C3(C)C)C(O)C(O)C1O" "computed InChI=InChI=1S/C42H62O16/c1-37(2)21-8-11-42(7)31(20(43)16-18-19-17-39(4,36(53)54)13-12-38(19,3)14-15-41(18,42)6)40(21,5)10-9-22(37)55-35-30(26(47)25(46)29(57-35)33(51)52)58-34-27(48)23(44)24(45)28(56-34)32(49)50/h16,19,21-31,34-35,44-48H,8-15,17H2,1-7H3,(H,49,50)(H,51,52)(H,53,54)/t19-,21-,22-,23-,24-,25-,26-,27+,28-,29-,30+,31+,34-,35-,38+,39-,40-,41+,42+/m0/s1" "synonym=Glycyrrhizic acid" "license=License CC-BY-NC-SA 4.0 International" "author=Plant Biology, The Noble Foundation, Ardmore, OK, US/Dennis Fine, Daniel Wherritt, and Lloyd Sumner" "ionization=ESI" "isolation width=5" "collision gas=Nitrogen" "peak width=0.011" "date=2014-01-05 00:56:48+01:00" "column=Waters Acquity BEH C18 1.7um x 2.1 x 150 mm" "retention time=922.8" "raw data file=C:\Data\Confirmed Standards\Confirmed stds MSMS 2Jan14\Glycyrrhizic acid _MSMS.d" "computed mass accuracy=3.7861321992415" "computed mass error=-0.0031099039999844535" "SPLASH=splash10-00di-0000000090-f5c5cfd754bfd69139d6" "submitter=Aiko Barsch (Bruker)" "MoNA Rating=4.583333333333334"
Num Peaks: 3
821.3934 100.000000
822.3947 43.043043
823.4001 8.108108


Name: Glycyrrhizic acid
Synon: $:00in-source
DB#: MetaboBASE0792
InChIKey: LPLVUJXQOOQHMX-QWBHMCJMSA-N
Precursor_type: [M-H]-
Spectrum_type: MS2
PrecursorMZ: 821.3948
Instrument_type: LC-ESI-TOF
Instrument: impact HD
Ion_mode: N
Collision_energy: 10
Formula: C42H62O16
MW: 822
ExactMass: 822.403785904
Comments: "cas number=1405-86-3" "SMILES=C[C@]12CC[C@](C[C@H]1C3=CC(=O)[C@@H]4[C@]5(CC[C@@H](C([C@@H]5CC[C@]4([C@@]3(CC2)C)C)(C)C)O[C@@H]6[C@@H]([C@H]([C@@H]([C@H](O6)C(=O)O)O)O)O[C@H]7[C@@H]([C@H]([C@@H]([C@H](O7)C(=O)O)O)O)O)C)(C)C(=O)O" "computed SMILES=O=C(O)C1OC(OC2C(OC(C(=O)O)C(O)C2O)OC3CCC4(C)C5C(=O)C=C6C7CC(C(=O)O)(C)CCC7(C)CCC6(C)C5(C)CCC4C3(C)C)C(O)C(O)C1O" "computed InChI=InChI=1S/C42H62O16/c1-37(2)21-8-11-42(7)31(20(43)16-18-19-17-39(4,36(53)54)13-12-38(19,3)14-15-41(18,42)6)40(21,5)10-9-22(37)55-35-30(26(47)25(46)29(57-35)33(51)52)58-34-27(48)23(44)24(45)28(56-34)32(49)50/h16,19,21-31,34-35,44-48H,8-15,17H2,1-7H3,(H,49,50)(H,51,52)(H,53,54)/t19-,21-,22-,23-,24-,25-,26-,27+,28-,29-,30+,31+,34-,35-,38+,39-,40-,41+,42+/m0/s1" "synonym=Glycyrrhizic acid" "license=License CC-BY-NC-SA 4.0 International" "author=Plant Biology, The Noble Foundation, Ardmore, OK, US/Dennis Fine, Daniel Wherritt, and Lloyd Sumner" "ionization=ESI" "isolation width=5" "collision gas=Nitrogen" "peak width=0.012" "date=2014-01-05 00:56:48+01:00" "column=Waters Acquity BEH C18 1.7um x 2.1 x 150 mm" "retention time=922.8" "raw data file=C:\Data\Confirmed Standards\Confirmed stds MSMS 2Jan14\Glycyrrhizic acid _MSMS.d" "computed mass accuracy=2.0817078460700444" "computed mass error=-0.001709903999881135" "SPLASH=splash10-00di-0000000090-ec1596ab8cbd06c136c1" "submitter=Aiko Barsch (Bruker)" "MoNA Rating=4.583333333333334"
Num Peaks: 3
821.3948 100.000000
822.3992 42.642643
823.4048 7.707708


Name: Glycyrrhizic acid
Synon: $:00in-source
DB#: MetaboBASE0793
InChIKey: LPLVUJXQOOQHMX-QWBHMCJMSA-N
Instrument_type: LC-ESI-TOF
Instrument: impact HD
Ion_mode: N
Formula: C42H62O16
MW: 822
ExactMass: 822.403785904
Comments: "cas number=1405-86-3" "SMILES=C[C@]12CC[C@](C[C@H]1C3=CC(=O)[C@@H]4[C@]5(CC[C@@H](C([C@@H]5CC[C@]4([C@@]3(CC2)C)C)(C)C)O[C@@H]6[C@@H]([C@H]([C@@H]([C@H](O6)C(=O)O)O)O)O[C@H]7[C@@H]([C@H]([C@@H]([C@H](O7)C(=O)O)O)O)O)C)(C)C(=O)O" "computed SMILES=O=C(O)C1OC(OC2C(OC(C(=O)O)C(O)C2O)OC3CCC4(C)C5C(=O)C=C6C7CC(C(=O)O)(C)CCC7(C)CCC6(C)C5(C)CCC4C3(C)C)C(O)C(O)C1O" "computed InChI=InChI=1S/C42H62O16/c1-37(2)21-8-11-42(7)31(20(43)16-18-19-17-39(4,36(53)54)13-12-38(19,3)14-15-41(18,42)6)40(21,5)10-9-22(37)55-35-30(26(47)25(46)29(57-35)33(51)52)58-34-27(48)23(44)24(45)28(56-34)32(49)50/h16,19,21-31,34-35,44-48H,8-15,17H2,1-7H3,(H,49,50)(H,51,52)(H,53,54)/t19-,21-,22-,23-,24-,25-,26-,27+,28-,29-,30+,31+,34-,35-,38+,39-,40-,41+,42+/m0/s1" "synonym=Glycyrrhizic acid" "license=License CC-BY-NC-SA 4.0 International" "author=Plant Biology, The Noble Foundation, Ardmore, OK, US/Dennis Fine, Daniel Wherritt, and Lloyd Sumner" "ionization=ESI" "collision gas=Nitrogen" "peak width=0.012" "date=2014-01-05 00:56:48+01:00" "column=Waters Acquity BEH C18 1.7um x 2.1 x 150 mm" "retention time=922.8" "raw data file=C:\Data\Confirmed Standards\Confirmed stds MSMS 2Jan14\Glycyrrhizic acid _MSMS.d" "SPLASH=splash10-00di-0000000090-b5f59a5381104b4f7149" "submitter=Aiko Barsch (Bruker)" "MoNA Rating=3.888888888888889"
Num Peaks: 14
666.0179 4.004004
821.3938 100.000000
822.3968 39.439439
823.4001 10.110110
824.4026 2.202202
832.3871 1.001001
832.8859 1.201201
843.3744 8.908909
843.8730 1.101101
844.3763 3.403403
845.3823 1.201201
911.3597 1.901902
912.3651 1.001001
1233.0918 1.201201


Name: Glycyrrhizic acid
Synon: $:00in-source
DB#: MetaboBASE0794
InChIKey: LPLVUJXQOOQHMX-QWBHMCJMSA-N
Precursor_type: [M-H]-
Spectrum_type: MS2
PrecursorMZ: 821.2
Instrument_type: LC-ESI-TOF
Instrument: impact HD
Ion_mode: N
Collision_energy: 70
Formula: C42H62O16
MW: 822
ExactMass: 822.4037859040001
Comments: "cas number=1405-86-3" "SMILES=C[C@]12CC[C@](C[C@H]1C3=CC(=O)[C@@H]4[C@]5(CC[C@@H](C([C@@H]5CC[C@]4([C@@]3(CC2)C)C)(C)C)O[C@@H]6[C@@H]([C@H]([C@@H]([C@H](O6)C(=O)O)O)O)O[C@H]7[C@@H]([C@H]([C@@H]([C@H](O7)C(=O)O)O)O)O)C)(C)C(=O)O" "computed SMILES=O=C(O)C1OC(OC2C(OC(C(=O)O)C(O)C2O)OC3CCC4(C)C5C(=O)C=C6C7CC(C(=O)O)(C)CCC7(C)CCC6(C)C5(C)CCC4C3(C)C)C(O)C(O)C1O" "computed InChI=InChI=1S/C42H62O16/c1-37(2)21-8-11-42(7)31(20(43)16-18-19-17-39(4,36(53)54)13-12-38(19,3)14-15-41(18,42)6)40(21,5)10-9-22(37)55-35-30(26(47)25(46)29(57-35)33(51)52)58-34-27(48)23(44)24(45)28(56-34)32(49)50/h16,19,21-31,34-35,44-48H,8-15,17H2,1-7H3,(H,49,50)(H,51,52)(H,53,54)/t19-,21-,22-,23-,24-,25-,26-,27+,28-,29-,30+,31+,34-,35-,38+,39-,40-,41+,42+/m0/s1" "synonym=Glycyrrhizic acid" "license=License CC-BY-NC-SA 4.0 International" "author=Plant Biology, The Noble Foundation, Ardmore, OK, US/Dennis Fine, Daniel Wherritt, and Lloyd Sumner" "ionization=ESI" "isolation width=5" "collision gas=Nitrogen" "peak width=0.019" "date=2014-01-08 10:10:13+01:00" "column=Waters Acquity BEH C18 1.7um x 2.1 x 150 mm" "retention time=922.8" "raw data file=C:\Data\Confirmed Standards\Confirmed stds MSMS 7Jan14\Glycyrrhizic acid _MSMS.d" "computed mass accuracy=239.29603507060563" "computed mass error=-0.19650990399998136" "SPLASH=splash10-0w29-0709000000-3a40dbcd4a9e24a4e64a" "submitter=Aiko Barsch (Bruker)" "MoNA Rating=4.545454545454546"
Num Peaks: 3
113.0251 54.454454
193.0354 33.233233
351.0552 100.000000


Name: Glycyrrhizic acid
Synon: $:00in-source
DB#: MetaboBASE0795
InChIKey: LPLVUJXQOOQHMX-QWBHMCJMSA-N
Precursor_type: [M-H]-
Spectrum_type: MS2
PrecursorMZ: 821.3939
Instrument_type: LC-ESI-TOF
Instrument: impact HD
Ion_mode: N
Collision_energy: 30
Formula: C42H62O16
MW: 822
ExactMass: 822.403785904
Comments: "cas number=1405-86-3" "SMILES=C[C@]12CC[C@](C[C@H]1C3=CC(=O)[C@@H]4[C@]5(CC[C@@H](C([C@@H]5CC[C@]4([C@@]3(CC2)C)C)(C)C)O[C@@H]6[C@@H]([C@H]([C@@H]([C@H](O6)C(=O)O)O)O)O[C@H]7[C@@H]([C@H]([C@@H]([C@H](O7)C(=O)O)O)O)O)C)(C)C(=O)O" "computed SMILES=O=C(O)C1OC(OC2C(OC(C(=O)O)C(O)C2O)OC3CCC4(C)C5C(=O)C=C6C7CC(C(=O)O)(C)CCC7(C)CCC6(C)C5(C)CCC4C3(C)C)C(O)C(O)C1O" "computed InChI=InChI=1S/C42H62O16/c1-37(2)21-8-11-42(7)31(20(43)16-18-19-17-39(4,36(53)54)13-12-38(19,3)14-15-41(18,42)6)40(21,5)10-9-22(37)55-35-30(26(47)25(46)29(57-35)33(51)52)58-34-27(48)23(44)24(45)28(56-34)32(49)50/h16,19,21-31,34-35,44-48H,8-15,17H2,1-7H3,(H,49,50)(H,51,52)(H,53,54)/t19-,21-,22-,23-,24-,25-,26-,27+,28-,29-,30+,31+,34-,35-,38+,39-,40-,41+,42+/m0/s1" "synonym=Glycyrrhizic acid" "license=License CC-BY-NC-SA 4.0 International" "author=Plant Biology, The Noble Foundation, Ardmore, OK, US/Dennis Fine, Daniel Wherritt, and Lloyd Sumner" "ionization=ESI" "isolation width=5" "collision gas=Nitrogen" "peak width=0.012" "date=2014-01-05 00:56:48+01:00" "column=Waters Acquity BEH C18 1.7um x 2.1 x 150 mm" "retention time=922.8" "raw data file=C:\Data\Confirmed Standards\Confirmed stds MSMS 2Jan14\Glycyrrhizic acid _MSMS.d" "computed mass accuracy=3.1774085489100785" "computed mass error=-0.00260990399988259" "SPLASH=splash10-00di-0000000090-00d5155c760746cee29c" "submitter=Aiko Barsch (Bruker)" "MoNA Rating=4.583333333333334"
Num Peaks: 4
351.0539 3.903904
821.3939 100.000000
822.3965 41.541542
823.3935 7.707708


Name: Glycyrrhizic acid
Synon: $:00in-source
DB#: MetaboBASE0796
InChIKey: LPLVUJXQOOQHMX-QWBHMCJMSA-N
Precursor_type: [M-H]-
Spectrum_type: MS2
PrecursorMZ: 821.3927
Instrument_type: LC-ESI-TOF
Instrument: impact HD
Ion_mode: N
Collision_energy: 40
Formula: C42H62O16
MW: 822
ExactMass: 822.403785904
Comments: "cas number=1405-86-3" "SMILES=C[C@]12CC[C@](C[C@H]1C3=CC(=O)[C@@H]4[C@]5(CC[C@@H](C([C@@H]5CC[C@]4([C@@]3(CC2)C)C)(C)C)O[C@@H]6[C@@H]([C@H]([C@@H]([C@H](O6)C(=O)O)O)O)O[C@H]7[C@@H]([C@H]([C@@H]([C@H](O7)C(=O)O)O)O)O)C)(C)C(=O)O" "computed SMILES=O=C(O)C1OC(OC2C(OC(C(=O)O)C(O)C2O)OC3CCC4(C)C5C(=O)C=C6C7CC(C(=O)O)(C)CCC7(C)CCC6(C)C5(C)CCC4C3(C)C)C(O)C(O)C1O" "computed InChI=InChI=1S/C42H62O16/c1-37(2)21-8-11-42(7)31(20(43)16-18-19-17-39(4,36(53)54)13-12-38(19,3)14-15-41(18,42)6)40(21,5)10-9-22(37)55-35-30(26(47)25(46)29(57-35)33(51)52)58-34-27(48)23(44)24(45)28(56-34)32(49)50/h16,19,21-31,34-35,44-48H,8-15,17H2,1-7H3,(H,49,50)(H,51,52)(H,53,54)/t19-,21-,22-,23-,24-,25-,26-,27+,28-,29-,30+,31+,34-,35-,38+,39-,40-,41+,42+/m0/s1" "synonym=Glycyrrhizic acid" "license=License CC-BY-NC-SA 4.0 International" "author=Plant Biology, The Noble Foundation, Ardmore, OK, US/Dennis Fine, Daniel Wherritt, and Lloyd Sumner" "ionization=ESI" "isolation width=5" "collision gas=Nitrogen" "peak width=0.015" "date=2014-01-05 00:56:48+01:00" "column=Waters Acquity BEH C18 1.7um x 2.1 x 150 mm" "retention time=922.8" "raw data file=C:\Data\Confirmed Standards\Confirmed stds MSMS 2Jan14\Glycyrrhizic acid _MSMS.d" "computed mass accuracy=4.638346554482924" "computed mass error=-0.003809903999922426" "SPLASH=splash10-00di-0001000090-5fd4d3fb6b71940d3e21" "submitter=Aiko Barsch (Bruker)" "MoNA Rating=4.583333333333334"
Num Peaks: 4
351.0579 18.618619
821.3927 100.000000
822.3968 41.841842
823.3974 8.308308


Name: Glycyrrhizic acid
Synon: $:00in-source
DB#: MetaboBASE0797
InChIKey: LPLVUJXQOOQHMX-QWBHMCJMSA-N
Precursor_type: [M-H]-
Spectrum_type: MS2
PrecursorMZ: 821.3927
Instrument_type: LC-ESI-TOF
Instrument: impact HD
Ion_mode: N
Collision_energy: 50
Formula: C42H62O16
MW: 822
ExactMass: 822.4037859040001
Comments: "cas number=1405-86-3" "SMILES=C[C@]12CC[C@](C[C@H]1C3=CC(=O)[C@@H]4[C@]5(CC[C@@H](C([C@@H]5CC[C@]4([C@@]3(CC2)C)C)(C)C)O[C@@H]6[C@@H]([C@H]([C@@H]([C@H](O6)C(=O)O)O)O)O[C@H]7[C@@H]([C@H]([C@@H]([C@H](O7)C(=O)O)O)O)O)C)(C)C(=O)O" "computed SMILES=O=C(O)C1OC(OC2C(OC(C(=O)O)C(O)C2O)OC3CCC4(C)C5C(=O)C=C6C7CC(C(=O)O)(C)CCC7(C)CCC6(C)C5(C)CCC4C3(C)C)C(O)C(O)C1O" "computed InChI=InChI=1S/C42H62O16/c1-37(2)21-8-11-42(7)31(20(43)16-18-19-17-39(4,36(53)54)13-12-38(19,3)14-15-41(18,42)6)40(21,5)10-9-22(37)55-35-30(26(47)25(46)29(57-35)33(51)52)58-34-27(48)23(44)24(45)28(56-34)32(49)50/h16,19,21-31,34-35,44-48H,8-15,17H2,1-7H3,(H,49,50)(H,51,52)(H,53,54)/t19-,21-,22-,23-,24-,25-,26-,27+,28-,29-,30+,31+,34-,35-,38+,39-,40-,41+,42+/m0/s1" "synonym=Glycyrrhizic acid" "license=License CC-BY-NC-SA 4.0 International" "author=Plant Biology, The Noble Foundation, Ardmore, OK, US/Dennis Fine, Daniel Wherritt, and Lloyd Sumner" "ionization=ESI" "isolation width=5" "collision gas=Nitrogen" "peak width=0.016" "date=2014-01-05 00:56:48+01:00" "column=Waters Acquity BEH C18 1.7um x 2.1 x 150 mm" "retention time=922.8" "raw data file=C:\Data\Confirmed Standards\Confirmed stds MSMS 2Jan14\Glycyrrhizic acid _MSMS.d" "computed mass accuracy=4.638346554621331" "computed mass error=-0.003809904000036113" "SPLASH=splash10-0fk9-0104000090-35df1ca6b0cc93c2681b" "submitter=Aiko Barsch (Bruker)" "MoNA Rating=4.583333333333334"
Num Peaks: 7
113.0244 10.210210
193.0357 6.506507
351.0580 71.471471
352.0637 6.406406
821.3927 100.000000
822.3959 36.436436
823.3984 7.107107


Name: Glycyrrhizic acid
Synon: $:00in-source
DB#: MetaboBASE0798
InChIKey: LPLVUJXQOOQHMX-QWBHMCJMSA-N
Precursor_type: [M-H]-
Spectrum_type: MS2
PrecursorMZ: 821.3962
Instrument_type: LC-ESI-TOF
Instrument: impact HD
Ion_mode: N
Collision_energy: 60
Formula: C42H62O16
MW: 822
ExactMass: 822.403785904
Comments: "cas number=1405-86-3" "SMILES=C[C@]12CC[C@](C[C@H]1C3=CC(=O)[C@@H]4[C@]5(CC[C@@H](C([C@@H]5CC[C@]4([C@@]3(CC2)C)C)(C)C)O[C@@H]6[C@@H]([C@H]([C@@H]([C@H](O6)C(=O)O)O)O)O[C@H]7[C@@H]([C@H]([C@@H]([C@H](O7)C(=O)O)O)O)O)C)(C)C(=O)O" "computed SMILES=O=C(O)C1OC(OC2C(OC(C(=O)O)C(O)C2O)OC3CCC4(C)C5C(=O)C=C6C7CC(C(=O)O)(C)CCC7(C)CCC6(C)C5(C)CCC4C3(C)C)C(O)C(O)C1O" "computed InChI=InChI=1S/C42H62O16/c1-37(2)21-8-11-42(7)31(20(43)16-18-19-17-39(4,36(53)54)13-12-38(19,3)14-15-41(18,42)6)40(21,5)10-9-22(37)55-35-30(26(47)25(46)29(57-35)33(51)52)58-34-27(48)23(44)24(45)28(56-34)32(49)50/h16,19,21-31,34-35,44-48H,8-15,17H2,1-7H3,(H,49,50)(H,51,52)(H,53,54)/t19-,21-,22-,23-,24-,25-,26-,27+,28-,29-,30+,31+,34-,35-,38+,39-,40-,41+,42+/m0/s1" "synonym=Glycyrrhizic acid" "license=License CC-BY-NC-SA 4.0 International" "author=Plant Biology, The Noble Foundation, Ardmore, OK, US/Dennis Fine, Daniel Wherritt, and Lloyd Sumner" "ionization=ESI" "isolation width=5" "collision gas=Nitrogen" "peak width=0.017" "date=2014-01-08 10:10:13+01:00" "column=Waters Acquity BEH C18 1.7um x 2.1 x 150 mm" "retention time=922.8" "raw data file=C:\Data\Confirmed Standards\Confirmed stds MSMS 7Jan14\Glycyrrhizic acid _MSMS.d" "computed mass accuracy=0.3772893031298455" "computed mass error=-3.099039998915032E-4" "SPLASH=splash10-0uk9-0309000050-ce67083e8ed48da875b9" "submitter=Aiko Barsch (Bruker)" "MoNA Rating=4.615384615384616"
Num Peaks: 6
113.0245 27.527528
193.0362 14.314314
351.0551 100.000000
352.0586 14.014014
821.3962 49.149149
822.4030 25.025025


Name: Medicagenic acid
Synon: $:00in-source
DB#: MetaboBASE0799
InChIKey: IDGXIXSKISLYAC-WNTKNEGGSA-N
Precursor_type: [M-H]-
Spectrum_type: MS2
PrecursorMZ: 501.3202
Instrument_type: LC-ESI-TOF
Instrument: impact HD
Ion_mode: N
Collision_energy: 20
Formula: C30H46O6
MW: 502
ExactMass: 502.329439192
Comments: "cas number=599-07-5" "SMILES=C[C@@]12CC[C@@H]3[C@@]([C@H]1CC=C4[C@]2(CC[C@@]5([C@H]4CC(CC5)(C)C)C(=O)O)C)(C[C@@H]([C@@H]([C@@]3(C)C(=O)O)O)O)C" "InChI=InChI=1S/C30H46O6/c1-25(2)11-13-30(24(35)36)14-12-27(4)17(18(30)15-25)7-8-20-26(3)16-19(31)22(32)29(6,23(33)34)21(26)9-10-28(20,27)5/h7,18-22,31-32H,8-16H2,1-6H3,(H,33,34)(H,35,36)/t18-,19-,20+,21+,22-,26+,27+,28+,29-,30-/m0/s1" "computed SMILES=O=C(O)C12CCC(C)(C)CC2C3=CCC4C5(C)CC(O)C(O)C(C(=O)O)(C)C5CCC4(C)C3(C)CC1" "license=License CC-BY-NC-SA 4.0 International" "author=Plant Biology, The Noble Foundation, Ardmore, OK, US/Dennis Fine, Daniel Wherritt, and Lloyd Sumner" "ionization=ESI" "isolation width=5" "collision gas=Nitrogen" "peak width=0.013" "date=2014-01-05 05:01:13+01:00" "column=Waters Acquity BEH C18 1.7um x 2.1 x 150 mm" "retention time=1147.8" "raw data file=C:\Data\Confirmed Standards\Confirmed stds MSMS 2Jan14\Medicagenic acid _MSMS.d" "computed mass accuracy=3.9160440772288148" "computed mass error=-0.001963192000005165" "SPLASH=splash10-0udi-0000090000-40176ef60653d19c30ea" "submitter=Aiko Barsch (Bruker)" "MoNA Rating=4.583333333333334"
Num Peaks: 3
501.3202 100.000000
502.3224 26.926927
503.3251 2.702703


Name: Medicagenic acid
Synon: $:00in-source
DB#: MetaboBASE0800
InChIKey: IDGXIXSKISLYAC-WNTKNEGGSA-N
Precursor_type: [M-H]-
Spectrum_type: MS2
PrecursorMZ: 501.3196
Instrument_type: LC-ESI-TOF
Instrument: impact HD
Ion_mode: N
Collision_energy: 30
Formula: C30H46O6
MW: 502
ExactMass: 502.32943919199994
Comments: "cas number=599-07-5" "SMILES=C[C@@]12CC[C@@H]3[C@@]([C@H]1CC=C4[C@]2(CC[C@@]5([C@H]4CC(CC5)(C)C)C(=O)O)C)(C[C@@H]([C@@H]([C@@]3(C)C(=O)O)O)O)C" "InChI=InChI=1S/C30H46O6/c1-25(2)11-13-30(24(35)36)14-12-27(4)17(18(30)15-25)7-8-20-26(3)16-19(31)22(32)29(6,23(33)34)21(26)9-10-28(20,27)5/h7,18-22,31-32H,8-16H2,1-6H3,(H,33,34)(H,35,36)/t18-,19-,20+,21+,22-,26+,27+,28+,29-,30-/m0/s1" "computed SMILES=O=C(O)C12CCC(C)(C)CC2C3=CCC4C5(C)CC(O)C(O)C(C(=O)O)(C)C5CCC4(C)C3(C)CC1" "license=License CC-BY-NC-SA 4.0 International" "author=Plant Biology, The Noble Foundation, Ardmore, OK, US/Dennis Fine, Daniel Wherritt, and Lloyd Sumner" "ionization=ESI" "isolation width=5" "collision gas=Nitrogen" "peak width=0.013" "date=2014-01-05 05:01:13+01:00" "column=Waters Acquity BEH C18 1.7um x 2.1 x 150 mm" "retention time=1147.8" "raw data file=C:\Data\Confirmed Standards\Confirmed stds MSMS 2Jan14\Medicagenic acid _MSMS.d" "computed mass accuracy=5.112890060488837" "computed mass error=-0.0025631919999682395" "SPLASH=splash10-0udi-0000090000-091d034d91fd03a80417" "submitter=Aiko Barsch (Bruker)" "MoNA Rating=4.545454545454546"
Num Peaks: 6
437.3003 2.102102
439.3165 2.602603
483.3114 4.404404
501.3196 100.000000
502.3219 24.924925
503.3279 3.803804


Name: Medicagenic acid
Synon: $:00in-source
DB#: MetaboBASE0801
InChIKey: IDGXIXSKISLYAC-WNTKNEGGSA-N
Precursor_type: [M-H]-
Spectrum_type: MS2
PrecursorMZ: 501.32
Instrument_type: LC-ESI-TOF
Instrument: impact HD
Ion_mode: N
Collision_energy: 40
Formula: C30H46O6
MW: 502
ExactMass: 502.32943919199994
Comments: "cas number=599-07-5" "SMILES=C[C@@]12CC[C@@H]3[C@@]([C@H]1CC=C4[C@]2(CC[C@@]5([C@H]4CC(CC5)(C)C)C(=O)O)C)(C[C@@H]([C@@H]([C@@]3(C)C(=O)O)O)O)C" "InChI=InChI=1S/C30H46O6/c1-25(2)11-13-30(24(35)36)14-12-27(4)17(18(30)15-25)7-8-20-26(3)16-19(31)22(32)29(6,23(33)34)21(26)9-10-28(20,27)5/h7,18-22,31-32H,8-16H2,1-6H3,(H,33,34)(H,35,36)/t18-,19-,20+,21+,22-,26+,27+,28+,29-,30-/m0/s1" "computed SMILES=O=C(O)C12CCC(C)(C)CC2C3=CCC4C5(C)CC(O)C(O)C(C(=O)O)(C)C5CCC4(C)C3(C)CC1" "license=License CC-BY-NC-SA 4.0 International" "author=Plant Biology, The Noble Foundation, Ardmore, OK, US/Dennis Fine, Daniel Wherritt, and Lloyd Sumner" "ionization=ESI" "isolation width=5" "collision gas=Nitrogen" "peak width=0.014" "date=2014-01-05 05:01:13+01:00" "column=Waters Acquity BEH C18 1.7um x 2.1 x 150 mm" "retention time=1147.8" "raw data file=C:\Data\Confirmed Standards\Confirmed stds MSMS 2Jan14\Medicagenic acid _MSMS.d" "computed mass accuracy=4.31499241992133" "computed mass error=-0.002163191999954961" "SPLASH=splash10-0udi-0000970000-fe24b273c01636706c25" "submitter=Aiko Barsch (Bruker)" "MoNA Rating=4.583333333333334"
Num Peaks: 13
421.3097 5.005005
422.3162 4.904905
425.3060 12.912913
426.3095 8.308308
437.3043 32.932933
438.3101 6.706707
439.3184 22.522523
440.3184 5.305305
455.3126 5.705706
483.3079 49.849850
484.3129 8.708709
501.3200 100.000000
502.3245 30.630631


Name: Medicagenic acid
Synon: $:00in-source
DB#: MetaboBASE0802
InChIKey: IDGXIXSKISLYAC-WNTKNEGGSA-N
Precursor_type: [M-H]-
Spectrum_type: MS2
PrecursorMZ: 501.3203
Instrument_type: LC-ESI-TOF
Instrument: impact HD
Ion_mode: N
Collision_energy: 50
Formula: C30H46O6
MW: 502
ExactMass: 502.32943919199994
Comments: "cas number=599-07-5" "SMILES=C[C@@]12CC[C@@H]3[C@@]([C@H]1CC=C4[C@]2(CC[C@@]5([C@H]4CC(CC5)(C)C)C(=O)O)C)(C[C@@H]([C@@H]([C@@]3(C)C(=O)O)O)O)C" "InChI=InChI=1S/C30H46O6/c1-25(2)11-13-30(24(35)36)14-12-27(4)17(18(30)15-25)7-8-20-26(3)16-19(31)22(32)29(6,23(33)34)21(26)9-10-28(20,27)5/h7,18-22,31-32H,8-16H2,1-6H3,(H,33,34)(H,35,36)/t18-,19-,20+,21+,22-,26+,27+,28+,29-,30-/m0/s1" "computed SMILES=O=C(O)C12CCC(C)(C)CC2C3=CCC4C5(C)CC(O)C(O)C(C(=O)O)(C)C5CCC4(C)C3(C)CC1" "license=License CC-BY-NC-SA 4.0 International" "author=Plant Biology, The Noble Foundation, Ardmore, OK, US/Dennis Fine, Daniel Wherritt, and Lloyd Sumner" "ionization=ESI" "isolation width=5" "collision gas=Nitrogen" "peak width=0.016" "date=2014-01-05 05:01:13+01:00" "column=Waters Acquity BEH C18 1.7um x 2.1 x 150 mm" "retention time=1147.8" "raw data file=C:\Data\Confirmed Standards\Confirmed stds MSMS 2Jan14\Medicagenic acid _MSMS.d" "computed mass accuracy=3.716570025138467" "computed mass error=-0.0018631919999734237" "SPLASH=splash10-003i-0000900000-cc5f52793ca71b2c05e0" "submitter=Aiko Barsch (Bruker)" "MoNA Rating=4.583333333333334"
Num Peaks: 12
409.2724 51.051051
421.3066 27.927928
425.3047 60.760761
426.3065 36.136136
437.3034 81.181181
438.3048 31.231231
439.3190 80.680681
440.3220 26.826827
455.3148 30.230230
483.3096 100.000000
484.3127 26.626627
501.3203 50.550551


Name: Medicagenic acid
Synon: $:00in-source
DB#: MetaboBASE0803
InChIKey: IDGXIXSKISLYAC-WNTKNEGGSA-N
Precursor_type: [M-H]-
Spectrum_type: MS2
PrecursorMZ: 501.3199
Instrument_type: LC-ESI-TOF
Instrument: impact HD
Ion_mode: N
Collision_energy: 10
Formula: C30H46O6
MW: 502
ExactMass: 502.32943919199994
Comments: "cas number=599-07-5" "SMILES=C[C@@]12CC[C@@H]3[C@@]([C@H]1CC=C4[C@]2(CC[C@@]5([C@H]4CC(CC5)(C)C)C(=O)O)C)(C[C@@H]([C@@H]([C@@]3(C)C(=O)O)O)O)C" "InChI=InChI=1S/C30H46O6/c1-25(2)11-13-30(24(35)36)14-12-27(4)17(18(30)15-25)7-8-20-26(3)16-19(31)22(32)29(6,23(33)34)21(26)9-10-28(20,27)5/h7,18-22,31-32H,8-16H2,1-6H3,(H,33,34)(H,35,36)/t18-,19-,20+,21+,22-,26+,27+,28+,29-,30-/m0/s1" "computed SMILES=O=C(O)C12CCC(C)(C)CC2C3=CCC4C5(C)CC(O)C(O)C(C(=O)O)(C)C5CCC4(C)C3(C)CC1" "license=License CC-BY-NC-SA 4.0 International" "author=Plant Biology, The Noble Foundation, Ardmore, OK, US/Dennis Fine, Daniel Wherritt, and Lloyd Sumner" "ionization=ESI" "isolation width=5" "collision gas=Nitrogen" "peak width=0.012" "date=2014-01-05 05:01:13+01:00" "column=Waters Acquity BEH C18 1.7um x 2.1 x 150 mm" "retention time=1147.8" "raw data file=C:\Data\Confirmed Standards\Confirmed stds MSMS 2Jan14\Medicagenic acid _MSMS.d" "computed mass accuracy=4.514466710636978" "computed mass error=-0.002263191999929859" "SPLASH=splash10-0udi-0000090000-05260f4fc8e17c669faf" "submitter=Aiko Barsch (Bruker)" "MoNA Rating=4.583333333333334"
Num Peaks: 3
501.3199 100.000000
502.3240 26.126126
503.3278 3.203203


Name: Medicagenic acid
Synon: $:00in-source
DB#: MetaboBASE0804
InChIKey: IDGXIXSKISLYAC-WNTKNEGGSA-N
Instrument_type: LC-ESI-TOF
Instrument: impact HD
Ion_mode: N
Formula: C30H46O6
MW: 502
ExactMass: 502.329439192
Comments: "cas number=599-07-5" "SMILES=C[C@@]12CC[C@@H]3[C@@]([C@H]1CC=C4[C@]2(CC[C@@]5([C@H]4CC(CC5)(C)C)C(=O)O)C)(C[C@@H]([C@@H]([C@@]3(C)C(=O)O)O)O)C" "InChI=InChI=1S/C30H46O6/c1-25(2)11-13-30(24(35)36)14-12-27(4)17(18(30)15-25)7-8-20-26(3)16-19(31)22(32)29(6,23(33)34)21(26)9-10-28(20,27)5/h7,18-22,31-32H,8-16H2,1-6H3,(H,33,34)(H,35,36)/t18-,19-,20+,21+,22-,26+,27+,28+,29-,30-/m0/s1" "computed SMILES=O=C(O)C12CCC(C)(C)CC2C3=CCC4C5(C)CC(O)C(O)C(C(=O)O)(C)C5CCC4(C)C3(C)CC1" "license=License CC-BY-NC-SA 4.0 International" "author=Plant Biology, The Noble Foundation, Ardmore, OK, US/Dennis Fine, Daniel Wherritt, and Lloyd Sumner" "ionization=ESI" "collision gas=Nitrogen" "peak width=0.012" "date=2014-01-05 05:01:13+01:00" "column=Waters Acquity BEH C18 1.7um x 2.1 x 150 mm" "retention time=1147.8" "raw data file=C:\Data\Confirmed Standards\Confirmed stds MSMS 2Jan14\Medicagenic acid _MSMS.d" "SPLASH=splash10-0udi-1000090000-55a3276b9bcb75c5442f" "submitter=Aiko Barsch (Bruker)" "MoNA Rating=3.888888888888889"
Num Peaks: 16
501.3204 100.000000
502.3237 27.527528
503.3256 3.803804
547.3257 2.102102
556.0023 0.700701
569.3066 5.405405
570.3088 1.501502
597.3052 1.301301
601.2459 0.800801
637.2910 0.800801
666.0167 1.501502
1003.6447 9.009009
1004.6473 5.405405
1005.6531 1.301301
1025.6262 1.101101
1026.6366 0.800801


Name: 5,7-Dihydroxy-4'-methoxyflavone
Synon: $:00in-source
DB#: MetaboBASE0805
InChIKey: DANYIYRPLHHOCZ-UHFFFAOYSA-N
Spectrum_type: MS2
PrecursorMZ: 285.0764
Instrument_type: LC-ESI-TOF
Instrument: impact HD
Ion_mode: N
Collision_energy: 20
Formula: C16H12O5
MW: 284
ExactMass: 284.068473484
Comments: "cas number=480-44-4" "SMILES=COc1ccc(cc1)c2cc(=O)c3c(cc(cc3o2)O)O" "InChI=InChI=1S/C16H12O5/c1-20-11-4-2-9(3-5-11)14-8-13(19)16-12(18)6-10(17)7-15(16)21-14/h2-8,17-18H,1H3" "computed SMILES=O=C1C=C(OC=2C=C(O)C=C(O)C12)C=3C=CC(OC)=CC3" "license=License CC-BY-NC-SA 4.0 International" "author=Plant Biology, The Noble Foundation, Ardmore, OK, US/Dennis Fine, Daniel Wherritt, and Lloyd Sumner" "ionization=ESI" "isolation width=5" "collision gas=Nitrogen" "peak width=0.014" "date=2014-01-07 21:15:34+01:00" "column=Waters Acquity BEH C18 1.7um x 2.1 x 150 mm" "retention time=811.2" "raw data file=C:\Data\Confirmed Standards\Confirmed stds MSMS 7Jan14\57Dihydroxy4'methoxyfla MSMS.d" "SPLASH=splash10-000i-0190000000-f9171d6a3ce11fafc8dd" "submitter=Aiko Barsch (Bruker)" "MoNA Rating=3.125"
Num Peaks: 15
119.0499 3.303303
149.9956 7.307307
151.0028 10.510511
164.0115 3.303303
226.0637 5.605606
241.0866 6.606607
243.0659 25.525526
244.0691 4.504505
252.0425 6.706707
257.0815 11.311311
267.0657 10.910911
270.0526 22.622623
283.0609 3.903904
285.0764 100.000000
286.0787 11.911912


Name: 5,7-Dihydroxy-4'-methoxyflavone
Synon: $:00in-source
DB#: MetaboBASE0806
InChIKey: DANYIYRPLHHOCZ-UHFFFAOYSA-N
Instrument_type: LC-ESI-TOF
Instrument: impact HD
Ion_mode: N
Formula: C16H12O5
MW: 284
ExactMass: 284.068473484
Comments: "cas number=480-44-4" "SMILES=COc1ccc(cc1)c2cc(=O)c3c(cc(cc3o2)O)O" "InChI=InChI=1S/C16H12O5/c1-20-11-4-2-9(3-5-11)14-8-13(19)16-12(18)6-10(17)7-15(16)21-14/h2-8,17-18H,1H3" "computed SMILES=O=C1C=C(OC=2C=C(O)C=C(O)C12)C=3C=CC(OC)=CC3" "license=License CC-BY-NC-SA 4.0 International" "author=Plant Biology, The Noble Foundation, Ardmore, OK, US/Dennis Fine, Daniel Wherritt, and Lloyd Sumner" "ionization=ESI" "collision gas=Nitrogen" "peak width=0.014" "date=2014-01-07 21:15:34+01:00" "column=Waters Acquity BEH C18 1.7um x 2.1 x 150 mm" "retention time=811.2" "raw data file=C:\Data\Confirmed Standards\Confirmed stds MSMS 7Jan14\57Dihydroxy4'methoxyfla MSMS.d" "SPLASH=splash10-000i-0090020000-dfe55f293e647f330140" "submitter=Aiko Barsch (Bruker)" "MoNA Rating=3.888888888888889"
Num Peaks: 17
283.0605 3.803804
284.0680 4.504505
285.0765 100.000000
286.0799 12.612613
287.0820 1.201201
353.0639 2.702703
569.1441 1.201201
577.1711 7.007007
578.1733 2.102102
593.1449 19.619620
594.1480 5.605606
666.0231 2.502503
895.2021 1.401401
910.1655 2.802803
911.1687 1.601602
913.1747 1.201201
932.1473 1.601602


Name: 5,7-Dihydroxy-4'-methoxyflavone
Synon: $:00in-source
DB#: MetaboBASE0807
InChIKey: DANYIYRPLHHOCZ-UHFFFAOYSA-N
Spectrum_type: MS2
PrecursorMZ: 285.0764
Instrument_type: LC-ESI-TOF
Instrument: impact HD
Ion_mode: N
Collision_energy: 30
Formula: C16H12O5
MW: 284
ExactMass: 284.068473484
Comments: "cas number=480-44-4" "SMILES=COc1ccc(cc1)c2cc(=O)c3c(cc(cc3o2)O)O" "InChI=InChI=1S/C16H12O5/c1-20-11-4-2-9(3-5-11)14-8-13(19)16-12(18)6-10(17)7-15(16)21-14/h2-8,17-18H,1H3" "computed SMILES=O=C1C=C(OC=2C=C(O)C=C(O)C12)C=3C=CC(OC)=CC3" "license=License CC-BY-NC-SA 4.0 International" "author=Plant Biology, The Noble Foundation, Ardmore, OK, US/Dennis Fine, Daniel Wherritt, and Lloyd Sumner" "ionization=ESI" "isolation width=5" "collision gas=Nitrogen" "peak width=0.017" "date=2014-01-07 21:15:34+01:00" "column=Waters Acquity BEH C18 1.7um x 2.1 x 150 mm" "retention time=811.2" "raw data file=C:\Data\Confirmed Standards\Confirmed stds MSMS 7Jan14\57Dihydroxy4'methoxyfla MSMS.d" "SPLASH=splash10-0uxr-0940000000-73352417553e57b4bee2" "submitter=Aiko Barsch (Bruker)" "MoNA Rating=3.125"
Num Peaks: 12
107.0137 35.135135
119.0502 100.000000
123.0087 29.829830
136.0155 19.119119
149.9955 39.239239
151.0028 62.862863
228.0398 18.018018
243.0662 21.421421
252.0433 38.938939
257.0829 17.017017
270.0517 17.317317
285.0764 20.620621


Name: 5,7-Dihydroxy-4'-methoxyflavone
Synon: $:00in-source
DB#: MetaboBASE0808
InChIKey: DANYIYRPLHHOCZ-UHFFFAOYSA-N
Spectrum_type: MS2
PrecursorMZ: 285.0763
Instrument_type: LC-ESI-TOF
Instrument: impact HD
Ion_mode: N
Collision_energy: 10
Formula: C16H12O5
MW: 284
ExactMass: 284.068473484
Comments: "cas number=480-44-4" "SMILES=COc1ccc(cc1)c2cc(=O)c3c(cc(cc3o2)O)O" "InChI=InChI=1S/C16H12O5/c1-20-11-4-2-9(3-5-11)14-8-13(19)16-12(18)6-10(17)7-15(16)21-14/h2-8,17-18H,1H3" "computed SMILES=O=C1C=C(OC=2C=C(O)C=C(O)C12)C=3C=CC(OC)=CC3" "license=License CC-BY-NC-SA 4.0 International" "author=Plant Biology, The Noble Foundation, Ardmore, OK, US/Dennis Fine, Daniel Wherritt, and Lloyd Sumner" "ionization=ESI" "isolation width=5" "collision gas=Nitrogen" "peak width=0.011" "date=2014-01-07 21:15:34+01:00" "column=Waters Acquity BEH C18 1.7um x 2.1 x 150 mm" "retention time=811.2" "raw data file=C:\Data\Confirmed Standards\Confirmed stds MSMS 7Jan14\57Dihydroxy4'methoxyfla MSMS.d" "SPLASH=splash10-000i-0090000000-fbafd5ded7558cfda230" "submitter=Aiko Barsch (Bruker)" "MoNA Rating=3.125"
Num Peaks: 22
149.9977 0.200200
151.0027 0.200200
177.0190 0.300300
226.0649 0.300300
241.0867 1.301301
242.0912 0.200200
243.0660 2.802803
244.0694 0.400400
252.0450 0.200200
255.0628 0.200200
256.0729 0.200200
257.0820 0.400400
267.0659 2.102102
268.0365 0.200200
268.0699 0.300300
269.0466 0.800801
270.0517 0.500501
283.0606 2.902903
284.0662 2.502503
285.0763 100.000000
286.0796 12.012012
287.0823 1.301301


Name: 2'-Hydroxy-4'-methoxychalcone
Synon: $:00in-source
DB#: MetaboBASE0809
InChIKey: GUNGQVJAKLIYDG-JXMROGBWSA-N
Precursor_type: [M-H]-
Spectrum_type: MS2
PrecursorMZ: 253.0865
Instrument_type: LC-ESI-TOF
Instrument: impact HD
Ion_mode: N
Collision_energy: 10
Formula: C16H14O3
MW: 254
ExactMass: 254.09429430799997
Comments: "cas number=52923-29-2" "SMILES=COc1ccc(c(c1)O)C(=O)/C=C/c2ccccc2" "InChI=InChI=1S/C16H14O3/c1-19-13-8-9-14(16(18)11-13)15(17)10-7-12-5-3-2-4-6-12/h2-11,18H,1H3/b10-7+" "computed SMILES=O=C(C=CC=1C=CC=CC1)C2=CC=C(OC)C=C2O" "license=License CC-BY-NC-SA 4.0 International" "author=Plant Biology, The Noble Foundation, Ardmore, OK, US/Dennis Fine, Daniel Wherritt, and Lloyd Sumner" "ionization=ESI" "isolation width=5" "collision gas=Nitrogen" "peak width=0.014" "date=2014-01-08 00:39:31+01:00" "column=Waters Acquity BEH C18 1.7um x 2.1 x 150 mm" "retention time=1254.6" "raw data file=C:\Data\Confirmed Standards\Confirmed stds MSMS 7Jan14\2'Hydroxy4'methoxychal MSMS.d" "computed mass accuracy=2.0479480335080136" "computed mass error=-5.183079999824258E-4" "SPLASH=splash10-0udi-0090000000-425fe31c956493bc2ccc" "submitter=Aiko Barsch (Bruker)" "MoNA Rating=4.583333333333334"
Num Peaks: 4
237.0562 3.803804
238.0637 6.206206
253.0865 100.000000
254.0896 12.612613


Name: 2'-Hydroxy-4'-methoxychalcone
Synon: $:00in-source
DB#: MetaboBASE0810
InChIKey: GUNGQVJAKLIYDG-JXMROGBWSA-N
Precursor_type: [M-H]-
Spectrum_type: MS2
PrecursorMZ: 253.0867
Instrument_type: LC-ESI-TOF
Instrument: impact HD
Ion_mode: N
Collision_energy: 20
Formula: C16H14O3
MW: 254
ExactMass: 254.09429430799997
Comments: "cas number=52923-29-2" "SMILES=COc1ccc(c(c1)O)C(=O)/C=C/c2ccccc2" "InChI=InChI=1S/C16H14O3/c1-19-13-8-9-14(16(18)11-13)15(17)10-7-12-5-3-2-4-6-12/h2-11,18H,1H3/b10-7+" "computed SMILES=O=C(C=CC=1C=CC=CC1)C2=CC=C(OC)C=C2O" "license=License CC-BY-NC-SA 4.0 International" "author=Plant Biology, The Noble Foundation, Ardmore, OK, US/Dennis Fine, Daniel Wherritt, and Lloyd Sumner" "ionization=ESI" "isolation width=5" "collision gas=Nitrogen" "peak width=0.015" "date=2014-01-08 00:39:31+01:00" "column=Waters Acquity BEH C18 1.7um x 2.1 x 150 mm" "retention time=1254.6" "raw data file=C:\Data\Confirmed Standards\Confirmed stds MSMS 7Jan14\2'Hydroxy4'methoxychal MSMS.d" "computed mass accuracy=1.2577033877156978" "computed mass error=-3.183079999757865E-4" "SPLASH=splash10-0f79-0090000000-ceb8f7c394ab6e1c2463" "submitter=Aiko Barsch (Bruker)" "MoNA Rating=4.583333333333334"
Num Peaks: 6
108.0208 11.911912
237.0551 59.259259
238.0629 41.441441
239.0638 12.612613
253.0867 100.000000
254.0892 9.009009


Name: 2'-Hydroxy-4'-methoxychalcone
Synon: $:00in-source
DB#: MetaboBASE0811
InChIKey: GUNGQVJAKLIYDG-JXMROGBWSA-N
Precursor_type: [M-H]-
Spectrum_type: MS2
PrecursorMZ: 253.1
Instrument_type: LC-ESI-TOF
Instrument: impact HD
Ion_mode: N
Collision_energy: 30
Formula: C16H14O3
MW: 254
ExactMass: 254.09429430799997
Comments: "cas number=52923-29-2" "SMILES=COc1ccc(c(c1)O)C(=O)/C=C/c2ccccc2" "InChI=InChI=1S/C16H14O3/c1-19-13-8-9-14(16(18)11-13)15(17)10-7-12-5-3-2-4-6-12/h2-11,18H,1H3/b10-7+" "computed SMILES=O=C(C=CC=1C=CC=CC1)C2=CC=C(OC)C=C2O" "license=License CC-BY-NC-SA 4.0 International" "author=Plant Biology, The Noble Foundation, Ardmore, OK, US/Dennis Fine, Daniel Wherritt, and Lloyd Sumner" "ionization=ESI" "isolation width=5" "collision gas=Nitrogen" "peak width=0.015" "date=2014-01-08 00:39:31+01:00" "column=Waters Acquity BEH C18 1.7um x 2.1 x 150 mm" "retention time=1254.6" "raw data file=C:\Data\Confirmed Standards\Confirmed stds MSMS 7Jan14\2'Hydroxy4'methoxychal MSMS.d" "computed mass accuracy=51.29076254449222" "computed mass error=0.01298169200001098" "SPLASH=splash10-000i-0390000000-ebad3a55207b33798b6b" "submitter=Aiko Barsch (Bruker)" "MoNA Rating=4.545454545454546"
Num Peaks: 8
108.0198 19.719720
117.0386 6.606607
120.0201 6.906907
161.0255 12.112112
209.0606 8.208208
237.0559 100.000000
238.0603 13.013013
239.0670 7.707708


Name: 2'-Hydroxy-4'-methoxychalcone
Synon: $:00in-source
DB#: MetaboBASE0812
InChIKey: GUNGQVJAKLIYDG-JXMROGBWSA-N
Instrument_type: LC-ESI-TOF
Instrument: impact HD
Ion_mode: N
Formula: C16H14O3
MW: 254
ExactMass: 254.094294308
Comments: "cas number=52923-29-2" "SMILES=COc1ccc(c(c1)O)C(=O)/C=C/c2ccccc2" "InChI=InChI=1S/C16H14O3/c1-19-13-8-9-14(16(18)11-13)15(17)10-7-12-5-3-2-4-6-12/h2-11,18H,1H3/b10-7+" "computed SMILES=O=C(C=CC=1C=CC=CC1)C2=CC=C(OC)C=C2O" "license=License CC-BY-NC-SA 4.0 International" "author=Plant Biology, The Noble Foundation, Ardmore, OK, US/Dennis Fine, Daniel Wherritt, and Lloyd Sumner" "ionization=ESI" "collision gas=Nitrogen" "peak width=0.017" "date=2014-01-08 00:39:31+01:00" "column=Waters Acquity BEH C18 1.7um x 2.1 x 150 mm" "retention time=1254.6" "raw data file=C:\Data\Confirmed Standards\Confirmed stds MSMS 7Jan14\2'Hydroxy4'methoxychal MSMS.d" "SPLASH=splash10-0udi-0292000000-8f64661e413f7044e4a6" "submitter=Aiko Barsch (Bruker)" "MoNA Rating=3.888888888888889"
Num Peaks: 27
112.9853 16.716717
116.9282 8.108108
128.0093 5.205205
144.9229 3.903904
174.9557 6.406406
180.9721 6.706707
195.9968 4.504505
232.9866 2.602603
235.9258 5.905906
242.9429 13.813814
248.9599 25.325325
253.0869 100.000000
254.0902 14.014014
300.9734 2.302302
304.9129 2.402402
310.9299 6.706707
316.9470 13.113113
328.9037 2.202202
353.9535 3.203203
378.9168 6.906907
384.9347 5.805806
396.8909 2.402402
446.9057 3.503504
452.9234 3.703704
514.8937 2.602603
520.9116 2.602603
582.8785 2.602603


Name: 2'-Hydroxy-4-methoxychalcone
Synon: $:00in-source
DB#: MetaboBASE0813
InChIKey: NXBNYUSXDBHELA-DHZHZOJOSA-N
Precursor_type: [M-H]-
Spectrum_type: MS2
PrecursorMZ: 253.1
Instrument_type: LC-ESI-TOF
Instrument: impact HD
Ion_mode: N
Collision_energy: 40
Formula: C16H14O3
MW: 254
ExactMass: 254.09429430799997
Comments: "cas number=34000-29-8" "SMILES=COc1ccc(cc1)/C=C/C(=O)c2ccccc2O" "InChI=InChI=1S/C16H14O3/c1-19-13-9-6-12(7-10-13)8-11-16(18)14-4-2-3-5-15(14)17/h2-11,17H,1H3/b11-8+" "computed SMILES=O=C(C=CC1=CC=C(OC)C=C1)C=2C=CC=CC2O" "license=License CC-BY-NC-SA 4.0 International" "author=Plant Biology, The Noble Foundation, Ardmore, OK, US/Dennis Fine, Daniel Wherritt, and Lloyd Sumner" "ionization=ESI" "isolation width=5" "collision gas=Nitrogen" "peak width=0.021" "date=2014-01-07 23:58:41+01:00" "column=Waters Acquity BEH C18 1.7um x 2.1 x 150 mm" "retention time=1221" "raw data file=C:\Data\Confirmed Standards\Confirmed stds MSMS 7Jan14\2'Hydroxy4methoxychalc MSMS.d" "computed mass accuracy=51.29076254449222" "computed mass error=0.01298169200001098" "SPLASH=splash10-000i-0290000000-e0b9d9084559b7de36a6" "submitter=Aiko Barsch (Bruker)" "MoNA Rating=4.545454545454546"
Num Peaks: 3
117.0346 31.231231
237.0555 100.000000
238.0576 9.609610


Name: 2'-Hydroxy-4-methoxychalcone
Synon: $:00in-source
DB#: MetaboBASE0814
InChIKey: NXBNYUSXDBHELA-DHZHZOJOSA-N
Precursor_type: [M-H]-
Spectrum_type: MS2
PrecursorMZ: 253.0863
Instrument_type: LC-ESI-TOF
Instrument: impact HD
Ion_mode: N
Collision_energy: 10
Formula: C16H14O3
MW: 254
ExactMass: 254.094294308
Comments: "cas number=34000-29-8" "SMILES=COc1ccc(cc1)/C=C/C(=O)c2ccccc2O" "InChI=InChI=1S/C16H14O3/c1-19-13-9-6-12(7-10-13)8-11-16(18)14-4-2-3-5-15(14)17/h2-11,17H,1H3/b11-8+" "computed SMILES=O=C(C=CC1=CC=C(OC)C=C1)C=2C=CC=CC2O" "license=License CC-BY-NC-SA 4.0 International" "author=Plant Biology, The Noble Foundation, Ardmore, OK, US/Dennis Fine, Daniel Wherritt, and Lloyd Sumner" "ionization=ESI" "isolation width=5" "collision gas=Nitrogen" "peak width=0.013" "date=2014-01-07 23:58:41+01:00" "column=Waters Acquity BEH C18 1.7um x 2.1 x 150 mm" "retention time=1221" "raw data file=C:\Data\Confirmed Standards\Confirmed stds MSMS 7Jan14\2'Hydroxy4methoxychalc MSMS.d" "computed mass accuracy=2.838193928385246" "computed mass error=-7.183080000174868E-4" "SPLASH=splash10-0udi-0090000000-20107ec29b343634863b" "submitter=Aiko Barsch (Bruker)" "MoNA Rating=4.583333333333334"
Num Peaks: 6
237.0559 5.505506
238.0638 10.210210
239.0650 2.102102
253.0863 100.000000
254.0891 12.612613
255.0935 2.402402


Name: 2'-Hydroxy-4-methoxychalcone
Synon: $:00in-source
DB#: MetaboBASE0815
InChIKey: NXBNYUSXDBHELA-DHZHZOJOSA-N
Precursor_type: [M-H]-
Spectrum_type: MS2
PrecursorMZ: 253.0868
Instrument_type: LC-ESI-TOF
Instrument: impact HD
Ion_mode: N
Collision_energy: 20
Formula: C16H14O3
MW: 254
ExactMass: 254.09429430799997
Comments: "cas number=34000-29-8" "SMILES=COc1ccc(cc1)/C=C/C(=O)c2ccccc2O" "InChI=InChI=1S/C16H14O3/c1-19-13-9-6-12(7-10-13)8-11-16(18)14-4-2-3-5-15(14)17/h2-11,17H,1H3/b11-8+" "computed SMILES=O=C(C=CC1=CC=C(OC)C=C1)C=2C=CC=CC2O" "license=License CC-BY-NC-SA 4.0 International" "author=Plant Biology, The Noble Foundation, Ardmore, OK, US/Dennis Fine, Daniel Wherritt, and Lloyd Sumner" "ionization=ESI" "isolation width=5" "collision gas=Nitrogen" "peak width=0.016" "date=2014-01-07 23:58:41+01:00" "column=Waters Acquity BEH C18 1.7um x 2.1 x 150 mm" "retention time=1221" "raw data file=C:\Data\Confirmed Standards\Confirmed stds MSMS 7Jan14\2'Hydroxy4methoxychalc MSMS.d" "computed mass accuracy=0.8625815331833461" "computed mass error=-2.1830799997246686E-4" "SPLASH=splash10-000i-0090000000-b03dde21c18cb50b9027" "submitter=Aiko Barsch (Bruker)" "MoNA Rating=4.615384615384616"
Num Peaks: 7
209.0606 3.403403
221.0590 3.703704
237.0551 100.000000
238.0621 65.165165
239.0642 5.205205
253.0868 32.832833
254.0912 5.905906


Name: 2'-Hydroxy-4-methoxychalcone
Synon: $:00in-source
DB#: MetaboBASE0816
InChIKey: NXBNYUSXDBHELA-DHZHZOJOSA-N
Precursor_type: [M-H]-
Spectrum_type: MS2
PrecursorMZ: 253.1
Instrument_type: LC-ESI-TOF
Instrument: impact HD
Ion_mode: N
Collision_energy: 30
Formula: C16H14O3
MW: 254
ExactMass: 254.09429430799997
Comments: "cas number=34000-29-8" "SMILES=COc1ccc(cc1)/C=C/C(=O)c2ccccc2O" "InChI=InChI=1S/C16H14O3/c1-19-13-9-6-12(7-10-13)8-11-16(18)14-4-2-3-5-15(14)17/h2-11,17H,1H3/b11-8+" "computed SMILES=O=C(C=CC1=CC=C(OC)C=C1)C=2C=CC=CC2O" "license=License CC-BY-NC-SA 4.0 International" "author=Plant Biology, The Noble Foundation, Ardmore, OK, US/Dennis Fine, Daniel Wherritt, and Lloyd Sumner" "ionization=ESI" "isolation width=5" "collision gas=Nitrogen" "peak width=0.017" "date=2014-01-07 23:58:41+01:00" "column=Waters Acquity BEH C18 1.7um x 2.1 x 150 mm" "retention time=1221" "raw data file=C:\Data\Confirmed Standards\Confirmed stds MSMS 7Jan14\2'Hydroxy4methoxychalc MSMS.d" "computed mass accuracy=51.29076254449222" "computed mass error=0.01298169200001098" "SPLASH=splash10-000i-0090000000-45adbba795b2883ad9e5" "submitter=Aiko Barsch (Bruker)" "MoNA Rating=4.545454545454546"
Num Peaks: 6
117.0359 4.704705
209.0610 4.104104
210.0645 3.503504
221.0596 4.904905
237.0554 100.000000
238.0605 19.619620


Name: 2'-Hydroxy-4-methoxychalcone
Synon: $:00in-source
DB#: MetaboBASE0817
InChIKey: NXBNYUSXDBHELA-DHZHZOJOSA-N
Instrument_type: LC-ESI-TOF
Instrument: impact HD
Ion_mode: N
Formula: C16H14O3
MW: 254
ExactMass: 254.09429430799997
Comments: "cas number=34000-29-8" "SMILES=COc1ccc(cc1)/C=C/C(=O)c2ccccc2O" "InChI=InChI=1S/C16H14O3/c1-19-13-9-6-12(7-10-13)8-11-16(18)14-4-2-3-5-15(14)17/h2-11,17H,1H3/b11-8+" "computed SMILES=O=C(C=CC1=CC=C(OC)C=C1)C=2C=CC=CC2O" "license=License CC-BY-NC-SA 4.0 International" "author=Plant Biology, The Noble Foundation, Ardmore, OK, US/Dennis Fine, Daniel Wherritt, and Lloyd Sumner" "ionization=ESI" "collision gas=Nitrogen" "peak width=0.018" "date=2014-01-07 23:58:41+01:00" "column=Waters Acquity BEH C18 1.7um x 2.1 x 150 mm" "retention time=1221" "raw data file=C:\Data\Confirmed Standards\Confirmed stds MSMS 7Jan14\2'Hydroxy4methoxychalc MSMS.d" "SPLASH=splash10-0udi-0291000000-0f1bb7a4b05ecc00f54d" "submitter=Aiko Barsch (Bruker)" "MoNA Rating=3.888888888888889"
Num Peaks: 14
112.9861 12.512513
116.9291 8.008008
128.0105 5.005005
174.9563 5.405405
180.9733 5.505506
235.9270 5.105105
242.9439 10.710711
248.9607 21.421421
253.0870 100.000000
254.0901 14.614615
310.9318 6.106106
316.9485 11.911912
378.9192 5.805806
384.9362 4.704705


Name: 3',4',7,8-Tetrahydroxyflavanone
Synon: $:00in-source
DB#: MetaboBASE0818
InChIKey: ZPVNWCMRCGXRJD-ZDUSSCGKSA-N
Spectrum_type: MS2
PrecursorMZ: 285.0418
Instrument_type: LC-ESI-TOF
Instrument: impact HD
Ion_mode: N
Collision_energy: 10
Formula: C15H12O6
MW: 288
ExactMass: 288.06338810399996
Comments: "computed SMILES=O=C1C2=CC=C(O)C(O)=C2OC(C3=CC=C(O)C(O)=C3)C1" "computed InChI=InChI=1S/C15H12O6/c16-9-3-1-7(5-12(9)19)13-6-11(18)8-2-4-10(17)14(20)15(8)21-13/h1-5,13,16-17,19-20H,6H2/t13-/m0/s1" "license=License CC-BY-NC-SA 4.0 International" "author=Plant Biology, The Noble Foundation, Ardmore, OK, US/Dennis Fine, Daniel Wherritt, and Lloyd Sumner" "ionization=ESI" "isolation width=5" "collision gas=Nitrogen" "peak width=0.013" "date=2014-01-07 20:34:50+01:00" "column=Waters Acquity BEH C18 1.7um x 2.1 x 150 mm" "retention time=262.2" "raw data file=C:\Data\Confirmed Standards\Confirmed stds MSMS 7Jan14\3'4'78Tetrahydroxyflav MSMS.d" "SPLASH=splash10-000i-0190000000-4467ccb4dca02909a2f6" "submitter=Aiko Barsch (Bruker)" "MoNA Rating=3.125"
Num Peaks: 17
123.0088 6.706707
124.0126 0.400400
135.0451 10.610611
136.0489 0.900901
151.0038 4.304304
169.0155 0.600601
229.0518 0.400400
241.0505 3.103103
242.0527 0.400400
269.0466 4.104104
270.0481 0.400400
283.0252 3.503504
284.0291 0.500501
285.0418 39.939940
286.0452 4.404404
287.0573 100.000000
288.0599 5.805806


Name: 3',4',7,8-Tetrahydroxyflavanone
Synon: $:00in-source
DB#: MetaboBASE0819
InChIKey: ZPVNWCMRCGXRJD-ZDUSSCGKSA-N
Spectrum_type: MS2
PrecursorMZ: 285.0408
Instrument_type: LC-ESI-TOF
Instrument: impact HD
Ion_mode: N
Collision_energy: 20
Formula: C15H12O6
MW: 288
ExactMass: 288.06338810399996
Comments: "computed SMILES=O=C1C2=CC=C(O)C(O)=C2OC(C3=CC=C(O)C(O)=C3)C1" "computed InChI=InChI=1S/C15H12O6/c16-9-3-1-7(5-12(9)19)13-6-11(18)8-2-4-10(17)14(20)15(8)21-13/h1-5,13,16-17,19-20H,6H2/t13-/m0/s1" "license=License CC-BY-NC-SA 4.0 International" "author=Plant Biology, The Noble Foundation, Ardmore, OK, US/Dennis Fine, Daniel Wherritt, and Lloyd Sumner" "ionization=ESI" "isolation width=5" "collision gas=Nitrogen" "peak width=0.017" "date=2014-01-07 20:34:50+01:00" "column=Waters Acquity BEH C18 1.7um x 2.1 x 150 mm" "retention time=262.2" "raw data file=C:\Data\Confirmed Standards\Confirmed stds MSMS 7Jan14\3'4'78Tetrahydroxyflav MSMS.d" "SPLASH=splash10-000i-0900000000-4f5316d0b5ef2550d083" "submitter=Aiko Barsch (Bruker)" "MoNA Rating=3.125"
Num Peaks: 15
107.0143 1.201201
123.0087 6.506507
124.0133 1.001001
133.0295 2.002002
134.0379 1.501502
135.0452 100.000000
136.0493 4.404404
151.0036 22.522523
152.0079 1.001001
169.0137 2.602603
227.0375 0.900901
241.0522 0.900901
269.0477 1.601602
285.0408 1.101101
287.0556 3.303303


Name: 3',4',7,8-Tetrahydroxyflavanone
Synon: $:00in-source
DB#: MetaboBASE0820
InChIKey: ZPVNWCMRCGXRJD-ZDUSSCGKSA-N
Spectrum_type: MS2
PrecursorMZ: 285
Instrument_type: LC-ESI-TOF
Instrument: impact HD
Ion_mode: N
Collision_energy: 30
Formula: C15H12O6
MW: 288
ExactMass: 288.06338810399996
Comments: "computed SMILES=O=C1C2=CC=C(O)C(O)=C2OC(C3=CC=C(O)C(O)=C3)C1" "computed InChI=InChI=1S/C15H12O6/c16-9-3-1-7(5-12(9)19)13-6-11(18)8-2-4-10(17)14(20)15(8)21-13/h1-5,13,16-17,19-20H,6H2/t13-/m0/s1" "license=License CC-BY-NC-SA 4.0 International" "author=Plant Biology, The Noble Foundation, Ardmore, OK, US/Dennis Fine, Daniel Wherritt, and Lloyd Sumner" "ionization=ESI" "isolation width=5" "collision gas=Nitrogen" "peak width=0.017" "date=2014-01-07 20:34:50+01:00" "column=Waters Acquity BEH C18 1.7um x 2.1 x 150 mm" "retention time=262.2" "raw data file=C:\Data\Confirmed Standards\Confirmed stds MSMS 7Jan14\3'4'78Tetrahydroxyflav MSMS.d" "SPLASH=splash10-000i-0900000000-7b369de66246e89ea107" "submitter=Aiko Barsch (Bruker)" "MoNA Rating=3.125"
Num Peaks: 7
107.0130 1.201201
123.0090 6.906907
133.0303 2.802803
134.0375 2.602603
135.0453 100.000000
136.0486 4.104104
151.0037 8.208208


Name: 3',4',7,8-Tetrahydroxyflavanone
Synon: $:00in-source
DB#: MetaboBASE0821
InChIKey: ZPVNWCMRCGXRJD-ZDUSSCGKSA-N
Instrument_type: LC-ESI-TOF
Instrument: impact HD
Ion_mode: N
Formula: C15H12O6
MW: 288
ExactMass: 288.06338810399996
Comments: "computed SMILES=O=C1C2=CC=C(O)C(O)=C2OC(C3=CC=C(O)C(O)=C3)C1" "computed InChI=InChI=1S/C15H12O6/c16-9-3-1-7(5-12(9)19)13-6-11(18)8-2-4-10(17)14(20)15(8)21-13/h1-5,13,16-17,19-20H,6H2/t13-/m0/s1" "license=License CC-BY-NC-SA 4.0 International" "author=Plant Biology, The Noble Foundation, Ardmore, OK, US/Dennis Fine, Daniel Wherritt, and Lloyd Sumner" "ionization=ESI" "collision gas=Nitrogen" "peak width=0.013" "date=2014-01-07 20:34:50+01:00" "column=Waters Acquity BEH C18 1.7um x 2.1 x 150 mm" "retention time=262.2" "raw data file=C:\Data\Confirmed Standards\Confirmed stds MSMS 7Jan14\3'4'78Tetrahydroxyflav MSMS.d" "SPLASH=splash10-000i-0091030000-54ddff7529622757877c" "submitter=Aiko Barsch (Bruker)" "MoNA Rating=3.888888888888889"
Num Peaks: 22
283.0259 5.505506
284.0285 0.900901
285.0418 75.975976
286.0450 9.509510
287.0574 100.000000
288.0606 11.811812
289.0625 1.201201
301.0361 5.405405
303.0517 7.907908
304.0558 0.900901
319.0468 4.804805
331.0471 2.202202
333.0628 3.903904
571.0892 2.602603
573.1053 25.825826
574.1088 7.107107
575.1205 31.131131
576.1243 8.208208
577.1273 1.401401
597.1017 1.401401
621.1263 1.201201
863.1887 1.201201


Name: Asiatic acid
Synon: $:00in-source
DB#: MetaboBASE0822
InChIKey: JXSVIVRDWWRQRT-UYDOISQJSA-N
Precursor_type: [M+FA-H]-
Spectrum_type: MS2
PrecursorMZ: 533.3499
Instrument_type: LC-ESI-TOF
Instrument: impact HD
Ion_mode: N
Collision_energy: 10
Formula: C30H48O5
MW: 488
ExactMass: 488.350174636
Comments: "cas number=464-92-6" "SMILES=C[C@@H]1CC[C@@]2(CC[C@@]3(C(=CC[C@H]4[C@]3(CC[C@@H]5[C@@]4(C[C@H]([C@@H]([C@@]5(C)CO)O)O)C)C)[C@@H]2[C@H]1C)C)C(=O)O" "InChI=InChI=1S/C30H48O5/c1-17-9-12-30(25(34)35)14-13-28(5)19(23(30)18(17)2)7-8-22-26(3)15-20(32)24(33)27(4,16-31)21(26)10-11-29(22,28)6/h7,17-18,20-24,31-33H,8-16H2,1-6H3,(H,34,35)/t17-,18+,20-,21-,22-,23+,24+,26+,27+,28-,29-,30+/m1/s1" "computed SMILES=O=C(O)C12CCC(C)C(C)C2C3=CCC4C5(C)CC(O)C(O)C(C)(CO)C5CCC4(C)C3(C)CC1" "computed InChI=InChI=1S/C30H48O5/c1-17-9-12-30(25(34)35)14-13-28(5)19(23(30)18(17)2)7-8-22-26(3)15-20(32)24(33)27(4,16-31)21(26)10-11-29(22,28)6/h7,17-18,20-24,31-33H,8-16H2,1-6H3,(H,34,35)" "license=License CC-BY-NC-SA 4.0 International" "author=Plant Biology, The Noble Foundation, Ardmore, OK, US/Dennis Fine, Daniel Wherritt, and Lloyd Sumner" "ionization=ESI" "isolation width=5" "collision gas=Nitrogen" "peak width=0.012" "date=2014-01-08 10:50:58+01:00" "column=Waters Acquity BEH C18 1.7um x 2.1 x 150 mm" "retention time=1068.6" "raw data file=C:\Data\Confirmed Standards\Confirmed stds MSMS 7Jan14\Asiatic acid (vial 360)_MSMS.d" "computed mass accuracy=2.8580937205266728" "computed mass error=0.001524364000033529" "SPLASH=splash10-000i-0000910000-df7ce2b45192539f1338" "submitter=Aiko Barsch (Bruker)" "MoNA Rating=4.583333333333334"
Num Peaks: 6
487.3437 100.000000
488.3470 24.924925
489.3494 4.104104
533.3499 12.012012
534.3546 3.703704
535.3572 1.201201


Name: Asiatic acid
Synon: $:00in-source
DB#: MetaboBASE0823
InChIKey: JXSVIVRDWWRQRT-UYDOISQJSA-N
Instrument_type: LC-ESI-TOF
Instrument: impact HD
Ion_mode: N
Formula: C30H48O5
MW: 488
ExactMass: 488.35017463599996
Comments: "cas number=464-92-6" "SMILES=C[C@@H]1CC[C@@]2(CC[C@@]3(C(=CC[C@H]4[C@]3(CC[C@@H]5[C@@]4(C[C@H]([C@@H]([C@@]5(C)CO)O)O)C)C)[C@@H]2[C@H]1C)C)C(=O)O" "InChI=InChI=1S/C30H48O5/c1-17-9-12-30(25(34)35)14-13-28(5)19(23(30)18(17)2)7-8-22-26(3)15-20(32)24(33)27(4,16-31)21(26)10-11-29(22,28)6/h7,17-18,20-24,31-33H,8-16H2,1-6H3,(H,34,35)/t17-,18+,20-,21-,22-,23+,24+,26+,27+,28-,29-,30+/m1/s1" "computed SMILES=O=C(O)C12CCC(C)C(C)C2C3=CCC4C5(C)CC(O)C(O)C(C)(CO)C5CCC4(C)C3(C)CC1" "computed InChI=InChI=1S/C30H48O5/c1-17-9-12-30(25(34)35)14-13-28(5)19(23(30)18(17)2)7-8-22-26(3)15-20(32)24(33)27(4,16-31)21(26)10-11-29(22,28)6/h7,17-18,20-24,31-33H,8-16H2,1-6H3,(H,34,35)" "license=License CC-BY-NC-SA 4.0 International" "author=Plant Biology, The Noble Foundation, Ardmore, OK, US/Dennis Fine, Daniel Wherritt, and Lloyd Sumner" "ionization=ESI" "collision gas=Nitrogen" "peak width=0.013" "date=2014-01-08 10:50:58+01:00" "column=Waters Acquity BEH C18 1.7um x 2.1 x 150 mm" "retention time=1068.6" "raw data file=C:\Data\Confirmed Standards\Confirmed stds MSMS 7Jan14\Asiatic acid (vial 360)_MSMS.d" "SPLASH=splash10-001r-0000790001-4c2c6ba98709440820ca" "submitter=Aiko Barsch (Bruker)" "MoNA Rating=3.888888888888889"
Num Peaks: 21
112.9855 3.103103
116.9286 1.801802
248.9611 2.202202
487.3441 97.797798
488.3469 23.523524
489.3499 3.903904
533.3504 100.000000
534.3533 26.526527
535.3556 4.604605
555.3322 13.913914
556.3355 4.404404
583.3319 4.004004
584.3358 1.901902
623.3207 4.904905
666.0219 4.604605
691.3088 2.302302
975.7007 13.713714
976.7073 7.607608
977.7071 3.003003
997.6814 2.802803
998.6833 1.901902


Name: Asiatic acid
Synon: $:00in-source
DB#: MetaboBASE0824
InChIKey: JXSVIVRDWWRQRT-UYDOISQJSA-N
Precursor_type: [M+FA-H]-
Spectrum_type: MS2
PrecursorMZ: 533.4
Instrument_type: LC-ESI-TOF
Instrument: impact HD
Ion_mode: N
Collision_energy: 20
Formula: C30H48O5
MW: 488
ExactMass: 488.35017463599996
Comments: "cas number=464-92-6" "SMILES=C[C@@H]1CC[C@@]2(CC[C@@]3(C(=CC[C@H]4[C@]3(CC[C@@H]5[C@@]4(C[C@H]([C@@H]([C@@]5(C)CO)O)O)C)C)[C@@H]2[C@H]1C)C)C(=O)O" "InChI=InChI=1S/C30H48O5/c1-17-9-12-30(25(34)35)14-13-28(5)19(23(30)18(17)2)7-8-22-26(3)15-20(32)24(33)27(4,16-31)21(26)10-11-29(22,28)6/h7,17-18,20-24,31-33H,8-16H2,1-6H3,(H,34,35)/t17-,18+,20-,21-,22-,23+,24+,26+,27+,28-,29-,30+/m1/s1" "computed SMILES=O=C(O)C12CCC(C)C(C)C2C3=CCC4C5(C)CC(O)C(O)C(C)(CO)C5CCC4(C)C3(C)CC1" "computed InChI=InChI=1S/C30H48O5/c1-17-9-12-30(25(34)35)14-13-28(5)19(23(30)18(17)2)7-8-22-26(3)15-20(32)24(33)27(4,16-31)21(26)10-11-29(22,28)6/h7,17-18,20-24,31-33H,8-16H2,1-6H3,(H,34,35)" "license=License CC-BY-NC-SA 4.0 International" "author=Plant Biology, The Noble Foundation, Ardmore, OK, US/Dennis Fine, Daniel Wherritt, and Lloyd Sumner" "ionization=ESI" "isolation width=5" "collision gas=Nitrogen" "peak width=0.012" "date=2014-01-08 10:50:58+01:00" "column=Waters Acquity BEH C18 1.7um x 2.1 x 150 mm" "retention time=1068.6" "raw data file=C:\Data\Confirmed Standards\Confirmed stds MSMS 7Jan14\Asiatic acid (vial 360)_MSMS.d" "computed mass accuracy=96.78358455186155" "computed mass error=0.05162436399996295" "SPLASH=splash10-000i-0000900000-b0d9347334d99f0e9638" "submitter=Aiko Barsch (Bruker)" "MoNA Rating=4.545454545454546"
Num Peaks: 3
487.3439 100.000000
488.3470 21.221221
489.3490 3.603604


Name: Apiin
Synon: $:00in-source
DB#: MetaboBASE0825
InChIKey: FDRBRRBUPLHXEM-PUVROTEMSA-N
Precursor_type: [M-H]-
Spectrum_type: MS2
PrecursorMZ: 563.1435
Instrument_type: LC-ESI-TOF
Instrument: impact HD
Ion_mode: N
Collision_energy: 10
Formula: C26H28O14
MW: 564
ExactMass: 564.147905576
Comments: "cas number=26544-34-3" "SMILES=c1cc(ccc1c2cc(=O)c3c(cc(cc3o2)O[C@H]4[C@@H]([C@H]([C@@H]([C@H](O4)CO)OC5[C@@H]([C@](CO5)(CO)O)O)O)O)O)O" "InChI=InChI=1S/C26H28O14/c27-8-18-22(40-25-23(34)26(35,9-28)10-36-25)20(32)21(33)24(39-18)37-13-5-14(30)19-15(31)7-16(38-17(19)6-13)11-1-3-12(29)4-2-11/h1-7,18,20-25,27-30,32-35H,8-10H2/t18-,20-,21-,22-,23+,24-,25?,26-/m1/s1" "computed SMILES=O=C1C=C(OC2=CC(OC3OC(CO)C(O)C(O)C3OC4OCC(O)(CO)C4O)=CC(O)=C12)C=5C=CC(O)=CC5" "computed InChI=InChI=1S/C26H28O14/c27-8-18-20(32)21(33)22(40-25-23(34)26(35,9-28)10-36-25)24(39-18)37-13-5-14(30)19-15(31)7-16(38-17(19)6-13)11-1-3-12(29)4-2-11/h1-7,18,20-25,27-30,32-35H,8-10H2" "license=License CC-BY-NC-SA 4.0 International" "author=Plant Biology, The Noble Foundation, Ardmore, OK, US/Dennis Fine, Daniel Wherritt, and Lloyd Sumner" "ionization=ESI" "isolation width=5" "collision gas=Nitrogen" "peak width=0.012" "date=2014-01-08 04:03:27+01:00" "column=Waters Acquity BEH C18 1.7um x 2.1 x 150 mm" "retention time=387.6" "raw data file=C:\Data\Confirmed Standards\Confirmed stds MSMS 7Jan14\Apiin (vial 321)_MSMS.d" "computed mass accuracy=5.0971448664388515" "computed mass error=0.002870424000093408" "SPLASH=splash10-03di-0000090000-a04baa45f6225c583e5a" "submitter=Aiko Barsch (Bruker)" "MoNA Rating=4.166666666666666"
Num Peaks: 3
563.1435 100.000000
564.1434 31.031031
565.1454 13.813814


Name: Apiin
Synon: $:00in-source
DB#: MetaboBASE0826
InChIKey: FDRBRRBUPLHXEM-PUVROTEMSA-N
Precursor_type: [M-H]-
Spectrum_type: MS2
PrecursorMZ: 563.14
Instrument_type: LC-ESI-TOF
Instrument: impact HD
Ion_mode: N
Collision_energy: 30
Formula: C26H28O14
MW: 564
ExactMass: 564.147905576
Comments: "cas number=26544-34-3" "SMILES=c1cc(ccc1c2cc(=O)c3c(cc(cc3o2)O[C@H]4[C@@H]([C@H]([C@@H]([C@H](O4)CO)OC5[C@@H]([C@](CO5)(CO)O)O)O)O)O)O" "InChI=InChI=1S/C26H28O14/c27-8-18-22(40-25-23(34)26(35,9-28)10-36-25)20(32)21(33)24(39-18)37-13-5-14(30)19-15(31)7-16(38-17(19)6-13)11-1-3-12(29)4-2-11/h1-7,18,20-25,27-30,32-35H,8-10H2/t18-,20-,21-,22-,23+,24-,25?,26-/m1/s1" "computed SMILES=O=C1C=C(OC2=CC(OC3OC(CO)C(O)C(O)C3OC4OCC(O)(CO)C4O)=CC(O)=C12)C=5C=CC(O)=CC5" "computed InChI=InChI=1S/C26H28O14/c27-8-18-20(32)21(33)22(40-25-23(34)26(35,9-28)10-36-25)24(39-18)37-13-5-14(30)19-15(31)7-16(38-17(19)6-13)11-1-3-12(29)4-2-11/h1-7,18,20-25,27-30,32-35H,8-10H2" "license=License CC-BY-NC-SA 4.0 International" "author=Plant Biology, The Noble Foundation, Ardmore, OK, US/Dennis Fine, Daniel Wherritt, and Lloyd Sumner" "ionization=ESI" "isolation width=5" "collision gas=Nitrogen" "peak width=0.014" "date=2014-01-08 04:03:27+01:00" "column=Waters Acquity BEH C18 1.7um x 2.1 x 150 mm" "retention time=387.6" "raw data file=C:\Data\Confirmed Standards\Confirmed stds MSMS 7Jan14\Apiin (vial 321)_MSMS.d" "computed mass accuracy=1.1179742158921673" "computed mass error=-6.29575999937515E-4" "SPLASH=splash10-03xr-0070090000-8047ba073b20f04775e5" "submitter=Aiko Barsch (Bruker)" "MoNA Rating=4.230769230769231"
Num Peaks: 4
269.0454 85.685686
270.0499 15.815816
563.1400 100.000000
564.1452 26.926927


Name: Apiin
Synon: $:00in-source
DB#: MetaboBASE0827
InChIKey: FDRBRRBUPLHXEM-PUVROTEMSA-N
Precursor_type: [M-H]-
Spectrum_type: MS2
PrecursorMZ: 563.1415
Instrument_type: LC-ESI-TOF
Instrument: impact HD
Ion_mode: N
Collision_energy: 20
Formula: C26H28O14
MW: 564
ExactMass: 564.147905576
Comments: "cas number=26544-34-3" "SMILES=c1cc(ccc1c2cc(=O)c3c(cc(cc3o2)O[C@H]4[C@@H]([C@H]([C@@H]([C@H](O4)CO)OC5[C@@H]([C@](CO5)(CO)O)O)O)O)O)O" "InChI=InChI=1S/C26H28O14/c27-8-18-22(40-25-23(34)26(35,9-28)10-36-25)20(32)21(33)24(39-18)37-13-5-14(30)19-15(31)7-16(38-17(19)6-13)11-1-3-12(29)4-2-11/h1-7,18,20-25,27-30,32-35H,8-10H2/t18-,20-,21-,22-,23+,24-,25?,26-/m1/s1" "computed SMILES=O=C1C=C(OC2=CC(OC3OC(CO)C(O)C(O)C3OC4OCC(O)(CO)C4O)=CC(O)=C12)C=5C=CC(O)=CC5" "computed InChI=InChI=1S/C26H28O14/c27-8-18-20(32)21(33)22(40-25-23(34)26(35,9-28)10-36-25)24(39-18)37-13-5-14(30)19-15(31)7-16(38-17(19)6-13)11-1-3-12(29)4-2-11/h1-7,18,20-25,27-30,32-35H,8-10H2" "license=License CC-BY-NC-SA 4.0 International" "author=Plant Biology, The Noble Foundation, Ardmore, OK, US/Dennis Fine, Daniel Wherritt, and Lloyd Sumner" "ionization=ESI" "isolation width=5" "collision gas=Nitrogen" "peak width=0.012" "date=2014-01-08 04:03:27+01:00" "column=Waters Acquity BEH C18 1.7um x 2.1 x 150 mm" "retention time=387.6" "raw data file=C:\Data\Confirmed Standards\Confirmed stds MSMS 7Jan14\Apiin (vial 321)_MSMS.d" "computed mass accuracy=1.5456577077466584" "computed mass error=8.704240000270147E-4" "SPLASH=splash10-03di-0010090000-3283a550fcfc4f7b1877" "submitter=Aiko Barsch (Bruker)" "MoNA Rating=4.230769230769231"
Num Peaks: 4
269.0439 16.716717
563.1415 100.000000
564.1465 26.326326
565.1418 12.612613


Name: Apiin
Synon: $:00in-source
DB#: MetaboBASE0828
InChIKey: FDRBRRBUPLHXEM-PUVROTEMSA-N
Instrument_type: LC-ESI-TOF
Instrument: impact HD
Ion_mode: N
Formula: C26H28O14
MW: 564
ExactMass: 564.147905576
Comments: "cas number=26544-34-3" "SMILES=c1cc(ccc1c2cc(=O)c3c(cc(cc3o2)O[C@H]4[C@@H]([C@H]([C@@H]([C@H](O4)CO)OC5[C@@H]([C@](CO5)(CO)O)O)O)O)O)O" "InChI=InChI=1S/C26H28O14/c27-8-18-22(40-25-23(34)26(35,9-28)10-36-25)20(32)21(33)24(39-18)37-13-5-14(30)19-15(31)7-16(38-17(19)6-13)11-1-3-12(29)4-2-11/h1-7,18,20-25,27-30,32-35H,8-10H2/t18-,20-,21-,22-,23+,24-,25?,26-/m1/s1" "computed SMILES=O=C1C=C(OC2=CC(OC3OC(CO)C(O)C(O)C3OC4OCC(O)(CO)C4O)=CC(O)=C12)C=5C=CC(O)=CC5" "computed InChI=InChI=1S/C26H28O14/c27-8-18-20(32)21(33)22(40-25-23(34)26(35,9-28)10-36-25)24(39-18)37-13-5-14(30)19-15(31)7-16(38-17(19)6-13)11-1-3-12(29)4-2-11/h1-7,18,20-25,27-30,32-35H,8-10H2" "license=License CC-BY-NC-SA 4.0 International" "author=Plant Biology, The Noble Foundation, Ardmore, OK, US/Dennis Fine, Daniel Wherritt, and Lloyd Sumner" "ionization=ESI" "collision gas=Nitrogen" "peak width=0.014" "date=2014-01-08 04:03:27+01:00" "column=Waters Acquity BEH C18 1.7um x 2.1 x 150 mm" "retention time=387.6" "raw data file=C:\Data\Confirmed Standards\Confirmed stds MSMS 7Jan14\Apiin (vial 321)_MSMS.d" "SPLASH=splash10-03di-0000092000-84a513c4afef1602030f" "submitter=Aiko Barsch (Bruker)" "MoNA Rating=3.5"
Num Peaks: 19
563.1420 100.000000
563.6429 2.202202
564.1454 22.922923
565.1477 4.304304
609.1467 16.016016
610.1501 3.703704
611.1495 1.001001
631.1279 5.805806
632.1284 1.301301
666.0199 2.502503
677.1343 3.703704
681.0775 1.201201
699.1091 0.900901
845.2172 3.403403
845.7208 3.103103
846.2188 1.401401
1127.2979 1.401401
1127.7932 1.101101
1128.2943 1.301301


Name: Apiin
Synon: $:00in-source
DB#: MetaboBASE0829
InChIKey: FDRBRRBUPLHXEM-PUVROTEMSA-N
Precursor_type: [M-H]-
Spectrum_type: MS2
PrecursorMZ: 563.1403
Instrument_type: LC-ESI-TOF
Instrument: impact HD
Ion_mode: N
Collision_energy: 40
Formula: C26H28O14
MW: 564
ExactMass: 564.147905576
Comments: "cas number=26544-34-3" "SMILES=c1cc(ccc1c2cc(=O)c3c(cc(cc3o2)O[C@H]4[C@@H]([C@H]([C@@H]([C@H](O4)CO)OC5[C@@H]([C@](CO5)(CO)O)O)O)O)O)O" "InChI=InChI=1S/C26H28O14/c27-8-18-22(40-25-23(34)26(35,9-28)10-36-25)20(32)21(33)24(39-18)37-13-5-14(30)19-15(31)7-16(38-17(19)6-13)11-1-3-12(29)4-2-11/h1-7,18,20-25,27-30,32-35H,8-10H2/t18-,20-,21-,22-,23+,24-,25?,26-/m1/s1" "computed SMILES=O=C1C=C(OC2=CC(OC3OC(CO)C(O)C(O)C3OC4OCC(O)(CO)C4O)=CC(O)=C12)C=5C=CC(O)=CC5" "computed InChI=InChI=1S/C26H28O14/c27-8-18-20(32)21(33)22(40-25-23(34)26(35,9-28)10-36-25)24(39-18)37-13-5-14(30)19-15(31)7-16(38-17(19)6-13)11-1-3-12(29)4-2-11/h1-7,18,20-25,27-30,32-35H,8-10H2" "license=License CC-BY-NC-SA 4.0 International" "author=Plant Biology, The Noble Foundation, Ardmore, OK, US/Dennis Fine, Daniel Wherritt, and Lloyd Sumner" "ionization=ESI" "isolation width=5" "collision gas=Nitrogen" "peak width=0.016" "date=2014-01-08 04:03:27+01:00" "column=Waters Acquity BEH C18 1.7um x 2.1 x 150 mm" "retention time=387.6" "raw data file=C:\Data\Confirmed Standards\Confirmed stds MSMS 7Jan14\Apiin (vial 321)_MSMS.d" "computed mass accuracy=0.5852466958928962" "computed mass error=-3.2957599989913433E-4" "SPLASH=splash10-014i-0090000000-32a8d5bcc2b85a74a155" "submitter=Aiko Barsch (Bruker)" "MoNA Rating=4.2857142857142865"
Num Peaks: 5
268.0380 4.504505
269.0467 100.000000
270.0479 15.215215
271.0532 4.304304
563.1403 9.709710


Name: Apiin
Synon: $:00in-source
DB#: MetaboBASE0830
InChIKey: FDRBRRBUPLHXEM-PUVROTEMSA-N
Precursor_type: [M-H]-
Spectrum_type: MS2
PrecursorMZ: 563.1
Instrument_type: LC-ESI-TOF
Instrument: impact HD
Ion_mode: N
Collision_energy: 50
Formula: C26H28O14
MW: 564
ExactMass: 564.147905576
Comments: "cas number=26544-34-3" "SMILES=c1cc(ccc1c2cc(=O)c3c(cc(cc3o2)O[C@H]4[C@@H]([C@H]([C@@H]([C@H](O4)CO)OC5[C@@H]([C@](CO5)(CO)O)O)O)O)O)O" "InChI=InChI=1S/C26H28O14/c27-8-18-22(40-25-23(34)26(35,9-28)10-36-25)20(32)21(33)24(39-18)37-13-5-14(30)19-15(31)7-16(38-17(19)6-13)11-1-3-12(29)4-2-11/h1-7,18,20-25,27-30,32-35H,8-10H2/t18-,20-,21-,22-,23+,24-,25?,26-/m1/s1" "computed SMILES=O=C1C=C(OC2=CC(OC3OC(CO)C(O)C(O)C3OC4OCC(O)(CO)C4O)=CC(O)=C12)C=5C=CC(O)=CC5" "computed InChI=InChI=1S/C26H28O14/c27-8-18-20(32)21(33)22(40-25-23(34)26(35,9-28)10-36-25)24(39-18)37-13-5-14(30)19-15(31)7-16(38-17(19)6-13)11-1-3-12(29)4-2-11/h1-7,18,20-25,27-30,32-35H,8-10H2" "license=License CC-BY-NC-SA 4.0 International" "author=Plant Biology, The Noble Foundation, Ardmore, OK, US/Dennis Fine, Daniel Wherritt, and Lloyd Sumner" "ionization=ESI" "isolation width=5" "collision gas=Nitrogen" "peak width=0.012" "date=2014-01-08 04:03:27+01:00" "column=Waters Acquity BEH C18 1.7um x 2.1 x 150 mm" "retention time=387.6" "raw data file=C:\Data\Confirmed Standards\Confirmed stds MSMS 7Jan14\Apiin (vial 321)_MSMS.d" "computed mass accuracy=72.15339371319682" "computed mass error=-0.040629575999901135" "SPLASH=splash10-014i-0090000000-452bbd1db4fb12108bd7" "submitter=Aiko Barsch (Bruker)" "MoNA Rating=4.166666666666666"
Num Peaks: 4
268.0357 8.008008
269.0462 100.000000
270.0504 17.517518
271.0484 3.003003


Name: Daidzin
Synon: $:00in-source
DB#: MetaboBASE0831
InChIKey: KYQZWONCHDNPDP-QNDFHXLGSA-N
Precursor_type: [M+FA-H]-
Spectrum_type: MS2
PrecursorMZ: 461.1
Instrument_type: LC-ESI-TOF
Instrument: impact HD
Ion_mode: N
Collision_energy: 30
Formula: C21H20O9
MW: 416
ExactMass: 416.11073222
Comments: "cas number=552-66-9" "SMILES=c1cc(ccc1c2coc3cc(ccc3c2=O)O[C@H]4[C@@H]([C@H]([C@@H]([C@H](O4)CO)O)O)O)O" "InChI=InChI=1S/C21H20O9/c22-8-16-18(25)19(26)20(27)21(30-16)29-12-5-6-13-15(7-12)28-9-14(17(13)24)10-1-3-11(23)4-2-10/h1-7,9,16,18-23,25-27H,8H2/t16-,18-,19+,20-,21-/m1/s1" "computed SMILES=O=C1C(=COC2=CC(OC3OC(CO)C(O)C(O)C3O)=CC=C12)C=4C=CC(O)=CC4" "computed InChI=InChI=1S/C21H20O9/c22-8-16-18(25)19(26)20(27)21(30-16)29-12-5-6-13-15(7-12)28-9-14(17(13)24)10-1-3-11(23)4-2-10/h1-7,9,16,18-23,25-27H,8H2" "license=License CC-BY-NC-SA 4.0 International" "author=Plant Biology, The Noble Foundation, Ardmore, OK, US/Dennis Fine, Daniel Wherritt, and Lloyd Sumner" "ionization=ESI" "isolation width=5" "collision gas=Nitrogen" "peak width=0.017" "date=2014-01-08 05:24:55+01:00" "column=Waters Acquity BEH C18 1.7um x 2.1 x 150 mm" "retention time=245.4" "raw data file=C:\Data\Confirmed Standards\Confirmed stds MSMS 7Jan14\Daidzin (vial 323)_MSMS.d" "computed mass accuracy=19.373715029191775" "computed mass error=-0.008933219999960329" "SPLASH=splash10-0udi-0090100000-a3ff46535f112a06438e" "submitter=Aiko Barsch (Bruker)" "MoNA Rating=4.545454545454546"
Num Peaks: 7
224.0567 3.003003
252.0454 25.525526
253.0530 100.000000
254.0550 10.310310
255.0552 5.105105
415.1084 19.619620
416.1094 6.106106


Name: Daidzin
Synon: $:00in-source
DB#: MetaboBASE0832
InChIKey: KYQZWONCHDNPDP-QNDFHXLGSA-N
Precursor_type: [M+FA-H]-
Spectrum_type: MS2
PrecursorMZ: 461.1
Instrument_type: LC-ESI-TOF
Instrument: impact HD
Ion_mode: N
Collision_energy: 50
Formula: C21H20O9
MW: 416
ExactMass: 416.11073222
Comments: "cas number=552-66-9" "SMILES=c1cc(ccc1c2coc3cc(ccc3c2=O)O[C@H]4[C@@H]([C@H]([C@@H]([C@H](O4)CO)O)O)O)O" "InChI=InChI=1S/C21H20O9/c22-8-16-18(25)19(26)20(27)21(30-16)29-12-5-6-13-15(7-12)28-9-14(17(13)24)10-1-3-11(23)4-2-10/h1-7,9,16,18-23,25-27H,8H2/t16-,18-,19+,20-,21-/m1/s1" "computed SMILES=O=C1C(=COC2=CC(OC3OC(CO)C(O)C(O)C3O)=CC=C12)C=4C=CC(O)=CC4" "computed InChI=InChI=1S/C21H20O9/c22-8-16-18(25)19(26)20(27)21(30-16)29-12-5-6-13-15(7-12)28-9-14(17(13)24)10-1-3-11(23)4-2-10/h1-7,9,16,18-23,25-27H,8H2" "license=License CC-BY-NC-SA 4.0 International" "author=Plant Biology, The Noble Foundation, Ardmore, OK, US/Dennis Fine, Daniel Wherritt, and Lloyd Sumner" "ionization=ESI" "isolation width=5" "collision gas=Nitrogen" "peak width=0.019" "date=2014-01-08 05:24:55+01:00" "column=Waters Acquity BEH C18 1.7um x 2.1 x 150 mm" "retention time=245.4" "raw data file=C:\Data\Confirmed Standards\Confirmed stds MSMS 7Jan14\Daidzin (vial 323)_MSMS.d" "computed mass accuracy=19.373715029191775" "computed mass error=-0.008933219999960329" "SPLASH=splash10-0udi-0090000000-806672a9fe6ab0e8821b" "submitter=Aiko Barsch (Bruker)" "MoNA Rating=4.545454545454546"
Num Peaks: 6
223.0408 18.718719
224.0484 10.410410
251.0345 4.904905
252.0451 93.293293
253.0534 100.000000
254.0548 10.910911


Name: Daidzin
Synon: $:00in-source
DB#: MetaboBASE0833
InChIKey: KYQZWONCHDNPDP-QNDFHXLGSA-N
Instrument_type: LC-ESI-TOF
Instrument: impact HD
Ion_mode: N
Formula: C21H20O9
MW: 416
ExactMass: 416.11073222
Comments: "cas number=552-66-9" "SMILES=c1cc(ccc1c2coc3cc(ccc3c2=O)O[C@H]4[C@@H]([C@H]([C@@H]([C@H](O4)CO)O)O)O)O" "InChI=InChI=1S/C21H20O9/c22-8-16-18(25)19(26)20(27)21(30-16)29-12-5-6-13-15(7-12)28-9-14(17(13)24)10-1-3-11(23)4-2-10/h1-7,9,16,18-23,25-27H,8H2/t16-,18-,19+,20-,21-/m1/s1" "computed SMILES=O=C1C(=COC2=CC(OC3OC(CO)C(O)C(O)C3O)=CC=C12)C=4C=CC(O)=CC4" "computed InChI=InChI=1S/C21H20O9/c22-8-16-18(25)19(26)20(27)21(30-16)29-12-5-6-13-15(7-12)28-9-14(17(13)24)10-1-3-11(23)4-2-10/h1-7,9,16,18-23,25-27H,8H2" "license=License CC-BY-NC-SA 4.0 International" "author=Plant Biology, The Noble Foundation, Ardmore, OK, US/Dennis Fine, Daniel Wherritt, and Lloyd Sumner" "ionization=ESI" "collision gas=Nitrogen" "peak width=0.014" "date=2014-01-08 05:24:55+01:00" "column=Waters Acquity BEH C18 1.7um x 2.1 x 150 mm" "retention time=245.4" "raw data file=C:\Data\Confirmed Standards\Confirmed stds MSMS 7Jan14\Daidzin (vial 323)_MSMS.d" "SPLASH=splash10-03di-0000900000-a8a90b48831795fcef5b" "submitter=Aiko Barsch (Bruker)" "MoNA Rating=3.888888888888889"
Num Peaks: 21
112.9879 0.700701
116.9300 0.900901
174.9578 0.500501
180.9749 0.600601
242.9454 0.600601
253.0546 5.005005
254.0577 1.001001
415.1092 3.703704
416.1102 0.800801
451.0857 0.900901
461.1143 100.000000
462.1174 18.718719
463.1208 3.703704
529.1016 1.701702
530.1035 0.600601
560.0286 1.301301
666.0266 1.301301
831.2236 0.800801
877.2314 3.903904
878.2323 2.502503
879.2294 0.600601


Name: Daidzin
Synon: $:00in-source
DB#: MetaboBASE0834
InChIKey: KYQZWONCHDNPDP-QNDFHXLGSA-N
Precursor_type: [M+FA-H]-
Spectrum_type: MS2
PrecursorMZ: 461.1
Instrument_type: LC-ESI-TOF
Instrument: impact HD
Ion_mode: N
Collision_energy: 20
Formula: C21H20O9
MW: 416
ExactMass: 416.11073222
Comments: "cas number=552-66-9" "SMILES=c1cc(ccc1c2coc3cc(ccc3c2=O)O[C@H]4[C@@H]([C@H]([C@@H]([C@H](O4)CO)O)O)O)O" "InChI=InChI=1S/C21H20O9/c22-8-16-18(25)19(26)20(27)21(30-16)29-12-5-6-13-15(7-12)28-9-14(17(13)24)10-1-3-11(23)4-2-10/h1-7,9,16,18-23,25-27H,8H2/t16-,18-,19+,20-,21-/m1/s1" "computed SMILES=O=C1C(=COC2=CC(OC3OC(CO)C(O)C(O)C3O)=CC=C12)C=4C=CC(O)=CC4" "computed InChI=InChI=1S/C21H20O9/c22-8-16-18(25)19(26)20(27)21(30-16)29-12-5-6-13-15(7-12)28-9-14(17(13)24)10-1-3-11(23)4-2-10/h1-7,9,16,18-23,25-27H,8H2" "license=License CC-BY-NC-SA 4.0 International" "author=Plant Biology, The Noble Foundation, Ardmore, OK, US/Dennis Fine, Daniel Wherritt, and Lloyd Sumner" "ionization=ESI" "isolation width=5" "collision gas=Nitrogen" "peak width=0.015" "date=2014-01-08 05:24:55+01:00" "column=Waters Acquity BEH C18 1.7um x 2.1 x 150 mm" "retention time=245.4" "raw data file=C:\Data\Confirmed Standards\Confirmed stds MSMS 7Jan14\Daidzin (vial 323)_MSMS.d" "computed mass accuracy=19.373715029191775" "computed mass error=-0.008933219999960329" "SPLASH=splash10-0udi-0090300000-0e1086947a1b1fb0fc9c" "submitter=Aiko Barsch (Bruker)" "MoNA Rating=4.545454545454546"
Num Peaks: 6
252.0412 2.802803
253.0543 100.000000
254.0572 16.916917
269.2983 1.901902
415.1093 40.840841
416.1085 5.805806


Name: Daidzin
Synon: $:00in-source
DB#: MetaboBASE0835
InChIKey: KYQZWONCHDNPDP-QNDFHXLGSA-N
Precursor_type: [M+FA-H]-
Spectrum_type: MS2
PrecursorMZ: 461.1144
Instrument_type: LC-ESI-TOF
Instrument: impact HD
Ion_mode: N
Collision_energy: 10
Formula: C21H20O9
MW: 416
ExactMass: 416.11073222
Comments: "cas number=552-66-9" "SMILES=c1cc(ccc1c2coc3cc(ccc3c2=O)O[C@H]4[C@@H]([C@H]([C@@H]([C@H](O4)CO)O)O)O)O" "InChI=InChI=1S/C21H20O9/c22-8-16-18(25)19(26)20(27)21(30-16)29-12-5-6-13-15(7-12)28-9-14(17(13)24)10-1-3-11(23)4-2-10/h1-7,9,16,18-23,25-27H,8H2/t16-,18-,19+,20-,21-/m1/s1" "computed SMILES=O=C1C(=COC2=CC(OC3OC(CO)C(O)C(O)C3O)=CC=C12)C=4C=CC(O)=CC4" "computed InChI=InChI=1S/C21H20O9/c22-8-16-18(25)19(26)20(27)21(30-16)29-12-5-6-13-15(7-12)28-9-14(17(13)24)10-1-3-11(23)4-2-10/h1-7,9,16,18-23,25-27H,8H2" "license=License CC-BY-NC-SA 4.0 International" "author=Plant Biology, The Noble Foundation, Ardmore, OK, US/Dennis Fine, Daniel Wherritt, and Lloyd Sumner" "ionization=ESI" "isolation width=5" "collision gas=Nitrogen" "peak width=0.014" "date=2014-01-08 05:24:55+01:00" "column=Waters Acquity BEH C18 1.7um x 2.1 x 150 mm" "retention time=245.4" "raw data file=C:\Data\Confirmed Standards\Confirmed stds MSMS 7Jan14\Daidzin (vial 323)_MSMS.d" "computed mass accuracy=11.855582909590572" "computed mass error=0.005466780000006111" "SPLASH=splash10-0w29-0090800000-71336b3ac56112e89965" "submitter=Aiko Barsch (Bruker)" "MoNA Rating=4.545454545454546"
Num Peaks: 10
252.7075 1.501502
253.0545 100.000000
254.0563 13.813814
255.0625 3.003003
415.1092 37.437437
416.1082 4.104104
417.1107 1.901902
461.1144 51.151151
462.1161 10.110110
463.1160 1.601602


Name: Daidzin
Synon: $:00in-source
DB#: MetaboBASE0836
InChIKey: KYQZWONCHDNPDP-QNDFHXLGSA-N
Precursor_type: [M+FA-H]-
Spectrum_type: MS2
PrecursorMZ: 461.1
Instrument_type: LC-ESI-TOF
Instrument: impact HD
Ion_mode: N
Collision_energy: 40
Formula: C21H20O9
MW: 416
ExactMass: 416.11073222
Comments: "cas number=552-66-9" "SMILES=c1cc(ccc1c2coc3cc(ccc3c2=O)O[C@H]4[C@@H]([C@H]([C@@H]([C@H](O4)CO)O)O)O)O" "InChI=InChI=1S/C21H20O9/c22-8-16-18(25)19(26)20(27)21(30-16)29-12-5-6-13-15(7-12)28-9-14(17(13)24)10-1-3-11(23)4-2-10/h1-7,9,16,18-23,25-27H,8H2/t16-,18-,19+,20-,21-/m1/s1" "computed SMILES=O=C1C(=COC2=CC(OC3OC(CO)C(O)C(O)C3O)=CC=C12)C=4C=CC(O)=CC4" "computed InChI=InChI=1S/C21H20O9/c22-8-16-18(25)19(26)20(27)21(30-16)29-12-5-6-13-15(7-12)28-9-14(17(13)24)10-1-3-11(23)4-2-10/h1-7,9,16,18-23,25-27H,8H2" "license=License CC-BY-NC-SA 4.0 International" "author=Plant Biology, The Noble Foundation, Ardmore, OK, US/Dennis Fine, Daniel Wherritt, and Lloyd Sumner" "ionization=ESI" "isolation width=5" "collision gas=Nitrogen" "peak width=0.014" "date=2014-01-08 05:24:55+01:00" "column=Waters Acquity BEH C18 1.7um x 2.1 x 150 mm" "retention time=245.4" "raw data file=C:\Data\Confirmed Standards\Confirmed stds MSMS 7Jan14\Daidzin (vial 323)_MSMS.d" "computed mass accuracy=19.373715029191775" "computed mass error=-0.008933219999960329" "SPLASH=splash10-0udi-0090000000-3c95cabcacf790fe32be" "submitter=Aiko Barsch (Bruker)" "MoNA Rating=4.545454545454546"
Num Peaks: 8
223.0411 5.905906
224.0489 3.903904
252.0457 82.582583
253.0529 100.000000
254.0564 12.012012
255.0570 3.903904
415.1052 8.708709
416.1143 2.702703


Name: Madecassic acid
Synon: $:00in-source
DB#: MetaboBASE0837
InChIKey: PRAUVHZJPXOEIF-AOLYGAPISA-N
Instrument_type: LC-ESI-TOF
Instrument: impact HD
Ion_mode: N
Formula: C30H48O6
MW: 504
ExactMass: 504.34508925599994
Comments: "cas number=125265-67-0" "SMILES=C[C@@H]1CC[C@@]2(CC[C@@]3(C(=CC[C@H]4[C@]3(C[C@H]([C@@H]5[C@@]4(C[C@H]([C@@H]([C@@]5(C)CO)O)O)C)O)C)[C@@H]2[C@H]1C)C)C(=O)O" "InChI=InChI=1S/C30H48O6/c1-16-9-10-30(25(35)36)12-11-28(5)18(22(30)17(16)2)7-8-21-26(3)13-20(33)24(34)27(4,15-31)23(26)19(32)14-29(21,28)6/h7,16-17,19-24,31-34H,8-15H2,1-6H3,(H,35,36)/t16-,17+,19-,20-,21-,22+,23-,24+,26-,27+,28-,29-,30+/m1/s1" "computed SMILES=O=C(O)C12CCC(C)C(C)C2C3=CCC4C5(C)CC(O)C(O)C(C)(CO)C5C(O)CC4(C)C3(C)CC1" "computed InChI=InChI=1S/C30H48O6/c1-16-9-10-30(25(35)36)12-11-28(5)18(22(30)17(16)2)7-8-21-26(3)13-20(33)24(34)27(4,15-31)23(26)19(32)14-29(21,28)6/h7,16-17,19-24,31-34H,8-15H2,1-6H3,(H,35,36)" "license=License CC-BY-NC-SA 4.0 International" "author=Plant Biology, The Noble Foundation, Ardmore, OK, US/Dennis Fine, Daniel Wherritt, and Lloyd Sumner" "ionization=ESI" "collision gas=Nitrogen" "peak width=0.013" "date=2014-01-08 09:29:28+01:00" "column=Waters Acquity BEH C18 1.7um x 2.1 x 150 mm" "retention time=947.4" "raw data file=C:\Data\Confirmed Standards\Confirmed stds MSMS 7Jan14\Madecassic acid _MSMS.d" "SPLASH=splash10-0f6t-1000090000-baa69e6abeaf16c507d2" "submitter=Aiko Barsch (Bruker)" "MoNA Rating=3.888888888888889"
Num Peaks: 18
116.9300 1.301301
503.3446 56.956957
504.3482 14.814815
505.3505 2.602603
539.3207 1.201201
549.3512 100.000000
550.3543 27.927928
551.3558 4.304304
571.3336 8.008008
572.3348 2.202202
599.3328 2.802803
639.3224 2.302302
666.0275 1.301301
1007.7017 15.515516
1008.7029 8.808809
1009.7079 2.402402
1029.6810 1.401401
1030.6849 1.101101


Name: Madecassic acid
Synon: $:00in-source
DB#: MetaboBASE0838
InChIKey: PRAUVHZJPXOEIF-AOLYGAPISA-N
Precursor_type: [M+FA-H]-
Spectrum_type: MS2
PrecursorMZ: 549.4
Instrument_type: LC-ESI-TOF
Instrument: impact HD
Ion_mode: N
Collision_energy: 30
Formula: C30H48O6
MW: 504
ExactMass: 504.34508925599994
Comments: "cas number=125265-67-0" "SMILES=C[C@@H]1CC[C@@]2(CC[C@@]3(C(=CC[C@H]4[C@]3(C[C@H]([C@@H]5[C@@]4(C[C@H]([C@@H]([C@@]5(C)CO)O)O)C)O)C)[C@@H]2[C@H]1C)C)C(=O)O" "InChI=InChI=1S/C30H48O6/c1-16-9-10-30(25(35)36)12-11-28(5)18(22(30)17(16)2)7-8-21-26(3)13-20(33)24(34)27(4,15-31)23(26)19(32)14-29(21,28)6/h7,16-17,19-24,31-34H,8-15H2,1-6H3,(H,35,36)/t16-,17+,19-,20-,21-,22+,23-,24+,26-,27+,28-,29-,30+/m1/s1" "computed SMILES=O=C(O)C12CCC(C)C(C)C2C3=CCC4C5(C)CC(O)C(O)C(C)(CO)C5C(O)CC4(C)C3(C)CC1" "computed InChI=InChI=1S/C30H48O6/c1-16-9-10-30(25(35)36)12-11-28(5)18(22(30)17(16)2)7-8-21-26(3)13-20(33)24(34)27(4,15-31)23(26)19(32)14-29(21,28)6/h7,16-17,19-24,31-34H,8-15H2,1-6H3,(H,35,36)" "license=License CC-BY-NC-SA 4.0 International" "author=Plant Biology, The Noble Foundation, Ardmore, OK, US/Dennis Fine, Daniel Wherritt, and Lloyd Sumner" "ionization=ESI" "isolation width=5" "collision gas=Nitrogen" "peak width=0.0093" "date=2014-01-08 09:29:28+01:00" "column=Waters Acquity BEH C18 1.7um x 2.1 x 150 mm" "retention time=947.4" "raw data file=C:\Data\Confirmed Standards\Confirmed stds MSMS 7Jan14\Madecassic acid _MSMS.d" "computed mass accuracy=103.22123043328222" "computed mass error=0.05670974400004525" "SPLASH=splash10-0udi-0000090000-10ea970b66428e00eaf0" "submitter=Aiko Barsch (Bruker)" "MoNA Rating=4.545454545454546"
Num Peaks: 4
503.3447 100.000000
504.3478 24.324324
505.3511 3.103103
506.3502 0.200200


Name: Madecassic acid
Synon: $:00in-source
DB#: MetaboBASE0839
InChIKey: PRAUVHZJPXOEIF-AOLYGAPISA-N
Precursor_type: [M+FA-H]-
Spectrum_type: MS2
PrecursorMZ: 549.4
Instrument_type: LC-ESI-TOF
Instrument: impact HD
Ion_mode: N
Collision_energy: 20
Formula: C30H48O6
MW: 504
ExactMass: 504.345089256
Comments: "cas number=125265-67-0" "SMILES=C[C@@H]1CC[C@@]2(CC[C@@]3(C(=CC[C@H]4[C@]3(C[C@H]([C@@H]5[C@@]4(C[C@H]([C@@H]([C@@]5(C)CO)O)O)C)O)C)[C@@H]2[C@H]1C)C)C(=O)O" "InChI=InChI=1S/C30H48O6/c1-16-9-10-30(25(35)36)12-11-28(5)18(22(30)17(16)2)7-8-21-26(3)13-20(33)24(34)27(4,15-31)23(26)19(32)14-29(21,28)6/h7,16-17,19-24,31-34H,8-15H2,1-6H3,(H,35,36)/t16-,17+,19-,20-,21-,22+,23-,24+,26-,27+,28-,29-,30+/m1/s1" "computed SMILES=O=C(O)C12CCC(C)C(C)C2C3=CCC4C5(C)CC(O)C(O)C(C)(CO)C5C(O)CC4(C)C3(C)CC1" "computed InChI=InChI=1S/C30H48O6/c1-16-9-10-30(25(35)36)12-11-28(5)18(22(30)17(16)2)7-8-21-26(3)13-20(33)24(34)27(4,15-31)23(26)19(32)14-29(21,28)6/h7,16-17,19-24,31-34H,8-15H2,1-6H3,(H,35,36)" "license=License CC-BY-NC-SA 4.0 International" "author=Plant Biology, The Noble Foundation, Ardmore, OK, US/Dennis Fine, Daniel Wherritt, and Lloyd Sumner" "ionization=ESI" "isolation width=5" "collision gas=Nitrogen" "peak width=0.0096" "date=2014-01-08 09:29:28+01:00" "column=Waters Acquity BEH C18 1.7um x 2.1 x 150 mm" "retention time=947.4" "raw data file=C:\Data\Confirmed Standards\Confirmed stds MSMS 7Jan14\Madecassic acid _MSMS.d" "computed mass accuracy=103.22123043307528" "computed mass error=0.05670974399993156" "SPLASH=splash10-0udi-0000090000-3ded2db4ad11949c0c19" "submitter=Aiko Barsch (Bruker)" "MoNA Rating=4.545454545454546"
Num Peaks: 4
503.3447 100.000000
504.3480 22.922923
505.3498 2.902903
506.3555 0.300300


Name: Madecassic acid
Synon: $:00in-source
DB#: MetaboBASE0840
InChIKey: PRAUVHZJPXOEIF-AOLYGAPISA-N
Precursor_type: [M+FA-H]-
Spectrum_type: MS2
PrecursorMZ: 549.3506
Instrument_type: LC-ESI-TOF
Instrument: impact HD
Ion_mode: N
Collision_energy: 10
Formula: C30H48O6
MW: 504
ExactMass: 504.34508925599994
Comments: "cas number=125265-67-0" "SMILES=C[C@@H]1CC[C@@]2(CC[C@@]3(C(=CC[C@H]4[C@]3(C[C@H]([C@@H]5[C@@]4(C[C@H]([C@@H]([C@@]5(C)CO)O)O)C)O)C)[C@@H]2[C@H]1C)C)C(=O)O" "InChI=InChI=1S/C30H48O6/c1-16-9-10-30(25(35)36)12-11-28(5)18(22(30)17(16)2)7-8-21-26(3)13-20(33)24(34)27(4,15-31)23(26)19(32)14-29(21,28)6/h7,16-17,19-24,31-34H,8-15H2,1-6H3,(H,35,36)/t16-,17+,19-,20-,21-,22+,23-,24+,26-,27+,28-,29-,30+/m1/s1" "computed SMILES=O=C(O)C12CCC(C)C(C)C2C3=CCC4C5(C)CC(O)C(O)C(C)(CO)C5C(O)CC4(C)C3(C)CC1" "computed InChI=InChI=1S/C30H48O6/c1-16-9-10-30(25(35)36)12-11-28(5)18(22(30)17(16)2)7-8-21-26(3)13-20(33)24(34)27(4,15-31)23(26)19(32)14-29(21,28)6/h7,16-17,19-24,31-34H,8-15H2,1-6H3,(H,35,36)" "license=License CC-BY-NC-SA 4.0 International" "author=Plant Biology, The Noble Foundation, Ardmore, OK, US/Dennis Fine, Daniel Wherritt, and Lloyd Sumner" "ionization=ESI" "isolation width=5" "collision gas=Nitrogen" "peak width=0.011" "date=2014-01-08 09:29:28+01:00" "column=Waters Acquity BEH C18 1.7um x 2.1 x 150 mm" "retention time=947.4" "raw data file=C:\Data\Confirmed Standards\Confirmed stds MSMS 7Jan14\Madecassic acid _MSMS.d" "computed mass accuracy=13.306154576064534" "computed mass error=0.007309744000053797" "SPLASH=splash10-0udi-0000090000-66a0811e9cdaae8662d1" "submitter=Aiko Barsch (Bruker)" "MoNA Rating=4.545454545454546"
Num Peaks: 7
503.2796 0.300300
503.3447 100.000000
504.3479 25.825826
505.3501 2.502503
549.3506 22.722723
550.3535 4.904905
551.3574 0.700701


Name: Kaempferol-7-O-glucoside
Synon: $:00in-source
DB#: MetaboBASE0841
InChIKey: YPWHZCPMOQGCDQ-HMGRVEAOSA-N
Instrument_type: LC-ESI-TOF
Instrument: impact HD
Ion_mode: N
Formula: [C21H19O11]-
MW: 447
ExactMass: 447.0932850079093
Comments: "cas number=16290-07-6" "SMILES=C1=CC(=CC=C1C2=C(C(=O)C3=C(C=C(C=C3O2)O[C@H]4[C@@H]([C@H]([C@@H]([C@H](O4)CO)O)O)O)O)O)O" "InChI=InChI=1S/C21H20O11/c22-7-13-15(25)17(27)19(29)21(32-13)30-10-5-11(24)14-12(6-10)31-20(18(28)16(14)26)8-1-3-9(23)4-2-8/h1-6,13,15,17,19,21-25,27-29H,7H2/t13-,15-,17+,19-,21-/m1/s1" "computed SMILES=O=C1C([O-])=C(OC2=CC(OC3OC(CO)C(O)C(O)C3O)=CC(O)=C12)C=4C=CC(O)=CC4" "computed InChI=InChI=1S/C21H20O11/c22-7-13-15(25)17(27)19(29)21(32-13)30-10-5-11(24)14-12(6-10)31-20(18(28)16(14)26)8-1-3-9(23)4-2-8/h1-6,13,15,17,19,21-25,27-29H,7H2/p-1" "license=License CC-BY-NC-SA 4.0 International" "author=Plant Biology, The Noble Foundation, Ardmore, OK, US/Dennis Fine, Daniel Wherritt, and Lloyd Sumner" "ionization=ESI" "collision gas=Nitrogen" "peak width=0.014" "date=2014-01-08 03:22:41+01:00" "column=Waters Acquity BEH C18 1.7um x 2.1 x 150 mm" "retention time=377.4" "raw data file=C:\Data\Confirmed Standards\Confirmed stds MSMS 7Jan14\Kaempferol-7-O-glucoside_MSMS.d" "SPLASH=splash10-0002-0000900010-d58d3a64bd1f2e2b27a0" "submitter=Aiko Barsch (Bruker)" "MoNA Rating=3.888888888888889"
Num Peaks: 20
301.0349 1.901902
447.0936 100.000000
448.0967 16.716717
449.0991 2.602603
463.0889 17.217217
464.0917 3.503504
493.0990 1.301301
515.0804 3.203203
592.0167 0.900901
666.0200 1.601602
671.1447 3.103103
671.6476 2.902903
672.1483 1.201201
895.1926 13.413413
895.6932 2.302302
896.1936 5.205205
897.2018 1.201201
911.1879 1.001001
1119.2440 1.101101
1119.7424 1.501502


Name: Kaempferol-7-O-glucoside
Synon: $:00in-source
DB#: MetaboBASE0842
InChIKey: YPWHZCPMOQGCDQ-HMGRVEAOSA-N
Precursor_type: [M]-
Spectrum_type: MS2
PrecursorMZ: 447.0926
Instrument_type: LC-ESI-TOF
Instrument: impact HD
Ion_mode: N
Collision_energy: 20
Formula: [C21H19O11]-
MW: 447
ExactMass: 447.09328500790923
Comments: "cas number=16290-07-6" "SMILES=C1=CC(=CC=C1C2=C(C(=O)C3=C(C=C(C=C3O2)O[C@H]4[C@@H]([C@H]([C@@H]([C@H](O4)CO)O)O)O)O)O)O" "InChI=InChI=1S/C21H20O11/c22-7-13-15(25)17(27)19(29)21(32-13)30-10-5-11(24)14-12(6-10)31-20(18(28)16(14)26)8-1-3-9(23)4-2-8/h1-6,13,15,17,19,21-25,27-29H,7H2/t13-,15-,17+,19-,21-/m1/s1" "computed SMILES=O=C1C([O-])=C(OC2=CC(OC3OC(CO)C(O)C(O)C3O)=CC(O)=C12)C=4C=CC(O)=CC4" "computed InChI=InChI=1S/C21H20O11/c22-7-13-15(25)17(27)19(29)21(32-13)30-10-5-11(24)14-12(6-10)31-20(18(28)16(14)26)8-1-3-9(23)4-2-8/h1-6,13,15,17,19,21-25,27-29H,7H2/p-1" "license=License CC-BY-NC-SA 4.0 International" "author=Plant Biology, The Noble Foundation, Ardmore, OK, US/Dennis Fine, Daniel Wherritt, and Lloyd Sumner" "ionization=ESI" "isolation width=5" "collision gas=Nitrogen" "peak width=0.016" "date=2014-01-08 03:22:41+01:00" "column=Waters Acquity BEH C18 1.7um x 2.1 x 150 mm" "retention time=377.4" "raw data file=C:\Data\Confirmed Standards\Confirmed stds MSMS 7Jan14\Kaempferol-7-O-glucoside_MSMS.d" "computed mass accuracy=0.30514483977485174" "computed mass error=-1.3642799979152187E-4" "SPLASH=splash10-0002-0040900000-5c5e59ec1d2bd04ee01f" "submitter=Aiko Barsch (Bruker)" "MoNA Rating=4.615384615384616"
Num Peaks: 5
284.0316 9.509510
285.0393 41.741742
286.0423 5.305305
447.0926 100.000000
448.0958 19.519520


Name: Kaempferol-7-O-glucoside
Synon: $:00in-source
DB#: MetaboBASE0843
InChIKey: YPWHZCPMOQGCDQ-HMGRVEAOSA-N
Precursor_type: [M]-
Spectrum_type: MS2
PrecursorMZ: 447.0934
Instrument_type: LC-ESI-TOF
Instrument: impact HD
Ion_mode: N
Collision_energy: 30
Formula: [C21H19O11]-
MW: 447
ExactMass: 447.0932850079093
Comments: "cas number=16290-07-6" "SMILES=C1=CC(=CC=C1C2=C(C(=O)C3=C(C=C(C=C3O2)O[C@H]4[C@@H]([C@H]([C@@H]([C@H](O4)CO)O)O)O)O)O)O" "InChI=InChI=1S/C21H20O11/c22-7-13-15(25)17(27)19(29)21(32-13)30-10-5-11(24)14-12(6-10)31-20(18(28)16(14)26)8-1-3-9(23)4-2-8/h1-6,13,15,17,19,21-25,27-29H,7H2/t13-,15-,17+,19-,21-/m1/s1" "computed SMILES=O=C1C([O-])=C(OC2=CC(OC3OC(CO)C(O)C(O)C3O)=CC(O)=C12)C=4C=CC(O)=CC4" "computed InChI=InChI=1S/C21H20O11/c22-7-13-15(25)17(27)19(29)21(32-13)30-10-5-11(24)14-12(6-10)31-20(18(28)16(14)26)8-1-3-9(23)4-2-8/h1-6,13,15,17,19,21-25,27-29H,7H2/p-1" "license=License CC-BY-NC-SA 4.0 International" "author=Plant Biology, The Noble Foundation, Ardmore, OK, US/Dennis Fine, Daniel Wherritt, and Lloyd Sumner" "ionization=ESI" "isolation width=5" "collision gas=Nitrogen" "peak width=0.016" "date=2014-01-08 03:22:41+01:00" "column=Waters Acquity BEH C18 1.7um x 2.1 x 150 mm" "retention time=377.4" "raw data file=C:\Data\Confirmed Standards\Confirmed stds MSMS 7Jan14\Kaempferol-7-O-glucoside_MSMS.d" "computed mass accuracy=1.4841909992886242" "computed mass error=6.635720001213485E-4" "SPLASH=splash10-000i-0090100000-49f4176897e0860a1c0f" "submitter=Aiko Barsch (Bruker)" "MoNA Rating=4.583333333333334"
Num Peaks: 7
151.0035 5.005005
257.0461 12.512513
284.0323 44.844845
285.0403 100.000000
286.0416 15.615616
447.0934 24.324324
448.0978 6.206206


Name: Kaempferol-7-O-glucoside
Synon: $:00in-source
DB#: MetaboBASE0844
InChIKey: YPWHZCPMOQGCDQ-HMGRVEAOSA-N
Precursor_type: [M]-
Spectrum_type: MS2
PrecursorMZ: 447.0921
Instrument_type: LC-ESI-TOF
Instrument: impact HD
Ion_mode: N
Collision_energy: 10
Formula: [C21H19O11]-
MW: 447
ExactMass: 447.0932850079093
Comments: "cas number=16290-07-6" "SMILES=C1=CC(=CC=C1C2=C(C(=O)C3=C(C=C(C=C3O2)O[C@H]4[C@@H]([C@H]([C@@H]([C@H](O4)CO)O)O)O)O)O)O" "InChI=InChI=1S/C21H20O11/c22-7-13-15(25)17(27)19(29)21(32-13)30-10-5-11(24)14-12(6-10)31-20(18(28)16(14)26)8-1-3-9(23)4-2-8/h1-6,13,15,17,19,21-25,27-29H,7H2/t13-,15-,17+,19-,21-/m1/s1" "computed SMILES=O=C1C([O-])=C(OC2=CC(OC3OC(CO)C(O)C(O)C3O)=CC(O)=C12)C=4C=CC(O)=CC4" "computed InChI=InChI=1S/C21H20O11/c22-7-13-15(25)17(27)19(29)21(32-13)30-10-5-11(24)14-12(6-10)31-20(18(28)16(14)26)8-1-3-9(23)4-2-8/h1-6,13,15,17,19,21-25,27-29H,7H2/p-1" "license=License CC-BY-NC-SA 4.0 International" "author=Plant Biology, The Noble Foundation, Ardmore, OK, US/Dennis Fine, Daniel Wherritt, and Lloyd Sumner" "ionization=ESI" "isolation width=5" "collision gas=Nitrogen" "peak width=0.015" "date=2014-01-08 03:22:41+01:00" "column=Waters Acquity BEH C18 1.7um x 2.1 x 150 mm" "retention time=377.4" "raw data file=C:\Data\Confirmed Standards\Confirmed stds MSMS 7Jan14\Kaempferol-7-O-glucoside_MSMS.d" "computed mass accuracy=1.4234829911701457" "computed mass error=-6.364279998365419E-4" "SPLASH=splash10-0002-0000900000-b32c771db8a33f4894f0" "submitter=Aiko Barsch (Bruker)" "MoNA Rating=3.9285714285714284"
Num Peaks: 2
447.0921 100.000000
448.0954 13.613614


Name: Kaempferol-7-O-glucoside
Synon: $:00in-source
DB#: MetaboBASE0845
InChIKey: YPWHZCPMOQGCDQ-HMGRVEAOSA-N
Precursor_type: [M]-
Spectrum_type: MS2
PrecursorMZ: 447.1
Instrument_type: LC-ESI-TOF
Instrument: impact HD
Ion_mode: N
Collision_energy: 40
Formula: [C21H19O11]-
MW: 447
ExactMass: 447.0932850079093
Comments: "cas number=16290-07-6" "SMILES=C1=CC(=CC=C1C2=C(C(=O)C3=C(C=C(C=C3O2)O[C@H]4[C@@H]([C@H]([C@@H]([C@H](O4)CO)O)O)O)O)O)O" "InChI=InChI=1S/C21H20O11/c22-7-13-15(25)17(27)19(29)21(32-13)30-10-5-11(24)14-12(6-10)31-20(18(28)16(14)26)8-1-3-9(23)4-2-8/h1-6,13,15,17,19,21-25,27-29H,7H2/t13-,15-,17+,19-,21-/m1/s1" "computed SMILES=O=C1C([O-])=C(OC2=CC(OC3OC(CO)C(O)C(O)C3O)=CC(O)=C12)C=4C=CC(O)=CC4" "computed InChI=InChI=1S/C21H20O11/c22-7-13-15(25)17(27)19(29)21(32-13)30-10-5-11(24)14-12(6-10)31-20(18(28)16(14)26)8-1-3-9(23)4-2-8/h1-6,13,15,17,19,21-25,27-29H,7H2/p-1" "license=License CC-BY-NC-SA 4.0 International" "author=Plant Biology, The Noble Foundation, Ardmore, OK, US/Dennis Fine, Daniel Wherritt, and Lloyd Sumner" "ionization=ESI" "isolation width=5" "collision gas=Nitrogen" "peak width=0.017" "date=2014-01-08 03:22:41+01:00" "column=Waters Acquity BEH C18 1.7um x 2.1 x 150 mm" "retention time=377.4" "raw data file=C:\Data\Confirmed Standards\Confirmed stds MSMS 7Jan14\Kaempferol-7-O-glucoside_MSMS.d" "computed mass accuracy=16.24596734549299" "computed mass error=0.0072635720001699156" "SPLASH=splash10-0540-0190000000-52ffadae742848899500" "submitter=Aiko Barsch (Bruker)" "MoNA Rating=4.545454545454546"
Num Peaks: 6
151.0043 38.138138
229.0508 14.914915
257.0466 54.554555
284.0320 100.000000
285.0403 82.282282
286.0471 16.816817


Name: Kaempferol-7-O-glucoside
Synon: $:00in-source
DB#: MetaboBASE0846
InChIKey: YPWHZCPMOQGCDQ-HMGRVEAOSA-N
Precursor_type: [M]-
Spectrum_type: MS2
PrecursorMZ: 447.1
Instrument_type: LC-ESI-TOF
Instrument: impact HD
Ion_mode: N
Collision_energy: 50
Formula: [C21H19O11]-
MW: 447
ExactMass: 447.0932850079093
Comments: "cas number=16290-07-6" "SMILES=C1=CC(=CC=C1C2=C(C(=O)C3=C(C=C(C=C3O2)O[C@H]4[C@@H]([C@H]([C@@H]([C@H](O4)CO)O)O)O)O)O)O" "InChI=InChI=1S/C21H20O11/c22-7-13-15(25)17(27)19(29)21(32-13)30-10-5-11(24)14-12(6-10)31-20(18(28)16(14)26)8-1-3-9(23)4-2-8/h1-6,13,15,17,19,21-25,27-29H,7H2/t13-,15-,17+,19-,21-/m1/s1" "computed SMILES=O=C1C([O-])=C(OC2=CC(OC3OC(CO)C(O)C(O)C3O)=CC(O)=C12)C=4C=CC(O)=CC4" "computed InChI=InChI=1S/C21H20O11/c22-7-13-15(25)17(27)19(29)21(32-13)30-10-5-11(24)14-12(6-10)31-20(18(28)16(14)26)8-1-3-9(23)4-2-8/h1-6,13,15,17,19,21-25,27-29H,7H2/p-1" "license=License CC-BY-NC-SA 4.0 International" "author=Plant Biology, The Noble Foundation, Ardmore, OK, US/Dennis Fine, Daniel Wherritt, and Lloyd Sumner" "ionization=ESI" "isolation width=5" "collision gas=Nitrogen" "peak width=0.016" "date=2014-01-08 03:22:41+01:00" "column=Waters Acquity BEH C18 1.7um x 2.1 x 150 mm" "retention time=377.4" "raw data file=C:\Data\Confirmed Standards\Confirmed stds MSMS 7Jan14\Kaempferol-7-O-glucoside_MSMS.d" "computed mass accuracy=16.24596734549299" "computed mass error=0.0072635720001699156" "SPLASH=splash10-0zgr-0590000000-c63b741fcdab7fbd76e9" "submitter=Aiko Barsch (Bruker)" "MoNA Rating=4.545454545454546"
Num Peaks: 6
151.0047 100.000000
161.3768 27.427427
229.0502 35.635636
257.0457 61.161161
284.0338 69.269269
285.0381 53.653654


Name: Silymarin 10.15 min
Synon: $:00in-source
DB#: MetaboBASE0847
InChIKey: SEBFKMXJBCUCAI-WAABAYLZSA-N
Precursor_type: [M-H]-
Spectrum_type: MS2
PrecursorMZ: 481.115
Instrument_type: LC-ESI-TOF
Instrument: impact HD
Ion_mode: N
Collision_energy: 20
Formula: C25H22O10
MW: 482
ExactMass: 482.121296904
Comments: "cas number=65666-07-1" "SMILES=COc1cc(ccc1O)[C@H]2[C@@H](Oc3ccc(cc3O2)[C@@H]4[C@H](C(=O)c5c(cc(cc5O4)O)O)O)CO" "InChI=InChI=1S/C25H22O10/c1-32-17-6-11(2-4-14(17)28)24-20(10-26)33-16-5-3-12(7-18(16)34-24)25-23(31)22(30)21-15(29)8-13(27)9-19(21)35-25/h2-9,20,23-29,31H,10H2,1H3/t20-,23-,24-,25+/m0/s1" "computed SMILES=O=C1C=2C(O)=CC(O)=CC2OC(C3=CC=C4OC(CO)C(OC4=C3)C5=CC=C(O)C(OC)=C5)C1O" "computed InChI=InChI=1S/C25H22O10/c1-32-17-6-11(2-4-14(17)28)24-20(10-26)33-16-5-3-12(7-18(16)34-24)25-23(31)22(30)21-15(29)8-13(27)9-19(21)35-25/h2-9,20,23-29,31H,10H2,1H3" "license=License CC-BY-NC-SA 4.0 International" "author=Plant Biology, The Noble Foundation, Ardmore, OK, US/Dennis Fine, Daniel Wherritt, and Lloyd Sumner" "ionization=ESI" "isolation width=5" "collision gas=Nitrogen" "peak width=0.011" "date=2014-01-08 02:01:07+01:00" "column=Waters Acquity BEH C18 1.7um x 2.1 x 150 mm" "retention time=609" "raw data file=C:\Data\Confirmed Standards\Confirmed stds MSMS 7Jan14\Silymarin (vial 311)_MSMS.d" "computed mass accuracy=2.03505606763554" "computed mass error=9.790959999804727E-4" "SPLASH=splash10-001i-0002900000-811667e96533dac778b9" "submitter=Aiko Barsch (Bruker)" "MoNA Rating=4.583333333333334"
Num Peaks: 4
301.0361 35.435435
453.1209 14.414414
481.1150 100.000000
482.1176 18.018018


Name: Silymarin 10.15 min
Synon: $:00in-source
DB#: MetaboBASE0848
InChIKey: SEBFKMXJBCUCAI-WAABAYLZSA-N
Instrument_type: LC-ESI-TOF
Instrument: impact HD
Ion_mode: N
Formula: C25H22O10
MW: 482
ExactMass: 482.121296904
Comments: "cas number=65666-07-1" "SMILES=COc1cc(ccc1O)[C@H]2[C@@H](Oc3ccc(cc3O2)[C@@H]4[C@H](C(=O)c5c(cc(cc5O4)O)O)O)CO" "InChI=InChI=1S/C25H22O10/c1-32-17-6-11(2-4-14(17)28)24-20(10-26)33-16-5-3-12(7-18(16)34-24)25-23(31)22(30)21-15(29)8-13(27)9-19(21)35-25/h2-9,20,23-29,31H,10H2,1H3/t20-,23-,24-,25+/m0/s1" "computed SMILES=O=C1C=2C(O)=CC(O)=CC2OC(C3=CC=C4OC(CO)C(OC4=C3)C5=CC=C(O)C(OC)=C5)C1O" "computed InChI=InChI=1S/C25H22O10/c1-32-17-6-11(2-4-14(17)28)24-20(10-26)33-16-5-3-12(7-18(16)34-24)25-23(31)22(30)21-15(29)8-13(27)9-19(21)35-25/h2-9,20,23-29,31H,10H2,1H3" "license=License CC-BY-NC-SA 4.0 International" "author=Plant Biology, The Noble Foundation, Ardmore, OK, US/Dennis Fine, Daniel Wherritt, and Lloyd Sumner" "ionization=ESI" "collision gas=Nitrogen" "peak width=0.012" "date=2014-01-08 02:01:07+01:00" "column=Waters Acquity BEH C18 1.7um x 2.1 x 150 mm" "retention time=609" "raw data file=C:\Data\Confirmed Standards\Confirmed stds MSMS 7Jan14\Silymarin (vial 311)_MSMS.d" "SPLASH=splash10-001i-0201900000-142905d2c647b791e07d" "submitter=Aiko Barsch (Bruker)" "MoNA Rating=3.888888888888889"
Num Peaks: 14
112.9840 4.004004
116.9284 5.605606
125.0252 13.713714
151.0057 7.507508
152.0137 7.907908
179.0015 3.103103
273.0412 5.805806
274.0451 3.503504
301.0348 18.218218
302.0414 5.005005
481.1158 100.000000
482.1190 26.226226
483.1216 4.004004
503.0971 4.504505


Name: Silymarin 10.15 min
Synon: $:00in-source
DB#: MetaboBASE0849
InChIKey: SEBFKMXJBCUCAI-WAABAYLZSA-N
Precursor_type: [M-H]-
Spectrum_type: MS2
PrecursorMZ: 481.1173
Instrument_type: LC-ESI-TOF
Instrument: impact HD
Ion_mode: N
Collision_energy: 6
Formula: C25H22O10
MW: 482
ExactMass: 482.12129690399996
Comments: "cas number=65666-07-1" "SMILES=COc1cc(ccc1O)[C@H]2[C@@H](Oc3ccc(cc3O2)[C@@H]4[C@H](C(=O)c5c(cc(cc5O4)O)O)O)CO" "InChI=InChI=1S/C25H22O10/c1-32-17-6-11(2-4-14(17)28)24-20(10-26)33-16-5-3-12(7-18(16)34-24)25-23(31)22(30)21-15(29)8-13(27)9-19(21)35-25/h2-9,20,23-29,31H,10H2,1H3/t20-,23-,24-,25+/m0/s1" "computed SMILES=O=C1C=2C(O)=CC(O)=CC2OC(C3=CC=C4OC(CO)C(OC4=C3)C5=CC=C(O)C(OC)=C5)C1O" "computed InChI=InChI=1S/C25H22O10/c1-32-17-6-11(2-4-14(17)28)24-20(10-26)33-16-5-3-12(7-18(16)34-24)25-23(31)22(30)21-15(29)8-13(27)9-19(21)35-25/h2-9,20,23-29,31H,10H2,1H3" "license=License CC-BY-NC-SA 4.0 International" "author=Plant Biology, The Noble Foundation, Ardmore, OK, US/Dennis Fine, Daniel Wherritt, and Lloyd Sumner" "ionization=ESI" "isolation width=5" "collision gas=Nitrogen" "peak width=0.013" "date=2014-01-08 02:01:07+01:00" "column=Waters Acquity BEH C18 1.7um x 2.1 x 150 mm" "retention time=609" "raw data file=C:\Data\Confirmed Standards\Confirmed stds MSMS 7Jan14\Silymarin (vial 311)_MSMS.d" "computed mass accuracy=6.815585305347372" "computed mass error=0.003279096000028403" "SPLASH=splash10-001i-0000900000-b2d2752da4d986f4e3af" "submitter=Aiko Barsch (Bruker)" "MoNA Rating=3.846153846153846"
Num Peaks: 2
481.1173 100.000000
482.1157 21.121121


Name: Silymarin 10.03 min
Synon: $:00in-source
DB#: MetaboBASE0850
InChIKey: SEBFKMXJBCUCAI-WAABAYLZSA-N
Precursor_type: [M-H]-
Spectrum_type: MS2
PrecursorMZ: 481.1146
Instrument_type: LC-ESI-TOF
Instrument: impact HD
Ion_mode: N
Collision_energy: 10
Formula: C25H22O10
MW: 482
ExactMass: 482.12129690399996
Comments: "cas number=65666-07-1" "SMILES=COc1cc(ccc1O)[C@H]2[C@@H](Oc3ccc(cc3O2)[C@@H]4[C@H](C(=O)c5c(cc(cc5O4)O)O)O)CO" "InChI=InChI=1S/C25H22O10/c1-32-17-6-11(2-4-14(17)28)24-20(10-26)33-16-5-3-12(7-18(16)34-24)25-23(31)22(30)21-15(29)8-13(27)9-19(21)35-25/h2-9,20,23-29,31H,10H2,1H3/t20-,23-,24-,25+/m0/s1" "computed SMILES=O=C1C=2C(O)=CC(O)=CC2OC(C3=CC=C4OC(CO)C(OC4=C3)C5=CC=C(O)C(OC)=C5)C1O" "computed InChI=InChI=1S/C25H22O10/c1-32-17-6-11(2-4-14(17)28)24-20(10-26)33-16-5-3-12(7-18(16)34-24)25-23(31)22(30)21-15(29)8-13(27)9-19(21)35-25/h2-9,20,23-29,31H,10H2,1H3" "license=License CC-BY-NC-SA 4.0 International" "author=Plant Biology, The Noble Foundation, Ardmore, OK, US/Dennis Fine, Daniel Wherritt, and Lloyd Sumner" "ionization=ESI" "isolation width=5" "collision gas=Nitrogen" "peak width=0.019" "date=2014-01-08 02:01:07+01:00" "column=Waters Acquity BEH C18 1.7um x 2.1 x 150 mm" "retention time=601.8" "raw data file=C:\Data\Confirmed Standards\Confirmed stds MSMS 7Jan14\Silymarin (vial 311)_MSMS.d" "computed mass accuracy=1.2036550128057588" "computed mass error=5.790960000240375E-4" "SPLASH=splash10-001i-0000900000-6fdb5df34264f81cc4ad" "submitter=Aiko Barsch (Bruker)" "MoNA Rating=3.9285714285714284"
Num Peaks: 2
481.1146 100.000000
482.1202 16.916917


Name: Silymarin 10.03 min
Synon: $:00in-source
DB#: MetaboBASE0851
InChIKey: SEBFKMXJBCUCAI-WAABAYLZSA-N
Precursor_type: [M-H]-
Spectrum_type: MS2
PrecursorMZ: 481.116
Instrument_type: LC-ESI-TOF
Instrument: impact HD
Ion_mode: N
Collision_energy: 20
Formula: C25H22O10
MW: 482
ExactMass: 482.12129690399996
Comments: "cas number=65666-07-1" "SMILES=COc1cc(ccc1O)[C@H]2[C@@H](Oc3ccc(cc3O2)[C@@H]4[C@H](C(=O)c5c(cc(cc5O4)O)O)O)CO" "InChI=InChI=1S/C25H22O10/c1-32-17-6-11(2-4-14(17)28)24-20(10-26)33-16-5-3-12(7-18(16)34-24)25-23(31)22(30)21-15(29)8-13(27)9-19(21)35-25/h2-9,20,23-29,31H,10H2,1H3/t20-,23-,24-,25+/m0/s1" "computed SMILES=O=C1C=2C(O)=CC(O)=CC2OC(C3=CC=C4OC(CO)C(OC4=C3)C5=CC=C(O)C(OC)=C5)C1O" "computed InChI=InChI=1S/C25H22O10/c1-32-17-6-11(2-4-14(17)28)24-20(10-26)33-16-5-3-12(7-18(16)34-24)25-23(31)22(30)21-15(29)8-13(27)9-19(21)35-25/h2-9,20,23-29,31H,10H2,1H3" "license=License CC-BY-NC-SA 4.0 International" "author=Plant Biology, The Noble Foundation, Ardmore, OK, US/Dennis Fine, Daniel Wherritt, and Lloyd Sumner" "ionization=ESI" "isolation width=5" "collision gas=Nitrogen" "peak width=0.015" "date=2014-01-08 02:01:07+01:00" "column=Waters Acquity BEH C18 1.7um x 2.1 x 150 mm" "retention time=601.8" "raw data file=C:\Data\Confirmed Standards\Confirmed stds MSMS 7Jan14\Silymarin (vial 311)_MSMS.d" "computed mass accuracy=4.113552656768158" "computed mass error=0.0019790960000136693" "SPLASH=splash10-001i-0003900000-1b715e5192005890816e" "submitter=Aiko Barsch (Bruker)" "MoNA Rating=3.9285714285714284"
Num Peaks: 2
301.0356 34.634635
481.1160 100.000000


Name: Silymarin 10.03 min
Synon: $:00in-source
DB#: MetaboBASE0852
InChIKey: SEBFKMXJBCUCAI-WAABAYLZSA-N
Instrument_type: LC-ESI-TOF
Instrument: impact HD
Ion_mode: N
Formula: C25H22O10
MW: 482
ExactMass: 482.121296904
Comments: "cas number=65666-07-1" "SMILES=COc1cc(ccc1O)[C@H]2[C@@H](Oc3ccc(cc3O2)[C@@H]4[C@H](C(=O)c5c(cc(cc5O4)O)O)O)CO" "InChI=InChI=1S/C25H22O10/c1-32-17-6-11(2-4-14(17)28)24-20(10-26)33-16-5-3-12(7-18(16)34-24)25-23(31)22(30)21-15(29)8-13(27)9-19(21)35-25/h2-9,20,23-29,31H,10H2,1H3/t20-,23-,24-,25+/m0/s1" "computed SMILES=O=C1C=2C(O)=CC(O)=CC2OC(C3=CC=C4OC(CO)C(OC4=C3)C5=CC=C(O)C(OC)=C5)C1O" "computed InChI=InChI=1S/C25H22O10/c1-32-17-6-11(2-4-14(17)28)24-20(10-26)33-16-5-3-12(7-18(16)34-24)25-23(31)22(30)21-15(29)8-13(27)9-19(21)35-25/h2-9,20,23-29,31H,10H2,1H3" "license=License CC-BY-NC-SA 4.0 International" "author=Plant Biology, The Noble Foundation, Ardmore, OK, US/Dennis Fine, Daniel Wherritt, and Lloyd Sumner" "ionization=ESI" "collision gas=Nitrogen" "peak width=0.013" "date=2014-01-08 02:01:07+01:00" "column=Waters Acquity BEH C18 1.7um x 2.1 x 150 mm" "retention time=601.8" "raw data file=C:\Data\Confirmed Standards\Confirmed stds MSMS 7Jan14\Silymarin (vial 311)_MSMS.d" "SPLASH=splash10-001i-0312900000-861e8864b057b8c27e2a" "submitter=Aiko Barsch (Bruker)" "MoNA Rating=3.888888888888889"
Num Peaks: 19
112.9859 5.405405
116.9290 9.709710
124.0169 3.703704
125.0252 14.914915
151.0053 6.006006
152.0126 9.909910
179.0000 3.103103
229.0517 2.602603
255.0302 3.703704
257.0471 3.003003
273.0393 11.011011
284.0332 3.403403
301.0353 24.424424
302.0388 5.705706
453.1230 3.103103
481.1168 100.000000
482.1198 24.024024
483.1213 4.804805
503.0953 5.305305


Name: 3,7,3',4'-Tetrahydroxyflavanone
Synon: Fustin
Synon: $:00in-source
DB#: MetaboBASE0853
InChIKey: FNUPUYFWZXZMIE-LSDHHAIUSA-N
Instrument_type: LC-ESI-TOF
Instrument: impact HD
Ion_mode: N
Formula: C15H12O6
MW: 288
ExactMass: 288.06338810399996
Comments: "cas number=4382-36-9" "SMILES=c1cc(c(cc1[C@@H]2[C@H](C(=O)c3ccc(cc3O2)O)O)O)O" "InChI=InChI=1S/C15H12O6/c16-8-2-3-9-12(6-8)21-15(14(20)13(9)19)7-1-4-10(17)11(18)5-7/h1-6,14-18,20H/t14-,15+/m0/s1" "computed SMILES=O=C1C2=CC=C(O)C=C2OC(C3=CC=C(O)C(O)=C3)C1O" "license=License CC-BY-NC-SA 4.0 International" "author=Plant Biology, The Noble Foundation, Ardmore, OK, US/Dennis Fine, Daniel Wherritt, and Lloyd Sumner" "ionization=ESI" "collision gas=Nitrogen" "peak width=0.01" "date=2014-01-09 15:33:02+01:00" "column=Waters Acquity BEH C18 1.7um x 2.1 x 150 mm" "retention time=226.2" "raw data file=C:\Data\Confirmed Standards\Confirmed stds 9Jan14\373'4'Tetrahydroxyfava_MSMS.d" "SPLASH=splash10-000i-0090010000-c238a4efab65022edfac" "submitter=Aiko Barsch (Bruker)" "MoNA Rating=3.888888888888889"
Num Peaks: 7
269.0447 3.003003
285.0398 11.011011
287.0555 100.000000
288.0587 11.911912
575.1186 21.521522
576.1219 5.605606
666.0197 2.202202


Name: 3,7,3',4'-Tetrahydroxyflavanone
Synon: Fustin
Synon: $:00in-source
DB#: MetaboBASE0854
InChIKey: FNUPUYFWZXZMIE-LSDHHAIUSA-N
Precursor_type: [M-H]-
Spectrum_type: MS2
PrecursorMZ: 287.0565
Instrument_type: LC-ESI-TOF
Instrument: impact HD
Ion_mode: N
Collision_energy: 10
Formula: C15H12O6
MW: 288
ExactMass: 288.06338810399996
Comments: "cas number=4382-36-9" "SMILES=c1cc(c(cc1[C@@H]2[C@H](C(=O)c3ccc(cc3O2)O)O)O)O" "InChI=InChI=1S/C15H12O6/c16-8-2-3-9-12(6-8)21-15(14(20)13(9)19)7-1-4-10(17)11(18)5-7/h1-6,14-18,20H/t14-,15+/m0/s1" "computed SMILES=O=C1C2=CC=C(O)C=C2OC(C3=CC=C(O)C(O)=C3)C1O" "license=License CC-BY-NC-SA 4.0 International" "author=Plant Biology, The Noble Foundation, Ardmore, OK, US/Dennis Fine, Daniel Wherritt, and Lloyd Sumner" "ionization=ESI" "isolation width=5" "collision gas=Nitrogen" "peak width=0.015" "date=2014-01-09 20:23:05+01:00" "column=Waters Acquity BEH C18 1.7um x 2.1 x 150 mm" "retention time=228" "raw data file=C:\Data\Confirmed Standards\14Jan9 Confirmed stds MSMS\373'4'Tetrahydroxyfava_MSMS.d" "computed mass accuracy=1.3512879870805656" "computed mass error=3.878960000633924E-4" "SPLASH=splash10-000i-0090000000-be512a88a8b8e01ae667" "submitter=Aiko Barsch (Bruker)" "MoNA Rating=4.583333333333334"
Num Peaks: 10
163.0041 4.404404
257.0455 2.202202
259.0614 19.719720
260.0644 3.503504
269.0460 33.133133
270.0478 3.803804
285.0408 59.659660
286.0444 8.908909
287.0565 100.000000
288.0601 10.910911


Name: 3,7,3',4'-Tetrahydroxyflavanone
Synon: Fustin
Synon: $:00in-source
DB#: MetaboBASE0855
InChIKey: FNUPUYFWZXZMIE-LSDHHAIUSA-N
Precursor_type: [M-H]-
Spectrum_type: MS2
PrecursorMZ: 287.1
Instrument_type: LC-ESI-TOF
Instrument: impact HD
Ion_mode: N
Collision_energy: 30
Formula: C15H12O6
MW: 288
ExactMass: 288.06338810399996
Comments: "cas number=4382-36-9" "SMILES=c1cc(c(cc1[C@@H]2[C@H](C(=O)c3ccc(cc3O2)O)O)O)O" "InChI=InChI=1S/C15H12O6/c16-8-2-3-9-12(6-8)21-15(14(20)13(9)19)7-1-4-10(17)11(18)5-7/h1-6,14-18,20H/t14-,15+/m0/s1" "computed SMILES=O=C1C2=CC=C(O)C=C2OC(C3=CC=C(O)C(O)=C3)C1O" "license=License CC-BY-NC-SA 4.0 International" "author=Plant Biology, The Noble Foundation, Ardmore, OK, US/Dennis Fine, Daniel Wherritt, and Lloyd Sumner" "ionization=ESI" "isolation width=5" "collision gas=Nitrogen" "peak width=0.018" "date=2014-01-09 20:23:05+01:00" "column=Waters Acquity BEH C18 1.7um x 2.1 x 150 mm" "retention time=228" "raw data file=C:\Data\Confirmed Standards\14Jan9 Confirmed stds MSMS\373'4'Tetrahydroxyfava_MSMS.d" "computed mass accuracy=152.86623476160895" "computed mass error=0.043887896000057935" "SPLASH=splash10-0abi-0910000000-faeedcab9c6fde6871a7" "submitter=Aiko Barsch (Bruker)" "MoNA Rating=4.545454545454546"
Num Peaks: 21
108.0229 6.306306
109.0297 100.000000
110.0332 7.407407
121.0295 31.331331
122.0348 7.607608
123.0450 35.035035
135.0094 45.145145
136.0148 9.409409
137.0260 14.214214
139.0414 7.307307
149.0245 19.519520
150.0306 6.506507
151.0416 13.113113
153.0219 5.305305
160.0167 6.206206
163.0070 10.210210
211.0433 12.612613
224.0496 10.310310
225.0552 17.317317
239.0354 7.407407
241.0522 6.006006


Name: 3,7,3',4'-Tetrahydroxyflavanone
Synon: Fustin
Synon: $:00in-source
DB#: MetaboBASE0856
InChIKey: FNUPUYFWZXZMIE-LSDHHAIUSA-N
Instrument_type: LC-ESI-TOF
Instrument: impact HD
Ion_mode: N
Formula: C15H12O6
MW: 288
ExactMass: 288.06338810399996
Comments: "cas number=4382-36-9" "SMILES=c1cc(c(cc1[C@@H]2[C@H](C(=O)c3ccc(cc3O2)O)O)O)O" "InChI=InChI=1S/C15H12O6/c16-8-2-3-9-12(6-8)21-15(14(20)13(9)19)7-1-4-10(17)11(18)5-7/h1-6,14-18,20H/t14-,15+/m0/s1" "computed SMILES=O=C1C2=CC=C(O)C=C2OC(C3=CC=C(O)C(O)=C3)C1O" "license=License CC-BY-NC-SA 4.0 International" "author=Plant Biology, The Noble Foundation, Ardmore, OK, US/Dennis Fine, Daniel Wherritt, and Lloyd Sumner" "ionization=ESI" "collision gas=Nitrogen" "peak width=0.015" "date=2014-01-09 20:23:05+01:00" "column=Waters Acquity BEH C18 1.7um x 2.1 x 150 mm" "retention time=228" "raw data file=C:\Data\Confirmed Standards\14Jan9 Confirmed stds MSMS\373'4'Tetrahydroxyfava_MSMS.d" "SPLASH=splash10-000i-0090010000-d39b1b3625dc1b4bbf42" "submitter=Aiko Barsch (Bruker)" "MoNA Rating=3.888888888888889"
Num Peaks: 10
269.0465 3.303303
285.0419 75.675676
286.0450 9.209209
287.0575 100.000000
288.0608 11.711712
303.0519 3.003003
571.0894 2.402402
573.1062 5.705706
575.1223 15.815816
576.1254 4.304304


Name: 3,7,3',4'-Tetrahydroxyflavanone
Synon: Fustin
Synon: $:00in-source
DB#: MetaboBASE0857
InChIKey: FNUPUYFWZXZMIE-LSDHHAIUSA-N
Spectrum_type: MS2
PrecursorMZ: 285.0385
Instrument_type: LC-ESI-TOF
Instrument: impact HD
Ion_mode: N
Collision_energy: 20
Formula: C15H12O6
MW: 288
ExactMass: 288.06338810399996
Comments: "cas number=4382-36-9" "SMILES=c1cc(c(cc1[C@@H]2[C@H](C(=O)c3ccc(cc3O2)O)O)O)O" "InChI=InChI=1S/C15H12O6/c16-8-2-3-9-12(6-8)21-15(14(20)13(9)19)7-1-4-10(17)11(18)5-7/h1-6,14-18,20H/t14-,15+/m0/s1" "computed SMILES=O=C1C2=CC=C(O)C=C2OC(C3=CC=C(O)C(O)=C3)C1O" "license=License CC-BY-NC-SA 4.0 International" "author=Plant Biology, The Noble Foundation, Ardmore, OK, US/Dennis Fine, Daniel Wherritt, and Lloyd Sumner" "ionization=ESI" "isolation width=5" "collision gas=Nitrogen" "peak width=0.018" "date=2014-01-09 15:33:02+01:00" "column=Waters Acquity BEH C18 1.7um x 2.1 x 150 mm" "retention time=226.2" "raw data file=C:\Data\Confirmed Standards\Confirmed stds 9Jan14\373'4'Tetrahydroxyfava_MSMS.d" "SPLASH=splash10-0a4i-0960000000-19057cfec7c79b016a55" "submitter=Aiko Barsch (Bruker)" "MoNA Rating=3.125"
Num Peaks: 29
109.0287 100.000000
121.0282 20.220220
123.0309 30.330330
135.0080 49.049049
136.0156 8.908909
137.0230 24.924925
149.0244 61.361361
150.0315 7.707708
151.0392 21.321321
153.0181 11.611612
160.0153 7.807808
163.0029 64.264264
164.0082 7.307307
165.0194 8.408408
177.0193 6.506507
224.0495 8.308308
225.0550 70.770771
227.0347 7.207207
239.0335 14.014014
241.0506 12.012012
243.0597 6.206206
257.0459 9.809810
259.0616 69.769770
260.0623 9.309309
267.0317 8.108108
269.0447 66.266266
270.0445 7.907908
285.0385 13.213213
287.0540 20.220220


Name: Hesperidin
Synon: $:00in-source
DB#: MetaboBASE0858
InChIKey: QUQPHWDTPGMPEX-QJBIFVCTSA-N
Precursor_type: [M-H]-
Spectrum_type: MS2
PrecursorMZ: 609.2
Instrument_type: LC-ESI-TOF
Instrument: impact HD
Ion_mode: N
Collision_energy: 40
Formula: C28H34O15
MW: 610
ExactMass: 610.1897703879999
Comments: "cas number=520-26-3" "SMILES=C[C@H]1[C@@H]([C@H]([C@H]([C@@H](O1)OC[C@@H]2[C@H]([C@@H]([C@H]([C@@H](O2)Oc3cc(c4c(c3)O[C@@H](CC4=O)c5ccc(c(c5)O)OC)O)O)O)O)O)O)O" "InChI=InChI=1S/C28H34O15/c1-10-21(32)23(34)25(36)27(40-10)39-9-19-22(33)24(35)26(37)28(43-19)41-12-6-14(30)20-15(31)8-17(42-18(20)7-12)11-3-4-16(38-2)13(29)5-11/h3-7,10,17,19,21-30,32-37H,8-9H2,1-2H3/t10-,17-,19+,21-,22+,23+,24-,25+,26+,27+,28+/m0/s1" "computed SMILES=O=C1C2=C(O)C=C(OC3OC(COC4OC(C)C(O)C(O)C4O)C(O)C(O)C3O)C=C2OC(C5=CC=C(OC)C(O)=C5)C1" "computed InChI=InChI=1S/C28H34O15/c1-10-21(32)23(34)25(36)27(40-10)39-9-19-22(33)24(35)26(37)28(43-19)41-12-6-14(30)20-15(31)8-17(42-18(20)7-12)11-3-4-16(38-2)13(29)5-11/h3-7,10,17,19,21-30,32-37H,8-9H2,1-2H3" "license=License CC-BY-NC-SA 4.0 International" "author=Plant Biology, The Noble Foundation, Ardmore, OK, US/Dennis Fine, Daniel Wherritt, and Lloyd Sumner" "ionization=ESI" "isolation width=5" "collision gas=Nitrogen" "peak width=0.012" "date=2014-01-09 01:25:13+01:00" "column=Waters Acquity BEH C18 1.7um x 2.1 x 150 mm" "retention time=424.8" "raw data file=C:\Data\Confirmed Standards\Confirmed stds MSMS 8Jan14\Hesperidin (vial 322)_MSMS.d" "computed mass accuracy=28.73541037450754" "computed mass error=0.017505612000149995" "SPLASH=splash10-0udi-0009000000-283330c229581467aa8c" "submitter=Aiko Barsch (Bruker)" "MoNA Rating=4.545454545454546"
Num Peaks: 6
242.0595 2.602603
257.0802 3.403403
286.0481 4.904905
301.0728 100.000000
302.0760 13.113113
325.0717 3.203203


Name: Hesperidin
Synon: $:00in-source
DB#: MetaboBASE0859
InChIKey: QUQPHWDTPGMPEX-QJBIFVCTSA-N
Precursor_type: [M-H]-
Spectrum_type: MS2
PrecursorMZ: 609.1866
Instrument_type: LC-ESI-TOF
Instrument: impact HD
Ion_mode: N
Collision_energy: 10
Formula: C28H34O15
MW: 610
ExactMass: 610.1897703879999
Comments: "cas number=520-26-3" "SMILES=C[C@H]1[C@@H]([C@H]([C@H]([C@@H](O1)OC[C@@H]2[C@H]([C@@H]([C@H]([C@@H](O2)Oc3cc(c4c(c3)O[C@@H](CC4=O)c5ccc(c(c5)O)OC)O)O)O)O)O)O)O" "InChI=InChI=1S/C28H34O15/c1-10-21(32)23(34)25(36)27(40-10)39-9-19-22(33)24(35)26(37)28(43-19)41-12-6-14(30)20-15(31)8-17(42-18(20)7-12)11-3-4-16(38-2)13(29)5-11/h3-7,10,17,19,21-30,32-37H,8-9H2,1-2H3/t10-,17-,19+,21-,22+,23+,24-,25+,26+,27+,28+/m0/s1" "computed SMILES=O=C1C2=C(O)C=C(OC3OC(COC4OC(C)C(O)C(O)C4O)C(O)C(O)C3O)C=C2OC(C5=CC=C(OC)C(O)=C5)C1" "computed InChI=InChI=1S/C28H34O15/c1-10-21(32)23(34)25(36)27(40-10)39-9-19-22(33)24(35)26(37)28(43-19)41-12-6-14(30)20-15(31)8-17(42-18(20)7-12)11-3-4-16(38-2)13(29)5-11/h3-7,10,17,19,21-30,32-37H,8-9H2,1-2H3" "license=License CC-BY-NC-SA 4.0 International" "author=Plant Biology, The Noble Foundation, Ardmore, OK, US/Dennis Fine, Daniel Wherritt, and Lloyd Sumner" "ionization=ESI" "isolation width=5" "collision gas=Nitrogen" "peak width=0.015" "date=2014-01-09 01:25:13+01:00" "column=Waters Acquity BEH C18 1.7um x 2.1 x 150 mm" "retention time=424.8" "raw data file=C:\Data\Confirmed Standards\Confirmed stds MSMS 8Jan14\Hesperidin (vial 322)_MSMS.d" "computed mass accuracy=6.739498209748975" "computed mass error=0.004105612000103065" "SPLASH=splash10-0a4i-0002009000-ef46dd12935025cc99f3" "submitter=Aiko Barsch (Bruker)" "MoNA Rating=4.545454545454546"
Num Peaks: 5
301.0720 28.628629
302.0705 4.604605
609.1866 100.000000
610.1890 38.838839
611.1830 6.406406


Name: Hesperidin
Synon: $:00in-source
DB#: MetaboBASE0860
InChIKey: QUQPHWDTPGMPEX-QJBIFVCTSA-N
Precursor_type: [M-H]-
Spectrum_type: MS2
PrecursorMZ: 609.1827
Instrument_type: LC-ESI-TOF
Instrument: impact HD
Ion_mode: N
Collision_energy: 20
Formula: C28H34O15
MW: 610
ExactMass: 610.1897703879999
Comments: "cas number=520-26-3" "SMILES=C[C@H]1[C@@H]([C@H]([C@H]([C@@H](O1)OC[C@@H]2[C@H]([C@@H]([C@H]([C@@H](O2)Oc3cc(c4c(c3)O[C@@H](CC4=O)c5ccc(c(c5)O)OC)O)O)O)O)O)O)O" "InChI=InChI=1S/C28H34O15/c1-10-21(32)23(34)25(36)27(40-10)39-9-19-22(33)24(35)26(37)28(43-19)41-12-6-14(30)20-15(31)8-17(42-18(20)7-12)11-3-4-16(38-2)13(29)5-11/h3-7,10,17,19,21-30,32-37H,8-9H2,1-2H3/t10-,17-,19+,21-,22+,23+,24-,25+,26+,27+,28+/m0/s1" "computed SMILES=O=C1C2=C(O)C=C(OC3OC(COC4OC(C)C(O)C(O)C4O)C(O)C(O)C3O)C=C2OC(C5=CC=C(OC)C(O)=C5)C1" "computed InChI=InChI=1S/C28H34O15/c1-10-21(32)23(34)25(36)27(40-10)39-9-19-22(33)24(35)26(37)28(43-19)41-12-6-14(30)20-15(31)8-17(42-18(20)7-12)11-3-4-16(38-2)13(29)5-11/h3-7,10,17,19,21-30,32-37H,8-9H2,1-2H3" "license=License CC-BY-NC-SA 4.0 International" "author=Plant Biology, The Noble Foundation, Ardmore, OK, US/Dennis Fine, Daniel Wherritt, and Lloyd Sumner" "ionization=ESI" "isolation width=5" "collision gas=Nitrogen" "peak width=0.014" "date=2014-01-09 01:25:13+01:00" "column=Waters Acquity BEH C18 1.7um x 2.1 x 150 mm" "retention time=424.8" "raw data file=C:\Data\Confirmed Standards\Confirmed stds MSMS 8Jan14\Hesperidin (vial 322)_MSMS.d" "computed mass accuracy=0.3375210754653136" "computed mass error=2.056120000588635E-4" "SPLASH=splash10-0udi-0009002000-4750b2aa846256abc7dc" "submitter=Aiko Barsch (Bruker)" "MoNA Rating=4.615384615384616"
Num Peaks: 5
301.0723 100.000000
302.0770 15.615616
303.0788 3.803804
609.1827 25.325325
610.1877 8.108108


Name: Hesperidin
Synon: $:00in-source
DB#: MetaboBASE0861
InChIKey: QUQPHWDTPGMPEX-QJBIFVCTSA-N
Instrument_type: LC-ESI-TOF
Instrument: impact HD
Ion_mode: N
Formula: C28H34O15
MW: 610
ExactMass: 610.1897703879999
Comments: "cas number=520-26-3" "SMILES=C[C@H]1[C@@H]([C@H]([C@H]([C@@H](O1)OC[C@@H]2[C@H]([C@@H]([C@H]([C@@H](O2)Oc3cc(c4c(c3)O[C@@H](CC4=O)c5ccc(c(c5)O)OC)O)O)O)O)O)O)O" "InChI=InChI=1S/C28H34O15/c1-10-21(32)23(34)25(36)27(40-10)39-9-19-22(33)24(35)26(37)28(43-19)41-12-6-14(30)20-15(31)8-17(42-18(20)7-12)11-3-4-16(38-2)13(29)5-11/h3-7,10,17,19,21-30,32-37H,8-9H2,1-2H3/t10-,17-,19+,21-,22+,23+,24-,25+,26+,27+,28+/m0/s1" "computed SMILES=O=C1C2=C(O)C=C(OC3OC(COC4OC(C)C(O)C(O)C4O)C(O)C(O)C3O)C=C2OC(C5=CC=C(OC)C(O)=C5)C1" "computed InChI=InChI=1S/C28H34O15/c1-10-21(32)23(34)25(36)27(40-10)39-9-19-22(33)24(35)26(37)28(43-19)41-12-6-14(30)20-15(31)8-17(42-18(20)7-12)11-3-4-16(38-2)13(29)5-11/h3-7,10,17,19,21-30,32-37H,8-9H2,1-2H3" "license=License CC-BY-NC-SA 4.0 International" "author=Plant Biology, The Noble Foundation, Ardmore, OK, US/Dennis Fine, Daniel Wherritt, and Lloyd Sumner" "ionization=ESI" "collision gas=Nitrogen" "peak width=0.011" "date=2014-01-09 01:25:13+01:00" "column=Waters Acquity BEH C18 1.7um x 2.1 x 150 mm" "retention time=424.8" "raw data file=C:\Data\Confirmed Standards\Confirmed stds MSMS 8Jan14\Hesperidin (vial 322)_MSMS.d" "SPLASH=splash10-0a4i-0010009000-7d463589853787a4d83a" "submitter=Aiko Barsch (Bruker)" "MoNA Rating=3.888888888888889"
Num Peaks: 8
609.1848 100.000000
610.1883 23.423423
611.1906 4.104104
655.1887 2.502503
666.0213 3.403403
677.1708 4.504505
1219.3766 9.709710
1220.3781 6.306306


Name: Hesperidin
Synon: $:00in-source
DB#: MetaboBASE0862
InChIKey: QUQPHWDTPGMPEX-QJBIFVCTSA-N
Precursor_type: [M-H]-
Spectrum_type: MS2
PrecursorMZ: 609.2
Instrument_type: LC-ESI-TOF
Instrument: impact HD
Ion_mode: N
Collision_energy: 50
Formula: C28H34O15
MW: 610
ExactMass: 610.189770388
Comments: "cas number=520-26-3" "SMILES=C[C@H]1[C@@H]([C@H]([C@H]([C@@H](O1)OC[C@@H]2[C@H]([C@@H]([C@H]([C@@H](O2)Oc3cc(c4c(c3)O[C@@H](CC4=O)c5ccc(c(c5)O)OC)O)O)O)O)O)O)O" "InChI=InChI=1S/C28H34O15/c1-10-21(32)23(34)25(36)27(40-10)39-9-19-22(33)24(35)26(37)28(43-19)41-12-6-14(30)20-15(31)8-17(42-18(20)7-12)11-3-4-16(38-2)13(29)5-11/h3-7,10,17,19,21-30,32-37H,8-9H2,1-2H3/t10-,17-,19+,21-,22+,23+,24-,25+,26+,27+,28+/m0/s1" "computed SMILES=O=C1C2=C(O)C=C(OC3OC(COC4OC(C)C(O)C(O)C4O)C(O)C(O)C3O)C=C2OC(C5=CC=C(OC)C(O)=C5)C1" "computed InChI=InChI=1S/C28H34O15/c1-10-21(32)23(34)25(36)27(40-10)39-9-19-22(33)24(35)26(37)28(43-19)41-12-6-14(30)20-15(31)8-17(42-18(20)7-12)11-3-4-16(38-2)13(29)5-11/h3-7,10,17,19,21-30,32-37H,8-9H2,1-2H3" "license=License CC-BY-NC-SA 4.0 International" "author=Plant Biology, The Noble Foundation, Ardmore, OK, US/Dennis Fine, Daniel Wherritt, and Lloyd Sumner" "ionization=ESI" "isolation width=5" "collision gas=Nitrogen" "peak width=0.013" "date=2014-01-09 01:25:13+01:00" "column=Waters Acquity BEH C18 1.7um x 2.1 x 150 mm" "retention time=424.8" "raw data file=C:\Data\Confirmed Standards\Confirmed stds MSMS 8Jan14\Hesperidin (vial 322)_MSMS.d" "computed mass accuracy=28.73541037432092" "computed mass error=0.017505612000036308" "SPLASH=splash10-0udi-0029000000-5abbbe61f9472ac9f446" "submitter=Aiko Barsch (Bruker)" "MoNA Rating=4.545454545454546"
Num Peaks: 7
125.0239 5.505506
164.0153 6.006006
242.0590 13.213213
257.0783 9.409409
286.0489 13.413413
301.0722 100.000000
302.0763 13.313313


Name: Hesperidin
Synon: $:00in-source
DB#: MetaboBASE0863
InChIKey: QUQPHWDTPGMPEX-QJBIFVCTSA-N
Precursor_type: [M-H]-
Spectrum_type: MS2
PrecursorMZ: 609.1843
Instrument_type: LC-ESI-TOF
Instrument: impact HD
Ion_mode: N
Collision_energy: 30
Formula: C28H34O15
MW: 610
ExactMass: 610.189770388
Comments: "cas number=520-26-3" "SMILES=C[C@H]1[C@@H]([C@H]([C@H]([C@@H](O1)OC[C@@H]2[C@H]([C@@H]([C@H]([C@@H](O2)Oc3cc(c4c(c3)O[C@@H](CC4=O)c5ccc(c(c5)O)OC)O)O)O)O)O)O)O" "InChI=InChI=1S/C28H34O15/c1-10-21(32)23(34)25(36)27(40-10)39-9-19-22(33)24(35)26(37)28(43-19)41-12-6-14(30)20-15(31)8-17(42-18(20)7-12)11-3-4-16(38-2)13(29)5-11/h3-7,10,17,19,21-30,32-37H,8-9H2,1-2H3/t10-,17-,19+,21-,22+,23+,24-,25+,26+,27+,28+/m0/s1" "computed SMILES=O=C1C2=C(O)C=C(OC3OC(COC4OC(C)C(O)C(O)C4O)C(O)C(O)C3O)C=C2OC(C5=CC=C(OC)C(O)=C5)C1" "computed InChI=InChI=1S/C28H34O15/c1-10-21(32)23(34)25(36)27(40-10)39-9-19-22(33)24(35)26(37)28(43-19)41-12-6-14(30)20-15(31)8-17(42-18(20)7-12)11-3-4-16(38-2)13(29)5-11/h3-7,10,17,19,21-30,32-37H,8-9H2,1-2H3" "license=License CC-BY-NC-SA 4.0 International" "author=Plant Biology, The Noble Foundation, Ardmore, OK, US/Dennis Fine, Daniel Wherritt, and Lloyd Sumner" "ionization=ESI" "isolation width=5" "collision gas=Nitrogen" "peak width=0.013" "date=2014-01-09 01:25:13+01:00" "column=Waters Acquity BEH C18 1.7um x 2.1 x 150 mm" "retention time=424.8" "raw data file=C:\Data\Confirmed Standards\Confirmed stds MSMS 8Jan14\Hesperidin (vial 322)_MSMS.d" "computed mass accuracy=2.963983149267457" "computed mass error=0.0018056119999982911" "SPLASH=splash10-0udi-0009000000-865b6028ed5cc1fd73d8" "submitter=Aiko Barsch (Bruker)" "MoNA Rating=4.583333333333334"
Num Peaks: 4
301.0726 100.000000
302.0757 14.414414
325.0766 2.002002
609.1843 4.804805


Name: 3,6,2',4'-Tetrahydroxyflavone
Synon: $:00in-source
DB#: MetaboBASE0864
InChIKey: DNISTMYBAOCXPD-UHFFFAOYSA-N
Precursor_type: [M-H]-
Spectrum_type: MS2
PrecursorMZ: 285.04
Instrument_type: LC-ESI-TOF
Instrument: impact HD
Ion_mode: N
Collision_energy: 10
Formula: C15H10O6
MW: 286
ExactMass: 286.04773804
Comments: "SMILES=c1cc(c(cc1O)O)c2c(c(=O)c3cc(ccc3o2)O)O" "InChI=InChI=1S/C15H10O6/c16-7-2-4-12-10(5-7)13(19)14(20)15(21-12)9-3-1-8(17)6-11(9)18/h1-6,16-18,20H" "computed SMILES=O=C1C(O)=C(OC2=CC=C(O)C=C12)C=3C=CC(O)=CC3O" "license=License CC-BY-NC-SA 4.0 International" "author=Plant Biology, The Noble Foundation, Ardmore, OK, US/Dennis Fine, Daniel Wherritt, and Lloyd Sumner" "ionization=ESI" "isolation width=5" "collision gas=Nitrogen" "peak width=0.014" "date=2014-01-11 01:55:16+01:00" "column=Waters Acquity BEH C18 1.7um x 2.1 x 150 mm" "retention time=384.6" "raw data file=C:\Data\Confirmed Standards\14Jan10 Confirmed stds MSMS\3,6,2',4'-Tetrahydroxyflavone.d" "computed mass accuracy=1.6209654785369134" "computed mass error=-4.6204000000216183E-4" "SPLASH=splash10-000i-0090000000-a4d47e1e53360aba1251" "submitter=Aiko Barsch (Bruker)" "MoNA Rating=4.583333333333334"
Num Peaks: 6
255.0292 24.624625
283.0255 8.508509
285.0400 100.000000
286.0447 14.114114
287.0411 4.204204
613.0007 6.306306


Name: 3,6,2',4'-Tetrahydroxyflavone
Synon: $:00in-source
DB#: MetaboBASE0865
InChIKey: DNISTMYBAOCXPD-UHFFFAOYSA-N
Precursor_type: [M-H]-
Spectrum_type: MS2
PrecursorMZ: 285.0406
Instrument_type: LC-ESI-TOF
Instrument: impact HD
Ion_mode: N
Collision_energy: 20
Formula: C15H10O6
MW: 286
ExactMass: 286.04773804
Comments: "SMILES=c1cc(c(cc1O)O)c2c(c(=O)c3cc(ccc3o2)O)O" "InChI=InChI=1S/C15H10O6/c16-7-2-4-12-10(5-7)13(19)14(20)15(21-12)9-3-1-8(17)6-11(9)18/h1-6,16-18,20H" "computed SMILES=O=C1C(O)=C(OC2=CC=C(O)C=C12)C=3C=CC(O)=CC3O" "license=License CC-BY-NC-SA 4.0 International" "author=Plant Biology, The Noble Foundation, Ardmore, OK, US/Dennis Fine, Daniel Wherritt, and Lloyd Sumner" "ionization=ESI" "isolation width=5" "collision gas=Nitrogen" "peak width=0.015" "date=2014-01-11 01:55:16+01:00" "column=Waters Acquity BEH C18 1.7um x 2.1 x 150 mm" "retention time=384.6" "raw data file=C:\Data\Confirmed Standards\14Jan10 Confirmed stds MSMS\3,6,2',4'-Tetrahydroxyflavone.d" "computed mass accuracy=0.4840012263548164" "computed mass error=1.3795999996091268E-4" "SPLASH=splash10-0a4s-0490000000-4c9b34a35b369b7fe31d" "submitter=Aiko Barsch (Bruker)" "MoNA Rating=4.615384615384616"
Num Peaks: 4
149.0241 92.192192
229.0546 21.821822
255.0294 100.000000
285.0406 76.176176


Name: 3,6,2',4'-Tetrahydroxyflavone
Synon: $:00in-source
DB#: MetaboBASE0866
InChIKey: DNISTMYBAOCXPD-UHFFFAOYSA-N
Precursor_type: [M-H]-
Spectrum_type: MS2
PrecursorMZ: 285
Instrument_type: LC-ESI-TOF
Instrument: impact HD
Ion_mode: N
Collision_energy: 30
Formula: C15H10O6
MW: 286
ExactMass: 286.04773804
Comments: "SMILES=c1cc(c(cc1O)O)c2c(c(=O)c3cc(ccc3o2)O)O" "InChI=InChI=1S/C15H10O6/c16-7-2-4-12-10(5-7)13(19)14(20)15(21-12)9-3-1-8(17)6-11(9)18/h1-6,16-18,20H" "computed SMILES=O=C1C(O)=C(OC2=CC=C(O)C=C12)C=3C=CC(O)=CC3O" "license=License CC-BY-NC-SA 4.0 International" "author=Plant Biology, The Noble Foundation, Ardmore, OK, US/Dennis Fine, Daniel Wherritt, and Lloyd Sumner" "ionization=ESI" "isolation width=5" "collision gas=Nitrogen" "peak width=0.017" "date=2014-01-11 01:55:16+01:00" "column=Waters Acquity BEH C18 1.7um x 2.1 x 150 mm" "retention time=384.6" "raw data file=C:\Data\Confirmed Standards\14Jan10 Confirmed stds MSMS\3,6,2',4'-Tetrahydroxyflavone.d" "computed mass accuracy=141.97207017551798" "computed mass error=-0.040462040000022625" "SPLASH=splash10-052b-0910000000-004b8ea22495df33a9a0" "submitter=Aiko Barsch (Bruker)" "MoNA Rating=4.545454545454546"
Num Peaks: 6
108.0213 26.226226
109.0287 26.926927
119.0132 23.323323
148.0177 23.823824
149.0242 100.000000
255.0288 31.631632


Name: 3,6,2',4'-Tetrahydroxyflavone
Synon: $:00in-source
DB#: MetaboBASE0867
InChIKey: DNISTMYBAOCXPD-UHFFFAOYSA-N
Instrument_type: LC-ESI-TOF
Instrument: impact HD
Ion_mode: N
Formula: C15H10O6
MW: 286
ExactMass: 286.04773804
Comments: "SMILES=c1cc(c(cc1O)O)c2c(c(=O)c3cc(ccc3o2)O)O" "InChI=InChI=1S/C15H10O6/c16-7-2-4-12-10(5-7)13(19)14(20)15(21-12)9-3-1-8(17)6-11(9)18/h1-6,16-18,20H" "computed SMILES=O=C1C(O)=C(OC2=CC=C(O)C=C12)C=3C=CC(O)=CC3O" "license=License CC-BY-NC-SA 4.0 International" "author=Plant Biology, The Noble Foundation, Ardmore, OK, US/Dennis Fine, Daniel Wherritt, and Lloyd Sumner" "ionization=ESI" "collision gas=Nitrogen" "peak width=0.016" "date=2014-01-11 01:55:16+01:00" "column=Waters Acquity BEH C18 1.7um x 2.1 x 150 mm" "retention time=384.6" "raw data file=C:\Data\Confirmed Standards\14Jan10 Confirmed stds MSMS\3,6,2',4'-Tetrahydroxyflavone.d" "SPLASH=splash10-0udr-0069000000-00196f589ba273f37d57" "submitter=Aiko Barsch (Bruker)" "MoNA Rating=3.888888888888889"
Num Peaks: 17
153.0193 8.308308
163.0034 3.303303
255.0292 5.405405
257.0450 3.703704
273.0399 3.703704
283.0244 10.510511
285.0407 63.563564
286.0436 8.408408
299.0200 2.102102
301.0356 100.000000
302.0384 13.313313
303.0400 2.202202
329.0302 20.020020
330.0339 2.702703
603.0786 6.506507
604.0816 2.302302
631.0717 3.103103


Name: 3-Ara-GlcUA Soyasapogenol B
Synon: $:00in-source
DB#: MetaboBASE0868
InChIKey: LASVNNIDKPXXMG-JOBDLQHVSA-N
Instrument_type: LC-ESI-TOF
Instrument: impact HD
Ion_mode: N
Collision_energy: 10
Formula: C41H66O13
MW: 766
ExactMass: 766.450342172
Comments: "computed SMILES=O=C(O)C1OC(OC2CCC3(C)C(CCC4(C)C3CC=C5C6CC(C)(C)CC(O)C6(C)CCC54C)C2(C)CO)C(OC7OCC(O)C(O)C7O)C(O)C1O" "computed InChI=InChI=1S/C41H66O13/c1-36(2)16-21-20-8-9-24-38(4)12-11-26(39(5,19-42)23(38)10-13-41(24,7)40(20,6)15-14-37(21,3)25(44)17-36)52-35-32(29(47)28(46)31(53-35)33(49)50)54-34-30(48)27(45)22(43)18-51-34/h8,21-32,34-35,42-48H,9-19H2,1-7H3,(H,49,50)/t21?,22-,23+,24?,25+,26-,27-,28-,29-,30+,31-,32+,34+,35+,37+,38-,39+,40+,41+/m0/s1" "license=License CC-BY-NC-SA 4.0 International" "author=Plant Biology, The Noble Foundation, Ardmore, OK, US/Dennis Fine, Daniel Wherritt, and Lloyd Sumner" "ionization=ESI" "collision gas=Nitrogen" "peak width=0.016" "date=2014-08-13 17:01:40+02:00" "column=Waters Acquity BEH C18 1.7um x 2.1 x 150 mm" "retention time=1074.6" "raw data file=C:\Data\Confirmed standards 24_July_2014\Z Lei std 24July2014 new col_1-F,8_01_604.d" "SPLASH=splash10-014i-0000000910-988a7f35e360a9675440" "submitter=Aiko Barsch (Bruker)" "MoNA Rating=4.444444444444445"
Num Peaks: 22
112.9852 1.701702
116.9276 1.201201
128.0094 1.701702
146.9601 0.600601
174.9551 2.302302
304.9135 1.701702
473.3208 0.300300
487.3396 1.301301
531.3314 2.102102
557.0034 4.104104
655.9896 0.400400
683.0068 0.400400
765.4434 100.000000
766.4465 46.646647
767.4489 13.613614
768.4507 3.003003
833.4305 10.710711
834.4319 4.804805
835.4340 0.800801
895.3984 2.602603
901.4163 1.901902
911.5018 1.001001


Name: 3-Ara-GlcUA Soyasapogenol B
Synon: $:00in-source
DB#: MetaboBASE0869
InChIKey: LASVNNIDKPXXMG-JOBDLQHVSA-N
Instrument_type: LC-ESI-TOF
Instrument: impact HD
Ion_mode: N
Formula: C41H66O13
MW: 766
ExactMass: 766.450342172
Comments: "computed SMILES=O=C(O)C1OC(OC2CCC3(C)C(CCC4(C)C3CC=C5C6CC(C)(C)CC(O)C6(C)CCC54C)C2(C)CO)C(OC7OCC(O)C(O)C7O)C(O)C1O" "computed InChI=InChI=1S/C41H66O13/c1-36(2)16-21-20-8-9-24-38(4)12-11-26(39(5,19-42)23(38)10-13-41(24,7)40(20,6)15-14-37(21,3)25(44)17-36)52-35-32(29(47)28(46)31(53-35)33(49)50)54-34-30(48)27(45)22(43)18-51-34/h8,21-32,34-35,42-48H,9-19H2,1-7H3,(H,49,50)/t21?,22-,23+,24?,25+,26-,27-,28-,29-,30+,31-,32+,34+,35+,37+,38-,39+,40+,41+/m0/s1" "license=License CC-BY-NC-SA 4.0 International" "author=Plant Biology, The Noble Foundation, Ardmore, OK, US/Dennis Fine, Daniel Wherritt, and Lloyd Sumner" "ionization=ESI" "collision gas=Nitrogen" "peak width=0.011" "date=2014-07-25 22:27:39+02:00" "column=Waters Acquity BEH C18 1.7um x 2.1 x 150 mm" "retention time=1074.6" "raw data file=C:\Data\Confirmed standards 24_July_2014\MSMS\Z Lei std 28 May 2014_1-F,8_01_480.d" "SPLASH=splash10-014i-0000000910-e82208ed71b4a3735258" "submitter=Aiko Barsch (Bruker)" "MoNA Rating=3.888888888888889"
Num Peaks: 17
487.3432 6.906907
488.3470 2.402402
666.0225 3.703704
765.4457 100.000000
766.4483 46.146146
767.4474 13.613614
768.4589 3.603604
833.4337 10.810811
834.4336 6.206206
835.4385 2.002002
883.3814 4.104104
884.3900 2.002002
895.4016 2.202202
901.4091 3.703704
902.4273 2.402402
911.5096 2.902903
969.4020 2.502503


Name: Decanoic acid
Synon: $:00in-source
DB#: MetaboBASE0870
InChIKey: GHVNFZFCNZKVNT-UHFFFAOYSA-N
Precursor_type: [M-H]-
Spectrum_type: MS2
PrecursorMZ: 171.1394
Instrument_type: LC-ESI-TOF
Instrument: impact HD
Ion_mode: N
Collision_energy: 10
Formula: C10H20O2
MW: 172
ExactMass: 172.14632988
Comments: "cas number=334-48-5" "SMILES=CCCCCCCCCC(=O)O" "InChI=InChI=1S/C10H20O2/c1-2-3-4-5-6-7-8-9-10(11)12/h2-9H2,1H3,(H,11,12)" "computed SMILES=O=C(O)CCCCCCCCC" "license=License CC-BY-NC-SA 4.0 International" "author=Plant Biology, The Noble Foundation, Ardmore, OK, US/Dennis Fine, Daniel Wherritt, and Lloyd Sumner" "ionization=ESI" "isolation width=5" "collision gas=Nitrogen" "peak width=0.015" "date=2014-08-18 18:18:34+02:00" "column=Waters Acquity BEH C18 1.7um x 2.1 x 150 mm" "retention time=1175.4" "raw data file=C:\Data\Confirmed standards 18_Aug_2014\Decanoic acid vial 171 MSMS_1-C,3_01_633.d" "computed mass accuracy=2.0224448606750647" "computed mass error=3.461199999890141E-4" "SPLASH=splash10-00di-0900000000-8c6cdf0491f51ba6ef26" "submitter=Aiko Barsch (Bruker)" "MoNA Rating=4.583333333333334"
Num Peaks: 9
171.1394 100.000000
172.1424 6.906907
173.1436 0.500501
454.7044 0.100100
936.8972 0.100100
1016.5082 0.100100
1285.3979 0.100100
1300.4740 0.100100
1409.6818 0.100100


Name: Decanoic acid
Synon: $:00in-source
DB#: MetaboBASE0871
InChIKey: GHVNFZFCNZKVNT-UHFFFAOYSA-N
Instrument_type: LC-ESI-TOF
Instrument: impact HD
Ion_mode: N
Formula: C10H20O2
MW: 172
ExactMass: 172.14632988
Comments: "cas number=334-48-5" "SMILES=CCCCCCCCCC(=O)O" "InChI=InChI=1S/C10H20O2/c1-2-3-4-5-6-7-8-9-10(11)12/h2-9H2,1H3,(H,11,12)" "computed SMILES=O=C(O)CCCCCCCCC" "license=License CC-BY-NC-SA 4.0 International" "author=Plant Biology, The Noble Foundation, Ardmore, OK, US/Dennis Fine, Daniel Wherritt, and Lloyd Sumner" "ionization=ESI" "collision gas=Nitrogen" "peak width=0.012" "date=2014-08-18 18:18:34+02:00" "column=Waters Acquity BEH C18 1.7um x 2.1 x 150 mm" "retention time=1175.4" "raw data file=C:\Data\Confirmed standards 18_Aug_2014\Decanoic acid vial 171 MSMS_1-C,3_01_633.d" "SPLASH=splash10-00di-0900000000-6ec01ce9b8fdc68d94a9" "submitter=Aiko Barsch (Bruker)" "MoNA Rating=3.888888888888889"
Num Peaks: 16
171.1396 100.000000
172.1428 9.709710
239.1261 1.701702
271.0640 2.002002
301.0963 1.801802
362.0655 1.001001
365.2669 6.806807
366.2699 1.601602
426.2071 3.403403
427.2109 1.201201
427.2362 1.301301
488.2067 1.901902
553.3757 1.601602
559.3947 1.101101
614.3488 1.401401
740.4872 1.401401


Name: Decanoic acid
Synon: $:00in-source
DB#: MetaboBASE0872
InChIKey: GHVNFZFCNZKVNT-UHFFFAOYSA-N
Precursor_type: [M-H]-
Spectrum_type: MS2
PrecursorMZ: 171.1381
Instrument_type: LC-ESI-TOF
Instrument: impact HD
Ion_mode: N
Collision_energy: 20
Formula: C10H20O2
MW: 172
ExactMass: 172.14632988
Comments: "cas number=334-48-5" "SMILES=CCCCCCCCCC(=O)O" "InChI=InChI=1S/C10H20O2/c1-2-3-4-5-6-7-8-9-10(11)12/h2-9H2,1H3,(H,11,12)" "computed SMILES=O=C(O)CCCCCCCCC" "license=License CC-BY-NC-SA 4.0 International" "author=Plant Biology, The Noble Foundation, Ardmore, OK, US/Dennis Fine, Daniel Wherritt, and Lloyd Sumner" "ionization=ESI" "isolation width=5" "collision gas=Nitrogen" "peak width=0.019" "date=2014-08-18 18:18:34+02:00" "column=Waters Acquity BEH C18 1.7um x 2.1 x 150 mm" "retention time=1175.4" "raw data file=C:\Data\Confirmed standards 18_Aug_2014\Decanoic acid vial 171 MSMS_1-C,3_01_633.d" "computed mass accuracy=5.573744245128922" "computed mass error=-9.53879999997298E-4" "SPLASH=splash10-00di-0900000000-3afa642872e4450f0c49" "submitter=Aiko Barsch (Bruker)" "MoNA Rating=3.846153846153846"
Num Peaks: 2
171.1381 100.000000
172.1429 8.808809


Name: Pentadecanoic acid
Synon: $:00in-source
DB#: MetaboBASE0873
InChIKey: WQEPLUUGTLDZJY-UHFFFAOYSA-N
Precursor_type: [M-H]-
Spectrum_type: MS2
PrecursorMZ: 241.2173
Instrument_type: LC-ESI-TOF
Instrument: impact HD
Ion_mode: N
Collision_energy: 20
Formula: C15H30O2
MW: 242
ExactMass: 242.2245802
Comments: "cas number=1002-84-2" "SMILES=CCCCCCCCCCCCCCC(=O)O" "InChI=InChI=1S/C15H30O2/c1-2-3-4-5-6-7-8-9-10-11-12-13-14-15(16)17/h2-14H2,1H3,(H,16,17)" "computed SMILES=O=C(O)CCCCCCCCCCCCCC" "license=License CC-BY-NC-SA 4.0 International" "author=Plant Biology, The Noble Foundation, Ardmore, OK, US/Dennis Fine, Daniel Wherritt, and Lloyd Sumner" "ionization=ESI" "isolation width=5" "collision gas=Nitrogen" "peak width=0.013" "date=2014-08-18 21:42:48+02:00" "column=Waters Acquity BEH C18 1.7um x 2.1 x 150 mm" "retention time=1791" "raw data file=C:\Data\Confirmed standards 18_Aug_2014\n-Pentadecanoic acidV200 MSMS _1-D,1_01_638.d" "computed mass accuracy=0.01741168650195921" "computed mass error=-4.200000006449045E-6" "SPLASH=splash10-0006-0090000000-e497b3530081726e5ced" "submitter=Aiko Barsch (Bruker)" "MoNA Rating=4.615384615384616"
Num Peaks: 5
223.2050 0.500501
241.2173 100.000000
241.7063 0.200200
242.2201 10.010010
243.2222 0.600601


Name: Pentadecanoic acid
Synon: $:00in-source
DB#: MetaboBASE0874
InChIKey: WQEPLUUGTLDZJY-UHFFFAOYSA-N
Precursor_type: [M-H]-
Spectrum_type: MS2
PrecursorMZ: 241.2164
Instrument_type: LC-ESI-TOF
Instrument: impact HD
Ion_mode: N
Collision_energy: 30
Formula: C15H30O2
MW: 242
ExactMass: 242.2245802
Comments: "cas number=1002-84-2" "SMILES=CCCCCCCCCCCCCCC(=O)O" "InChI=InChI=1S/C15H30O2/c1-2-3-4-5-6-7-8-9-10-11-12-13-14-15(16)17/h2-14H2,1H3,(H,16,17)" "computed SMILES=O=C(O)CCCCCCCCCCCCCC" "license=License CC-BY-NC-SA 4.0 International" "author=Plant Biology, The Noble Foundation, Ardmore, OK, US/Dennis Fine, Daniel Wherritt, and Lloyd Sumner" "ionization=ESI" "isolation width=5" "collision gas=Nitrogen" "peak width=0.018" "date=2014-08-18 21:42:48+02:00" "column=Waters Acquity BEH C18 1.7um x 2.1 x 150 mm" "retention time=1791" "raw data file=C:\Data\Confirmed standards 18_Aug_2014\n-Pentadecanoic acidV200 MSMS _1-D,1_01_638.d" "computed mass accuracy=3.7485013457124152" "computed mass error=-9.042000000079042E-4" "SPLASH=splash10-0006-0090000000-15d18c0525685af6dade" "submitter=Aiko Barsch (Bruker)" "MoNA Rating=4.583333333333334"
Num Peaks: 4
223.2070 6.406406
224.2080 1.601602
241.2164 100.000000
242.2186 12.712713


Name: Pentadecanoic acid
Synon: $:00in-source
DB#: MetaboBASE0875
InChIKey: WQEPLUUGTLDZJY-UHFFFAOYSA-N
Precursor_type: [M-H]-
Spectrum_type: MS2
PrecursorMZ: 241.2174
Instrument_type: LC-ESI-TOF
Instrument: impact HD
Ion_mode: N
Collision_energy: 10
Formula: C15H30O2
MW: 242
ExactMass: 242.2245802
Comments: "cas number=1002-84-2" "SMILES=CCCCCCCCCCCCCCC(=O)O" "InChI=InChI=1S/C15H30O2/c1-2-3-4-5-6-7-8-9-10-11-12-13-14-15(16)17/h2-14H2,1H3,(H,16,17)" "computed SMILES=O=C(O)CCCCCCCCCCCCCC" "license=License CC-BY-NC-SA 4.0 International" "author=Plant Biology, The Noble Foundation, Ardmore, OK, US/Dennis Fine, Daniel Wherritt, and Lloyd Sumner" "ionization=ESI" "isolation width=5" "collision gas=Nitrogen" "peak width=0.012" "date=2014-08-18 21:42:48+02:00" "column=Waters Acquity BEH C18 1.7um x 2.1 x 150 mm" "retention time=1791" "raw data file=C:\Data\Confirmed standards 18_Aug_2014\n-Pentadecanoic acidV200 MSMS _1-D,1_01_638.d" "computed mass accuracy=0.39715211256265354" "computed mass error=9.579999999687061E-5" "SPLASH=splash10-0006-0090000000-72b33052a241e98e015e" "submitter=Aiko Barsch (Bruker)" "MoNA Rating=4.615384615384616"
Num Peaks: 7
241.2174 100.000000
241.2424 0.300300
241.4902 0.100100
241.6846 0.200200
241.7075 0.900901
242.2206 9.109109
243.2225 0.500501


Name: Pentadecanoic acid
Synon: $:00in-source
DB#: MetaboBASE0876
InChIKey: WQEPLUUGTLDZJY-UHFFFAOYSA-N
Instrument_type: LC-ESI-TOF
Instrument: impact HD
Ion_mode: N
Formula: C15H30O2
MW: 242
ExactMass: 242.2245802
Comments: "cas number=1002-84-2" "SMILES=CCCCCCCCCCCCCCC(=O)O" "InChI=InChI=1S/C15H30O2/c1-2-3-4-5-6-7-8-9-10-11-12-13-14-15(16)17/h2-14H2,1H3,(H,16,17)" "computed SMILES=O=C(O)CCCCCCCCCCCCCC" "license=License CC-BY-NC-SA 4.0 International" "author=Plant Biology, The Noble Foundation, Ardmore, OK, US/Dennis Fine, Daniel Wherritt, and Lloyd Sumner" "ionization=ESI" "collision gas=Nitrogen" "peak width=0.019" "date=2014-08-18 21:42:48+02:00" "column=Waters Acquity BEH C18 1.7um x 2.1 x 150 mm" "retention time=1791" "raw data file=C:\Data\Confirmed standards 18_Aug_2014\n-Pentadecanoic acidV200 MSMS _1-D,1_01_638.d" "SPLASH=splash10-0006-0090000000-110165b889d231d09d59" "submitter=Aiko Barsch (Bruker)" "MoNA Rating=3.888888888888889"
Num Peaks: 13
128.0103 0.200200
241.1946 0.300300
241.2176 100.000000
241.2447 0.200200
241.4909 0.300300
241.6850 0.300300
241.7080 1.201201
242.2208 14.814815
243.2228 1.301301
309.2039 0.500501
341.1422 2.302302
342.1438 0.700701
343.1427 0.200200


Name: Myristic acid
Synon: $:00in-source
DB#: MetaboBASE0877
InChIKey: TUNFSRHWOTWDNC-UHFFFAOYSA-N
Precursor_type: [M-H]-
Spectrum_type: MS2
PrecursorMZ: 227.2018
Instrument_type: LC-ESI-TOF
Instrument: impact HD
Ion_mode: N
Collision_energy: 30
Formula: C14H28O2
MW: 228
ExactMass: 228.208930136
Comments: "cas number=544-63-8" "SMILES=CCCCCCCCCCCCCC(=O)O" "InChI=InChI=1S/C14H28O2/c1-2-3-4-5-6-7-8-9-10-11-12-13-14(15)16/h2-13H2,1H3,(H,15,16)" "computed SMILES=O=C(O)CCCCCCCCCCCCC" "license=License CC-BY-NC-SA 4.0 International" "author=Plant Biology, The Noble Foundation, Ardmore, OK, US/Dennis Fine, Daniel Wherritt, and Lloyd Sumner" "ionization=ESI" "isolation width=5" "collision gas=Nitrogen" "peak width=0.02" "date=2014-08-18 20:21:08+02:00" "column=Waters Acquity BEH C18 1.7um x 2.1 x 150 mm" "retention time=1681.8" "raw data file=C:\Data\Confirmed standards 18_Aug_2014\Myristic acid vial 190 MSMS_1-C,7_01_636.d" "computed mass accuracy=0.6420019559247109" "computed mass error=1.4586399998961497E-4" "SPLASH=splash10-004i-0090000000-91f4f874b25705464fb0" "submitter=Aiko Barsch (Bruker)" "MoNA Rating=4.615384615384616"
Num Peaks: 3
209.1889 7.307307
227.2018 100.000000
228.2068 15.915916


Name: Myristic acid
Synon: $:00in-source
DB#: MetaboBASE0878
InChIKey: TUNFSRHWOTWDNC-UHFFFAOYSA-N
Precursor_type: [M-H]-
Spectrum_type: MS2
PrecursorMZ: 227.2023
Instrument_type: LC-ESI-TOF
Instrument: impact HD
Ion_mode: N
Collision_energy: 10
Formula: C14H28O2
MW: 228
ExactMass: 228.208930136
Comments: "cas number=544-63-8" "SMILES=CCCCCCCCCCCCCC(=O)O" "InChI=InChI=1S/C14H28O2/c1-2-3-4-5-6-7-8-9-10-11-12-13-14(15)16/h2-13H2,1H3,(H,15,16)" "computed SMILES=O=C(O)CCCCCCCCCCCCC" "license=License CC-BY-NC-SA 4.0 International" "author=Plant Biology, The Noble Foundation, Ardmore, OK, US/Dennis Fine, Daniel Wherritt, and Lloyd Sumner" "ionization=ESI" "isolation width=5" "collision gas=Nitrogen" "peak width=0.012" "date=2014-08-18 20:21:08+02:00" "column=Waters Acquity BEH C18 1.7um x 2.1 x 150 mm" "retention time=1681.8" "raw data file=C:\Data\Confirmed standards 18_Aug_2014\Myristic acid vial 190 MSMS_1-C,7_01_636.d" "computed mass accuracy=2.8426824904774874" "computed mass error=6.458640000062132E-4" "SPLASH=splash10-004i-0090000000-15225a799e0a0bcff7c7" "submitter=Aiko Barsch (Bruker)" "MoNA Rating=4.583333333333334"
Num Peaks: 4
227.2023 100.000000
227.6779 0.500501
228.2053 9.109109
229.2075 0.500501


Name: Myristic acid
Synon: $:00in-source
DB#: MetaboBASE0879
InChIKey: TUNFSRHWOTWDNC-UHFFFAOYSA-N
Precursor_type: [M-H]-
Spectrum_type: MS2
PrecursorMZ: 227.2021
Instrument_type: LC-ESI-TOF
Instrument: impact HD
Ion_mode: N
Collision_energy: 20
Formula: C14H28O2
MW: 228
ExactMass: 228.208930136
Comments: "cas number=544-63-8" "SMILES=CCCCCCCCCCCCCC(=O)O" "InChI=InChI=1S/C14H28O2/c1-2-3-4-5-6-7-8-9-10-11-12-13-14(15)16/h2-13H2,1H3,(H,15,16)" "computed SMILES=O=C(O)CCCCCCCCCCCCC" "license=License CC-BY-NC-SA 4.0 International" "author=Plant Biology, The Noble Foundation, Ardmore, OK, US/Dennis Fine, Daniel Wherritt, and Lloyd Sumner" "ionization=ESI" "isolation width=5" "collision gas=Nitrogen" "peak width=0.014" "date=2014-08-18 20:21:08+02:00" "column=Waters Acquity BEH C18 1.7um x 2.1 x 150 mm" "retention time=1681.8" "raw data file=C:\Data\Confirmed standards 18_Aug_2014\Myristic acid vial 190 MSMS_1-C,7_01_636.d" "computed mass accuracy=1.9624114389769016" "computed mass error=4.4586399999957393E-4" "SPLASH=splash10-004i-0090000000-fde345db8c562ea351de" "submitter=Aiko Barsch (Bruker)" "MoNA Rating=4.583333333333334"
Num Peaks: 4
209.1911 0.400400
227.2021 100.000000
228.2046 10.010010
229.2077 0.500501


Name: Myristic acid
Synon: $:00in-source
DB#: MetaboBASE0880
InChIKey: TUNFSRHWOTWDNC-UHFFFAOYSA-N
Instrument_type: LC-ESI-TOF
Instrument: impact HD
Ion_mode: N
Formula: C14H28O2
MW: 228
ExactMass: 228.208930136
Comments: "cas number=544-63-8" "SMILES=CCCCCCCCCCCCCC(=O)O" "InChI=InChI=1S/C14H28O2/c1-2-3-4-5-6-7-8-9-10-11-12-13-14(15)16/h2-13H2,1H3,(H,15,16)" "computed SMILES=O=C(O)CCCCCCCCCCCCC" "license=License CC-BY-NC-SA 4.0 International" "author=Plant Biology, The Noble Foundation, Ardmore, OK, US/Dennis Fine, Daniel Wherritt, and Lloyd Sumner" "ionization=ESI" "collision gas=Nitrogen" "peak width=0.019" "date=2014-08-18 20:21:08+02:00" "column=Waters Acquity BEH C18 1.7um x 2.1 x 150 mm" "retention time=1681.8" "raw data file=C:\Data\Confirmed standards 18_Aug_2014\Myristic acid vial 190 MSMS_1-C,7_01_636.d" "SPLASH=splash10-004i-0090000000-79a1c6b1d8cd57b741d2" "submitter=Aiko Barsch (Bruker)" "MoNA Rating=3.888888888888889"
Num Peaks: 9
128.0101 0.200200
227.2025 100.000000
227.2267 0.300300
227.6785 0.800801
228.2057 13.513514
229.2081 1.201201
295.1883 0.500501
327.1270 2.602603
328.1287 0.600601


Name: Tridecanoic acid
Synon: $:00in-source
DB#: MetaboBASE0881
InChIKey: SZHOJFHSIKHZHA-UHFFFAOYSA-N
Instrument_type: LC-ESI-TOF
Instrument: impact HD
Ion_mode: N
Formula: C13H26O2
MW: 214
ExactMass: 214.193280072
Comments: "cas number=638-53-9" "SMILES=CCCCCCCCCCCCC(=O)O" "InChI=InChI=1S/C13H26O2/c1-2-3-4-5-6-7-8-9-10-11-12-13(14)15/h2-12H2,1H3,(H,14,15)" "computed SMILES=O=C(O)CCCCCCCCCCCC" "license=License CC-BY-NC-SA 4.0 International" "author=Plant Biology, The Noble Foundation, Ardmore, OK, US/Dennis Fine, Daniel Wherritt, and Lloyd Sumner" "ionization=ESI" "collision gas=Nitrogen" "peak width=0.013" "date=2014-08-18 23:04:15+02:00" "column=Waters Acquity BEH C18 1.7um x 2.1 x 150 mm" "retention time=1567.8" "raw data file=C:\Data\Confirmed standards 18_Aug_2014\n-Tridecanoic acid v218 MSMS_1-D,3_01_640.d" "SPLASH=splash10-03di-0090000000-2dadd8baad50427686a7" "submitter=Aiko Barsch (Bruker)" "MoNA Rating=3.888888888888889"
Num Peaks: 13
213.1871 100.000000
214.1901 13.913914
215.1921 1.201201
281.1739 2.902903
313.1112 4.604605
314.1136 1.201201
343.1434 1.801802
449.3617 5.505506
450.3641 1.401401
510.3004 1.401401
511.3296 1.401401
679.5208 1.701702
685.5381 1.001001


Name: Tridecanoic acid
Synon: $:00in-source
DB#: MetaboBASE0882
InChIKey: SZHOJFHSIKHZHA-UHFFFAOYSA-N
Precursor_type: [M-H]-
Spectrum_type: MS2
PrecursorMZ: 213.1872
Instrument_type: LC-ESI-TOF
Instrument: impact HD
Ion_mode: N
Collision_energy: 20
Formula: C13H26O2
MW: 214
ExactMass: 214.193280072
Comments: "cas number=638-53-9" "SMILES=CCCCCCCCCCCCC(=O)O" "InChI=InChI=1S/C13H26O2/c1-2-3-4-5-6-7-8-9-10-11-12-13(14)15/h2-12H2,1H3,(H,14,15)" "computed SMILES=O=C(O)CCCCCCCCCCCC" "license=License CC-BY-NC-SA 4.0 International" "author=Plant Biology, The Noble Foundation, Ardmore, OK, US/Dennis Fine, Daniel Wherritt, and Lloyd Sumner" "ionization=ESI" "isolation width=5" "collision gas=Nitrogen" "peak width=0.018" "date=2014-08-18 23:04:15+02:00" "column=Waters Acquity BEH C18 1.7um x 2.1 x 150 mm" "retention time=1567.8" "raw data file=C:\Data\Confirmed standards 18_Aug_2014\n-Tridecanoic acid v218 MSMS_1-D,3_01_640.d" "computed mass accuracy=5.609755182239526" "computed mass error=0.0011959279999871342" "SPLASH=splash10-03di-0090000000-48504f2b1093306b191c" "submitter=Aiko Barsch (Bruker)" "MoNA Rating=4.545454545454546"
Num Peaks: 5
195.1761 1.701702
213.1872 100.000000
214.1896 10.410410
215.1923 0.600601
1499.6973 0.500501


Name: Tridecanoic acid
Synon: $:00in-source
DB#: MetaboBASE0883
InChIKey: SZHOJFHSIKHZHA-UHFFFAOYSA-N
Precursor_type: [M-H]-
Spectrum_type: MS2
PrecursorMZ: 213.1877
Instrument_type: LC-ESI-TOF
Instrument: impact HD
Ion_mode: N
Collision_energy: 10
Formula: C13H26O2
MW: 214
ExactMass: 214.193280072
Comments: "cas number=638-53-9" "SMILES=CCCCCCCCCCCCC(=O)O" "InChI=InChI=1S/C13H26O2/c1-2-3-4-5-6-7-8-9-10-11-12-13(14)15/h2-12H2,1H3,(H,14,15)" "computed SMILES=O=C(O)CCCCCCCCCCCC" "license=License CC-BY-NC-SA 4.0 International" "author=Plant Biology, The Noble Foundation, Ardmore, OK, US/Dennis Fine, Daniel Wherritt, and Lloyd Sumner" "ionization=ESI" "isolation width=5" "collision gas=Nitrogen" "peak width=0.014" "date=2014-08-18 23:04:15+02:00" "column=Waters Acquity BEH C18 1.7um x 2.1 x 150 mm" "retention time=1567.8" "raw data file=C:\Data\Confirmed standards 18_Aug_2014\n-Tridecanoic acid v218 MSMS_1-D,3_01_640.d" "computed mass accuracy=7.955093094037473" "computed mass error=0.0016959280000037324" "SPLASH=splash10-03di-0090000000-f329a7c76bcecedf8a57" "submitter=Aiko Barsch (Bruker)" "MoNA Rating=4.545454545454546"
Num Peaks: 7
213.1877 100.000000
213.2513 0.100100
213.6495 0.300300
214.1903 10.410410
215.1933 0.800801
1181.8579 0.100100
1316.9431 0.100100


Name: Undecanoic acid
Synon: $:00in-source
DB#: MetaboBASE0884
InChIKey: ZDPHROOEEOARMN-UHFFFAOYSA-N
Precursor_type: [M-H]-
Spectrum_type: MS2
PrecursorMZ: 185.1552
Instrument_type: LC-ESI-TOF
Instrument: impact HD
Ion_mode: N
Collision_energy: 10
Formula: C11H22O2
MW: 186
ExactMass: 186.161979944
Comments: "cas number=112-37-8" "SMILES=CCCCCCCCCCC(=O)O" "InChI=InChI=1S/C11H22O2/c1-2-3-4-5-6-7-8-9-10-11(12)13/h2-10H2,1H3,(H,12,13)" "computed SMILES=O=C(O)CCCCCCCCCC" "license=License CC-BY-NC-SA 4.0 International" "author=Plant Biology, The Noble Foundation, Ardmore, OK, US/Dennis Fine, Daniel Wherritt, and Lloyd Sumner" "ionization=ESI" "isolation width=5" "collision gas=Nitrogen" "peak width=0.014" "date=2014-08-19 00:25:54+02:00" "column=Waters Acquity BEH C18 1.7um x 2.1 x 150 mm" "retention time=1313.4" "raw data file=C:\Data\Confirmed standards 18_Aug_2014\n-Undecanoic acid v222 MSMS_1-D,5_01_642.d" "computed mass accuracy=2.679136205750144" "computed mass error=4.960560000029091E-4" "SPLASH=splash10-000i-0900000000-fca225c5971e85f0f121" "submitter=Aiko Barsch (Bruker)" "MoNA Rating=4.583333333333334"
Num Peaks: 4
185.1552 100.000000
185.5854 0.500501
186.1581 8.508509
187.1605 0.600601


Name: Undecanoic acid
Synon: $:00in-source
DB#: MetaboBASE0885
InChIKey: ZDPHROOEEOARMN-UHFFFAOYSA-N
Precursor_type: [M-H]-
Spectrum_type: MS2
PrecursorMZ: 185.1545
Instrument_type: LC-ESI-TOF
Instrument: impact HD
Ion_mode: N
Collision_energy: 20
Formula: C11H22O2
MW: 186
ExactMass: 186.161979944
Comments: "cas number=112-37-8" "SMILES=CCCCCCCCCCC(=O)O" "InChI=InChI=1S/C11H22O2/c1-2-3-4-5-6-7-8-9-10-11(12)13/h2-10H2,1H3,(H,12,13)" "computed SMILES=O=C(O)CCCCCCCCCC" "license=License CC-BY-NC-SA 4.0 International" "author=Plant Biology, The Noble Foundation, Ardmore, OK, US/Dennis Fine, Daniel Wherritt, and Lloyd Sumner" "ionization=ESI" "isolation width=5" "collision gas=Nitrogen" "peak width=0.02" "date=2014-08-19 00:25:54+02:00" "column=Waters Acquity BEH C18 1.7um x 2.1 x 150 mm" "retention time=1313.4" "raw data file=C:\Data\Confirmed standards 18_Aug_2014\n-Undecanoic acid v222 MSMS_1-D,5_01_642.d" "computed mass accuracy=1.1014801152113873" "computed mass error=-2.0394399999190682E-4" "SPLASH=splash10-000i-0900000000-0fabd46bd1eaa73e5af0" "submitter=Aiko Barsch (Bruker)" "MoNA Rating=4.583333333333334"
Num Peaks: 3
167.1430 2.502503
185.1545 100.000000
186.1582 7.507508


Name: Undecanoic acid
Synon: $:00in-source
DB#: MetaboBASE0886
InChIKey: ZDPHROOEEOARMN-UHFFFAOYSA-N
Instrument_type: LC-ESI-TOF
Instrument: impact HD
Ion_mode: N
Formula: C11H22O2
MW: 186
ExactMass: 186.161979944
Comments: "cas number=112-37-8" "SMILES=CCCCCCCCCCC(=O)O" "InChI=InChI=1S/C11H22O2/c1-2-3-4-5-6-7-8-9-10-11(12)13/h2-10H2,1H3,(H,12,13)" "computed SMILES=O=C(O)CCCCCCCCCC" "license=License CC-BY-NC-SA 4.0 International" "author=Plant Biology, The Noble Foundation, Ardmore, OK, US/Dennis Fine, Daniel Wherritt, and Lloyd Sumner" "ionization=ESI" "collision gas=Nitrogen" "peak width=0.013" "date=2014-08-19 00:25:54+02:00" "column=Waters Acquity BEH C18 1.7um x 2.1 x 150 mm" "retention time=1313.4" "raw data file=C:\Data\Confirmed standards 18_Aug_2014\n-Undecanoic acid v222 MSMS_1-D,5_01_642.d" "SPLASH=splash10-000i-0900000000-d09512035285f332d56c" "submitter=Aiko Barsch (Bruker)" "MoNA Rating=3.888888888888889"
Num Peaks: 11
185.1559 100.000000
185.5861 0.900901
186.1588 11.111111
187.1607 0.900901
253.1421 1.001001
285.0801 0.900901
315.1126 1.001001
393.2988 3.803804
394.3022 1.001001
454.2390 1.001001
595.4266 0.900901


Name: Behenic acid
Synon: $:00in-source
DB#: MetaboBASE0887
InChIKey: UKMSUNONTOPOIO-UHFFFAOYSA-N
Precursor_type: [M-H]-
Spectrum_type: MS2
PrecursorMZ: 339.3255
Instrument_type: LC-ESI-TOF
Instrument: impact HD
Ion_mode: N
Collision_energy: 40
Formula: C22H44O2
MW: 340
ExactMass: 340.334130648
Comments: "cas number=112-85-6" "SMILES=CCCCCCCCCCCCCCCCCCCCCC(=O)O" "InChI=InChI=1S/C22H44O2/c1-2-3-4-5-6-7-8-9-10-11-12-13-14-15-16-17-18-19-20-21-22(23)24/h2-21H2,1H3,(H,23,24)" "computed SMILES=O=C(O)CCCCCCCCCCCCCCCCCCCCC" "license=License CC-BY-NC-SA 4.0 International" "author=Plant Biology, The Noble Foundation, Ardmore, OK, US/Dennis Fine, Daniel Wherritt, and Lloyd Sumner" "ionization=ESI" "isolation width=5" "collision gas=Nitrogen" "peak width=0.013" "date=2014-08-20 03:38:18+02:00" "column=Waters Acquity BEH C18 1.7um x 2.1 x 150 mm" "retention time=2062.2" "raw data file=C:\Data\Confirmed standards 19_Aug_2014\Behenic acid vial 135 MSMS_1-C,1_01_667.d" "computed mass accuracy=3.9921786014233467" "computed mass error=-0.0013546480000172778" "SPLASH=splash10-000i-0009000000-b29cc64ce52ea552b8d1" "submitter=Aiko Barsch (Bruker)" "MoNA Rating=3.9285714285714284"
Num Peaks: 1
339.3255 100.000000


Name: Behenic acid
Synon: $:00in-source
DB#: MetaboBASE0888
InChIKey: UKMSUNONTOPOIO-UHFFFAOYSA-N
Precursor_type: [M-H]-
Spectrum_type: MS2
PrecursorMZ: 339.3276
Instrument_type: LC-ESI-TOF
Instrument: impact HD
Ion_mode: N
Collision_energy: 10
Formula: C22H44O2
MW: 340
ExactMass: 340.334130648
Comments: "cas number=112-85-6" "SMILES=CCCCCCCCCCCCCCCCCCCCCC(=O)O" "InChI=InChI=1S/C22H44O2/c1-2-3-4-5-6-7-8-9-10-11-12-13-14-15-16-17-18-19-20-21-22(23)24/h2-21H2,1H3,(H,23,24)" "computed SMILES=O=C(O)CCCCCCCCCCCCCCCCCCCCC" "license=License CC-BY-NC-SA 4.0 International" "author=Plant Biology, The Noble Foundation, Ardmore, OK, US/Dennis Fine, Daniel Wherritt, and Lloyd Sumner" "ionization=ESI" "isolation width=5" "collision gas=Nitrogen" "peak width=0.013" "date=2014-08-20 03:38:18+02:00" "column=Waters Acquity BEH C18 1.7um x 2.1 x 150 mm" "retention time=2062.2" "raw data file=C:\Data\Confirmed standards 19_Aug_2014\Behenic acid vial 135 MSMS_1-C,1_01_667.d" "computed mass accuracy=2.1965557768481347" "computed mass error=7.453520000240133E-4" "SPLASH=splash10-000i-0009000000-9f560a0c6bac7043337f" "submitter=Aiko Barsch (Bruker)" "MoNA Rating=4.583333333333334"
Num Peaks: 4
339.1969 0.100100
339.3276 100.000000
340.3300 21.721722
341.3325 0.800801


Name: Behenic acid
Synon: $:00in-source
DB#: MetaboBASE0889
InChIKey: UKMSUNONTOPOIO-UHFFFAOYSA-N
Precursor_type: [M-H]-
Spectrum_type: MS2
PrecursorMZ: 339.3265
Instrument_type: LC-ESI-TOF
Instrument: impact HD
Ion_mode: N
Collision_energy: 30
Formula: C22H44O2
MW: 340
ExactMass: 340.334130648
Comments: "cas number=112-85-6" "SMILES=CCCCCCCCCCCCCCCCCCCCCC(=O)O" "InChI=InChI=1S/C22H44O2/c1-2-3-4-5-6-7-8-9-10-11-12-13-14-15-16-17-18-19-20-21-22(23)24/h2-21H2,1H3,(H,23,24)" "computed SMILES=O=C(O)CCCCCCCCCCCCCCCCCCCCC" "license=License CC-BY-NC-SA 4.0 International" "author=Plant Biology, The Noble Foundation, Ardmore, OK, US/Dennis Fine, Daniel Wherritt, and Lloyd Sumner" "ionization=ESI" "isolation width=5" "collision gas=Nitrogen" "peak width=0.016" "date=2014-08-20 03:38:18+02:00" "column=Waters Acquity BEH C18 1.7um x 2.1 x 150 mm" "retention time=2062.2" "raw data file=C:\Data\Confirmed standards 19_Aug_2014\Behenic acid vial 135 MSMS_1-C,1_01_667.d" "computed mass accuracy=1.045152677389126" "computed mass error=-3.5464799998408125E-4" "SPLASH=splash10-000i-0009000000-3cdf1b17a2391c889f5b" "submitter=Aiko Barsch (Bruker)" "MoNA Rating=4.583333333333334"
Num Peaks: 4
321.3165 0.800801
339.3265 100.000000
340.3301 24.824825
341.3353 0.900901


Name: Behenic acid
Synon: $:00in-source
DB#: MetaboBASE0890
InChIKey: UKMSUNONTOPOIO-UHFFFAOYSA-N
Instrument_type: LC-ESI-TOF
Instrument: impact HD
Ion_mode: N
Formula: C22H44O2
MW: 340
ExactMass: 340.334130648
Comments: "cas number=112-85-6" "SMILES=CCCCCCCCCCCCCCCCCCCCCC(=O)O" "InChI=InChI=1S/C22H44O2/c1-2-3-4-5-6-7-8-9-10-11-12-13-14-15-16-17-18-19-20-21-22(23)24/h2-21H2,1H3,(H,23,24)" "computed SMILES=O=C(O)CCCCCCCCCCCCCCCCCCCCC" "license=License CC-BY-NC-SA 4.0 International" "author=Plant Biology, The Noble Foundation, Ardmore, OK, US/Dennis Fine, Daniel Wherritt, and Lloyd Sumner" "ionization=ESI" "collision gas=Nitrogen" "peak width=0.012" "date=2014-08-20 03:38:18+02:00" "column=Waters Acquity BEH C18 1.7um x 2.1 x 150 mm" "retention time=2062.2" "raw data file=C:\Data\Confirmed standards 19_Aug_2014\Behenic acid vial 135 MSMS_1-C,1_01_667.d" "SPLASH=splash10-000i-0009000000-3a6826d318c7e1634120" "submitter=Aiko Barsch (Bruker)" "MoNA Rating=3.888888888888889"
Num Peaks: 30
128.0097 0.100100
217.9745 0.100100
248.9606 0.200200
264.9676 2.302302
279.0085 0.800801
280.9641 0.400400
285.9668 1.101101
339.3282 100.000000
340.3311 26.626627
341.3328 3.603604
342.3333 0.400400
353.9536 0.800801
368.9785 0.500501
407.3139 1.601602
408.3201 0.200200
430.0106 0.500501
436.9669 0.500501
439.2552 0.400400
475.2988 0.400400
489.9197 0.100100
490.3251 1.601602
491.3292 0.500501
526.9373 0.400400
556.0020 0.500501
557.9199 0.200200
558.3159 0.300300
594.9243 0.200200
611.2786 0.300300
625.9047 0.100100
626.3027 0.100100


Name: Behenic acid
Synon: $:00in-source
DB#: MetaboBASE0891
InChIKey: UKMSUNONTOPOIO-UHFFFAOYSA-N
Precursor_type: [M-H]-
Spectrum_type: MS2
PrecursorMZ: 339.3276
Instrument_type: LC-ESI-TOF
Instrument: impact HD
Ion_mode: N
Collision_energy: 20
Formula: C22H44O2
MW: 340
ExactMass: 340.334130648
Comments: "cas number=112-85-6" "SMILES=CCCCCCCCCCCCCCCCCCCCCC(=O)O" "InChI=InChI=1S/C22H44O2/c1-2-3-4-5-6-7-8-9-10-11-12-13-14-15-16-17-18-19-20-21-22(23)24/h2-21H2,1H3,(H,23,24)" "computed SMILES=O=C(O)CCCCCCCCCCCCCCCCCCCCC" "license=License CC-BY-NC-SA 4.0 International" "author=Plant Biology, The Noble Foundation, Ardmore, OK, US/Dennis Fine, Daniel Wherritt, and Lloyd Sumner" "ionization=ESI" "isolation width=5" "collision gas=Nitrogen" "peak width=0.013" "date=2014-08-20 03:38:18+02:00" "column=Waters Acquity BEH C18 1.7um x 2.1 x 150 mm" "retention time=2062.2" "raw data file=C:\Data\Confirmed standards 19_Aug_2014\Behenic acid vial 135 MSMS_1-C,1_01_667.d" "computed mass accuracy=2.1965557768481347" "computed mass error=7.453520000240133E-4" "SPLASH=splash10-000i-0009000000-183662ae4ac2ef63046e" "submitter=Aiko Barsch (Bruker)" "MoNA Rating=4.583333333333334"
Num Peaks: 4
339.1993 0.100100
339.3276 100.000000
340.3303 23.423423
341.3316 1.001001


Name: Catechin gallate
Synon: $:00in-source
DB#: MetaboBASE0892
InChIKey: LSHVYAFMTMFKBA-CTNGQTDRSA-N
Precursor_type: [M-H]-
Spectrum_type: MS2
PrecursorMZ: 441.0824
Instrument_type: LC-ESI-TOF
Instrument: impact HD
Ion_mode: N
Collision_energy: 30
Formula: C22H18O10
MW: 442
ExactMass: 442.089996776
Comments: "cas number=130405-40-2" "SMILES=c1cc(c(cc1[C@H]2[C@@H](Cc3c(cc(cc3O2)O)O)OC(=O)c4cc(c(c(c4)O)O)O)O)O" "InChI=InChI=1S/C22H18O10/c23-11-6-14(25)12-8-19(32-22(30)10-4-16(27)20(29)17(28)5-10)21(31-18(12)7-11)9-1-2-13(24)15(26)3-9/h1-7,19,21,23-29H,8H2/t19-,21+/m1/s1" "computed SMILES=O=C(OC1CC=2C(O)=CC(O)=CC2OC1C3=CC=C(O)C(O)=C3)C4=CC(O)=C(O)C(O)=C4" "license=License CC-BY-NC-SA 4.0 International" "author=Plant Biology, The Noble Foundation, Ardmore, OK, US/Dennis Fine, Daniel Wherritt, and Lloyd Sumner" "ionization=ESI" "isolation width=5" "collision gas=Nitrogen" "peak width=0.017" "date=2014-08-19 20:50:17+02:00" "column=Waters Acquity BEH C18 1.7um x 2.1 x 150 mm" "retention time=283.8" "raw data file=C:\Data\Confirmed standards 19_Aug_2014\Catechin gallate vial 371_1-E,3_01_657.d" "computed mass accuracy=0.727247335245456" "computed mass error=-3.2077600002367035E-4" "SPLASH=splash10-014r-0960000000-25a100df8f984afcaad7" "submitter=Aiko Barsch (Bruker)" "MoNA Rating=4.615384615384616"
Num Peaks: 44
109.0290 2.502503
123.0085 3.903904
123.0448 1.601602
124.0168 2.902903
125.0247 38.038038
126.0283 2.402402
137.0249 5.105105
145.0292 1.901902
149.0249 1.701702
151.0401 3.603604
161.0251 1.001001
161.0603 1.101101
165.0193 2.602603
166.9990 1.801802
168.0063 3.103103
169.0146 100.000000
170.0177 6.606607
179.0348 3.503504
193.0140 5.705706
203.0716 3.603604
205.0144 1.101101
205.0505 2.702703
221.0796 1.401401
227.0720 2.502503
231.0289 0.900901
245.0457 1.801802
245.0818 25.525526
246.0868 4.204204
247.0603 1.101101
253.0507 1.601602
257.0449 1.101101
259.0605 3.503504
269.0445 1.601602
271.0612 5.505506
272.0633 1.401401
285.0407 1.501502
287.0557 2.002002
289.0722 62.762763
290.0759 11.311311
301.0351 3.903904
302.0377 1.101101
303.0505 2.502503
313.0354 1.401401
331.0465 2.002002


Name: Catechin gallate
Synon: $:00in-source
DB#: MetaboBASE0893
InChIKey: LSHVYAFMTMFKBA-CTNGQTDRSA-N
Instrument_type: LC-ESI-TOF
Instrument: impact HD
Ion_mode: N
Formula: C22H18O10
MW: 442
ExactMass: 442.089996776
Comments: "cas number=130405-40-2" "SMILES=c1cc(c(cc1[C@H]2[C@@H](Cc3c(cc(cc3O2)O)O)OC(=O)c4cc(c(c(c4)O)O)O)O)O" "InChI=InChI=1S/C22H18O10/c23-11-6-14(25)12-8-19(32-22(30)10-4-16(27)20(29)17(28)5-10)21(31-18(12)7-11)9-1-2-13(24)15(26)3-9/h1-7,19,21,23-29H,8H2/t19-,21+/m1/s1" "computed SMILES=O=C(OC1CC=2C(O)=CC(O)=CC2OC1C3=CC=C(O)C(O)=C3)C4=CC(O)=C(O)C(O)=C4" "license=License CC-BY-NC-SA 4.0 International" "author=Plant Biology, The Noble Foundation, Ardmore, OK, US/Dennis Fine, Daniel Wherritt, and Lloyd Sumner" "ionization=ESI" "collision gas=Nitrogen" "peak width=0.015" "date=2014-08-19 20:50:17+02:00" "column=Waters Acquity BEH C18 1.7um x 2.1 x 150 mm" "retention time=283.8" "raw data file=C:\Data\Confirmed standards 19_Aug_2014\Catechin gallate vial 371_1-E,3_01_657.d" "SPLASH=splash10-000x-0000900060-4a06ca59e1125897d6ff" "submitter=Aiko Barsch (Bruker)" "MoNA Rating=3.888888888888889"
Num Peaks: 29
289.0712 1.301301
411.0722 1.801802
429.0840 1.301301
437.0512 1.701702
439.0676 7.207207
440.0713 2.202202
441.0846 100.000000
442.0882 26.226226
443.0900 5.305305
455.0629 1.201201
463.0651 3.803804
464.0691 1.101101
540.0015 1.301301
556.0021 1.501502
879.1420 4.604605
880.1469 2.802803
881.1591 8.108108
882.1633 4.604605
883.1765 45.445445
884.1801 25.625626
885.1823 8.708709
886.1846 2.402402
895.1364 1.101101
897.1532 2.602603
898.1572 1.401401
905.1548 1.101101
936.0833 1.101101
1325.2646 1.201201
1326.2708 1.001001


Name: Catechin gallate
Synon: $:00in-source
DB#: MetaboBASE0894
InChIKey: LSHVYAFMTMFKBA-CTNGQTDRSA-N
Precursor_type: [M-H]-
Spectrum_type: MS2
PrecursorMZ: 441.0835
Instrument_type: LC-ESI-TOF
Instrument: impact HD
Ion_mode: N
Collision_energy: 20
Formula: C22H18O10
MW: 442
ExactMass: 442.089996776
Comments: "cas number=130405-40-2" "SMILES=c1cc(c(cc1[C@H]2[C@@H](Cc3c(cc(cc3O2)O)O)OC(=O)c4cc(c(c(c4)O)O)O)O)O" "InChI=InChI=1S/C22H18O10/c23-11-6-14(25)12-8-19(32-22(30)10-4-16(27)20(29)17(28)5-10)21(31-18(12)7-11)9-1-2-13(24)15(26)3-9/h1-7,19,21,23-29H,8H2/t19-,21+/m1/s1" "computed SMILES=O=C(OC1CC=2C(O)=CC(O)=CC2OC1C3=CC=C(O)C(O)=C3)C4=CC(O)=C(O)C(O)=C4" "license=License CC-BY-NC-SA 4.0 International" "author=Plant Biology, The Noble Foundation, Ardmore, OK, US/Dennis Fine, Daniel Wherritt, and Lloyd Sumner" "ionization=ESI" "isolation width=5" "collision gas=Nitrogen" "peak width=0.016" "date=2014-08-19 20:50:17+02:00" "column=Waters Acquity BEH C18 1.7um x 2.1 x 150 mm" "retention time=283.8" "raw data file=C:\Data\Confirmed standards 19_Aug_2014\Catechin gallate vial 371_1-E,3_01_657.d" "computed mass accuracy=1.7666133509515185" "computed mass error=7.792239999844242E-4" "SPLASH=splash10-00kr-0691100000-efd4723359f93df332b6" "submitter=Aiko Barsch (Bruker)" "MoNA Rating=4.583333333333334"
Num Peaks: 30
123.0091 1.401401
125.0242 9.409409
137.0243 3.403403
166.9982 3.503504
168.0056 2.202202
169.0148 86.086086
170.0171 5.705706
193.0137 2.202202
245.0455 1.001001
245.0821 6.006006
253.0496 2.202202
259.0619 3.003003
269.0465 1.201201
271.0610 11.711712
272.0657 2.502503
287.0552 3.503504
289.0725 100.000000
290.0760 18.418418
291.0781 1.301301
301.0351 6.106106
302.0403 1.001001
303.0516 4.604605
313.0347 3.003003
315.0492 1.201201
331.0458 7.207207
332.0491 1.401401
397.0938 1.501502
439.0658 1.101101
441.0835 18.718719
442.0860 5.705706


Name: Catechin gallate
Synon: $:00in-source
DB#: MetaboBASE0895
InChIKey: LSHVYAFMTMFKBA-CTNGQTDRSA-N
Precursor_type: [M-H]-
Spectrum_type: MS2
PrecursorMZ: 441.0846
Instrument_type: LC-ESI-TOF
Instrument: impact HD
Ion_mode: N
Collision_energy: 10
Formula: C22H18O10
MW: 442
ExactMass: 442.089996776
Comments: "cas number=130405-40-2" "SMILES=c1cc(c(cc1[C@H]2[C@@H](Cc3c(cc(cc3O2)O)O)OC(=O)c4cc(c(c(c4)O)O)O)O)O" "InChI=InChI=1S/C22H18O10/c23-11-6-14(25)12-8-19(32-22(30)10-4-16(27)20(29)17(28)5-10)21(31-18(12)7-11)9-1-2-13(24)15(26)3-9/h1-7,19,21,23-29H,8H2/t19-,21+/m1/s1" "computed SMILES=O=C(OC1CC=2C(O)=CC(O)=CC2OC1C3=CC=C(O)C(O)=C3)C4=CC(O)=C(O)C(O)=C4" "license=License CC-BY-NC-SA 4.0 International" "author=Plant Biology, The Noble Foundation, Ardmore, OK, US/Dennis Fine, Daniel Wherritt, and Lloyd Sumner" "ionization=ESI" "isolation width=5" "collision gas=Nitrogen" "peak width=0.016" "date=2014-08-19 20:50:17+02:00" "column=Waters Acquity BEH C18 1.7um x 2.1 x 150 mm" "retention time=283.8" "raw data file=C:\Data\Confirmed standards 19_Aug_2014\Catechin gallate vial 371_1-E,3_01_657.d" "computed mass accuracy=4.260461598506315" "computed mass error=0.0018792239999925187" "SPLASH=splash10-0006-0010900000-d409ed603e168c2615bc" "submitter=Aiko Barsch (Bruker)" "MoNA Rating=4.583333333333334"
Num Peaks: 12
166.9979 1.001001
169.0142 10.910911
271.0614 3.403403
289.0721 17.017017
290.0749 3.003003
301.0358 2.502503
313.0358 1.201201
439.0675 4.304304
440.0705 1.801802
441.0846 100.000000
442.0881 26.926927
443.0895 1.801802


Name: Catechin gallate
Synon: $:00in-source
DB#: MetaboBASE0896
InChIKey: LSHVYAFMTMFKBA-CTNGQTDRSA-N
Precursor_type: [M-H]-
Spectrum_type: MS2
PrecursorMZ: 441.09
Instrument_type: LC-ESI-TOF
Instrument: impact HD
Ion_mode: N
Collision_energy: 40
Formula: C22H18O10
MW: 442
ExactMass: 442.089996776
Comments: "cas number=130405-40-2" "SMILES=c1cc(c(cc1[C@H]2[C@@H](Cc3c(cc(cc3O2)O)O)OC(=O)c4cc(c(c(c4)O)O)O)O)O" "InChI=InChI=1S/C22H18O10/c23-11-6-14(25)12-8-19(32-22(30)10-4-16(27)20(29)17(28)5-10)21(31-18(12)7-11)9-1-2-13(24)15(26)3-9/h1-7,19,21,23-29H,8H2/t19-,21+/m1/s1" "computed SMILES=O=C(OC1CC=2C(O)=CC(O)=CC2OC1C3=CC=C(O)C(O)=C3)C4=CC(O)=C(O)C(O)=C4" "license=License CC-BY-NC-SA 4.0 International" "author=Plant Biology, The Noble Foundation, Ardmore, OK, US/Dennis Fine, Daniel Wherritt, and Lloyd Sumner" "ionization=ESI" "isolation width=5" "collision gas=Nitrogen" "peak width=0.018" "date=2014-08-19 20:50:17+02:00" "column=Waters Acquity BEH C18 1.7um x 2.1 x 150 mm" "retention time=283.8" "raw data file=C:\Data\Confirmed standards 19_Aug_2014\Catechin gallate vial 371_1-E,3_01_657.d" "computed mass accuracy=16.50280895042827" "computed mass error=0.007279223999944406" "SPLASH=splash10-00or-0920000000-1c97743a98715d6b2789" "submitter=Aiko Barsch (Bruker)" "MoNA Rating=4.545454545454546"
Num Peaks: 66
107.0143 1.201201
108.0220 1.201201
109.0290 9.509510
110.0327 1.101101
121.0292 2.402402
123.0088 7.007007
123.0449 8.208208
124.0161 7.607608
125.0247 100.000000
126.0278 6.506507
135.0451 2.002002
137.0242 10.210210
138.0295 1.301301
139.0036 1.301301
139.0401 1.801802
140.0105 1.301301
145.0289 4.004004
149.0239 5.705706
150.0305 1.601602
151.0399 9.209209
152.0431 1.301301
159.0446 1.901902
160.0520 1.001001
161.0232 2.502503
161.0604 3.603604
162.0309 1.201201
164.0116 2.202202
165.0188 3.903904
166.0251 1.201201
167.0356 1.501502
168.0062 1.101101
169.0143 76.476476
170.0177 6.306306
175.0400 1.401401
175.0748 1.001001
179.0354 4.204204
185.0601 1.501502
187.0397 3.603604
188.0469 2.502503
193.0140 7.407407
201.0534 1.001001
202.0621 2.502503
203.0712 8.908909
204.0752 1.301301
205.0137 1.101101
205.0499 5.105105
221.0819 5.905906
227.0706 3.703704
229.0517 1.101101
230.0587 1.501502
231.0299 1.601602
241.0494 1.201201
245.0460 1.601602
245.0818 16.616617
246.0835 3.503504
247.0603 2.202202
253.0504 1.501502
255.0298 1.601602
256.0376 1.001001
257.0479 1.101101
259.0622 2.002002
269.0462 1.301301
271.0615 2.402402
289.0713 11.911912
290.0763 2.602603
301.0333 1.301301


Name: Epigallocatechin gallate
Synon: $:00in-source
DB#: MetaboBASE0897
InChIKey: WMBWREPUVVBILR-WIYYLYMNSA-N
Precursor_type: [M-H]-
Spectrum_type: MS2
PrecursorMZ: 457.0834
Instrument_type: LC-ESI-TOF
Instrument: impact HD
Ion_mode: N
Collision_energy: 10
Formula: C22H18O11
MW: 458
ExactMass: 458.084911396
Comments: "cas number=989-51-5" "SMILES=c1c(cc(c(c1O)O)O)[C@@H]2[C@@H](Cc3c(cc(cc3O2)O)O)OC(=O)c4cc(c(c(c4)O)O)O" "InChI=InChI=1S/C22H18O11/c23-10-5-12(24)11-7-18(33-22(31)9-3-15(27)20(30)16(28)4-9)21(32-17(11)6-10)8-1-13(25)19(29)14(26)2-8/h1-6,18,21,23-30H,7H2/t18-,21-/m1/s1" "computed SMILES=O=C(OC1CC=2C(O)=CC(O)=CC2OC1C3=CC(O)=C(O)C(O)=C3)C4=CC(O)=C(O)C(O)=C4" "computed InChI=InChI=1S/C22H18O11/c23-10-5-12(24)11-7-18(33-22(31)9-3-15(27)20(30)16(28)4-9)21(32-17(11)6-10)8-1-13(25)19(29)14(26)2-8/h1-6,18,21,23-30H,7H2/t18-,21-/m0/s1" "license=License CC-BY-NC-SA 4.0 International" "author=Plant Biology, The Noble Foundation, Ardmore, OK, US/Dennis Fine, Daniel Wherritt, and Lloyd Sumner" "ionization=ESI" "isolation width=5" "collision gas=Nitrogen" "peak width=0.016" "date=2014-08-19 22:11:47+02:00" "column=Waters Acquity BEH C18 1.7um x 2.1 x 150 mm" "retention time=173.4" "raw data file=C:\Data\Confirmed standards 19_Aug_2014\Epigallocatechin gallate v373_1-E,5_01_659.d" "computed mass accuracy=12.611711560687032" "computed mass error=0.005764603999978135" "SPLASH=splash10-0a4i-0301900000-306bcb88a9db3b631447" "submitter=Aiko Barsch (Bruker)" "MoNA Rating=4.545454545454546"
Num Peaks: 55
123.0103 0.500501
125.0252 2.402402
126.0281 0.200200
137.0255 0.200200
166.9999 4.504505
168.0053 0.600601
169.0160 52.352352
170.0194 2.902903
171.0217 0.400400
177.0171 0.200200
229.0150 0.400400
241.0533 1.201201
242.0562 0.400400
244.0331 0.300300
269.0466 2.502503
270.0525 0.700701
273.0436 0.300300
285.0441 1.801802
286.0456 1.001001
287.0277 0.300300
287.0587 7.707708
288.0630 2.402402
289.0397 0.400400
289.0689 0.400400
303.0533 2.502503
304.0616 1.101101
305.0690 9.009009
306.0736 2.602603
316.0243 0.400400
317.0337 3.803804
318.0349 1.201201
319.0465 0.900901
320.0548 0.300300
329.0344 2.802803
330.0384 1.701702
331.0481 3.203203
332.0528 0.700701
383.0837 0.300300
393.0597 0.200200
410.0598 0.400400
411.0748 0.800801
412.0857 0.300300
454.0552 4.804805
455.0655 24.124124
455.1225 0.200200
456.0707 13.013013
457.0834 100.000000
458.0877 43.743744
458.1635 0.300300
459.0907 4.704705
460.0924 0.300300
1013.8626 0.300300
1209.9270 0.300300
1286.0870 0.300300
1345.3685 0.300300


Name: Epigallocatechin gallate
Synon: $:00in-source
DB#: MetaboBASE0898
InChIKey: WMBWREPUVVBILR-WIYYLYMNSA-N
Precursor_type: [M-H]-
Spectrum_type: MS2
PrecursorMZ: 457.08
Instrument_type: LC-ESI-TOF
Instrument: impact HD
Ion_mode: N
Collision_energy: 40
Formula: C22H18O11
MW: 458
ExactMass: 458.084911396
Comments: "cas number=989-51-5" "SMILES=c1c(cc(c(c1O)O)O)[C@@H]2[C@@H](Cc3c(cc(cc3O2)O)O)OC(=O)c4cc(c(c(c4)O)O)O" "InChI=InChI=1S/C22H18O11/c23-10-5-12(24)11-7-18(33-22(31)9-3-15(27)20(30)16(28)4-9)21(32-17(11)6-10)8-1-13(25)19(29)14(26)2-8/h1-6,18,21,23-30H,7H2/t18-,21-/m1/s1" "computed SMILES=O=C(OC1CC=2C(O)=CC(O)=CC2OC1C3=CC(O)=C(O)C(O)=C3)C4=CC(O)=C(O)C(O)=C4" "computed InChI=InChI=1S/C22H18O11/c23-10-5-12(24)11-7-18(33-22(31)9-3-15(27)20(30)16(28)4-9)21(32-17(11)6-10)8-1-13(25)19(29)14(26)2-8/h1-6,18,21,23-30H,7H2/t18-,21-/m0/s1" "license=License CC-BY-NC-SA 4.0 International" "author=Plant Biology, The Noble Foundation, Ardmore, OK, US/Dennis Fine, Daniel Wherritt, and Lloyd Sumner" "ionization=ESI" "isolation width=5" "collision gas=Nitrogen" "peak width=0.019" "date=2014-08-19 22:11:47+02:00" "column=Waters Acquity BEH C18 1.7um x 2.1 x 150 mm" "retention time=173.4" "raw data file=C:\Data\Confirmed standards 19_Aug_2014\Epigallocatechin gallate v373_1-E,5_01_659.d" "computed mass accuracy=5.173282576308203" "computed mass error=0.0023646039999789537" "SPLASH=splash10-00or-0900000000-2209ff009c5d9cffaf40" "submitter=Aiko Barsch (Bruker)" "MoNA Rating=4.545454545454546"
Num Peaks: 53
109.0304 1.001001
111.0454 0.700701
123.0100 14.514515
124.0159 3.103103
125.0256 100.000000
126.0289 8.308308
133.0313 0.700701
137.0254 3.903904
138.0303 1.401401
139.0031 0.900901
139.0417 2.102102
149.0271 0.800801
161.0255 7.507508
162.0308 1.001001
164.0112 1.401401
165.0207 4.104104
166.0280 0.900901
166.9990 1.901902
167.0359 3.303303
168.0400 1.201201
169.0156 82.782783
170.0183 5.005005
175.0439 1.001001
177.0200 4.004004
177.0560 1.601602
179.0356 2.702703
193.0163 2.502503
201.0550 1.301301
203.0331 0.900901
217.0511 1.301301
219.0700 3.003003
221.0445 1.601602
225.0574 1.101101
227.0369 1.701702
228.0409 1.501502
229.0202 1.101101
241.0517 0.900901
243.0314 1.101101
243.0625 0.900901
244.0368 1.101101
245.0447 0.800801
257.0444 1.201201
261.0809 1.301301
269.0487 0.700701
271.0258 1.001001
272.0328 1.001001
285.0408 0.900901
287.0598 1.101101
289.0303 0.900901
299.0233 0.600601
305.0697 1.801802
306.0733 0.800801
317.0295 0.600601


Name: Epigallocatechin gallate
Synon: $:00in-source
DB#: MetaboBASE0899
InChIKey: WMBWREPUVVBILR-WIYYLYMNSA-N
Instrument_type: LC-ESI-TOF
Instrument: impact HD
Ion_mode: N
Formula: C22H18O11
MW: 458
ExactMass: 458.084911396
Comments: "cas number=989-51-5" "SMILES=c1c(cc(c(c1O)O)O)[C@@H]2[C@@H](Cc3c(cc(cc3O2)O)O)OC(=O)c4cc(c(c(c4)O)O)O" "InChI=InChI=1S/C22H18O11/c23-10-5-12(24)11-7-18(33-22(31)9-3-15(27)20(30)16(28)4-9)21(32-17(11)6-10)8-1-13(25)19(29)14(26)2-8/h1-6,18,21,23-30H,7H2/t18-,21-/m1/s1" "computed SMILES=O=C(OC1CC=2C(O)=CC(O)=CC2OC1C3=CC(O)=C(O)C(O)=C3)C4=CC(O)=C(O)C(O)=C4" "computed InChI=InChI=1S/C22H18O11/c23-10-5-12(24)11-7-18(33-22(31)9-3-15(27)20(30)16(28)4-9)21(32-17(11)6-10)8-1-13(25)19(29)14(26)2-8/h1-6,18,21,23-30H,7H2/t18-,21-/m0/s1" "license=License CC-BY-NC-SA 4.0 International" "author=Plant Biology, The Noble Foundation, Ardmore, OK, US/Dennis Fine, Daniel Wherritt, and Lloyd Sumner" "ionization=ESI" "collision gas=Nitrogen" "peak width=0.017" "date=2014-08-19 22:11:47+02:00" "column=Waters Acquity BEH C18 1.7um x 2.1 x 150 mm" "retention time=173.4" "raw data file=C:\Data\Confirmed standards 19_Aug_2014\Epigallocatechin gallate v373_1-E,5_01_659.d" "SPLASH=splash10-0aor-0000900008-24e0bb519bd4a4f909f0" "submitter=Aiko Barsch (Bruker)" "MoNA Rating=3.888888888888889"
Num Peaks: 68
169.0157 6.606607
381.0652 2.202202
382.0685 1.001001
397.0597 3.403403
398.0649 1.501502
423.0383 1.701702
425.0563 2.002002
427.0699 2.602603
428.0781 1.101101
453.0518 16.616617
454.0562 6.906907
455.0673 22.822823
456.0710 10.110110
457.0839 100.000000
458.0885 42.942943
459.0918 10.610611
460.0934 2.102102
469.0465 4.304304
470.0501 2.102102
471.0625 4.904905
472.0671 2.402402
473.0768 4.004004
474.0825 1.701702
477.0500 1.401401
479.0655 5.005005
480.0699 2.302302
487.0556 2.902903
488.0623 1.501502
491.0899 1.001001
541.0373 1.001001
554.9956 1.101101
556.0021 2.802803
557.0086 1.901902
575.0212 1.501502
909.1226 1.901902
910.1301 2.002002
911.1432 9.209209
912.1451 7.907908
913.1581 19.119119
914.1622 16.316316
915.1731 45.345345
916.1786 36.236236
917.1821 18.318318
918.1833 6.506507
919.1863 1.701702
927.1368 3.603604
928.1423 3.203203
929.1511 9.009009
930.1573 7.707708
931.1651 7.007007
932.1670 3.903904
933.1672 2.002002
935.1396 1.401401
937.1568 1.301301
938.1593 1.001001
943.1307 1.001001
944.1345 1.001001
945.1483 2.402402
946.1510 2.402402
947.1574 3.203203
948.1652 2.002002
949.1778 4.804805
950.1809 3.703704
951.1830 1.901902
963.1608 1.301301
964.1608 1.001001
968.0849 1.501502
969.0885 1.001001


Name: Epigallocatechin gallate
Synon: $:00in-source
DB#: MetaboBASE0900
InChIKey: WMBWREPUVVBILR-WIYYLYMNSA-N
Precursor_type: [M-H]-
Spectrum_type: MS2
PrecursorMZ: 457.083
Instrument_type: LC-ESI-TOF
Instrument: impact HD
Ion_mode: N
Collision_energy: 20
Formula: C22H18O11
MW: 458
ExactMass: 458.084911396
Comments: "cas number=989-51-5" "SMILES=c1c(cc(c(c1O)O)O)[C@@H]2[C@@H](Cc3c(cc(cc3O2)O)O)OC(=O)c4cc(c(c(c4)O)O)O" "InChI=InChI=1S/C22H18O11/c23-10-5-12(24)11-7-18(33-22(31)9-3-15(27)20(30)16(28)4-9)21(32-17(11)6-10)8-1-13(25)19(29)14(26)2-8/h1-6,18,21,23-30H,7H2/t18-,21-/m1/s1" "computed SMILES=O=C(OC1CC=2C(O)=CC(O)=CC2OC1C3=CC(O)=C(O)C(O)=C3)C4=CC(O)=C(O)C(O)=C4" "computed InChI=InChI=1S/C22H18O11/c23-10-5-12(24)11-7-18(33-22(31)9-3-15(27)20(30)16(28)4-9)21(32-17(11)6-10)8-1-13(25)19(29)14(26)2-8/h1-6,18,21,23-30H,7H2/t18-,21-/m0/s1" "license=License CC-BY-NC-SA 4.0 International" "author=Plant Biology, The Noble Foundation, Ardmore, OK, US/Dennis Fine, Daniel Wherritt, and Lloyd Sumner" "ionization=ESI" "isolation width=5" "collision gas=Nitrogen" "peak width=0.017" "date=2014-08-19 22:11:47+02:00" "column=Waters Acquity BEH C18 1.7um x 2.1 x 150 mm" "retention time=173.4" "raw data file=C:\Data\Confirmed standards 19_Aug_2014\Epigallocatechin gallate v373_1-E,5_01_659.d" "computed mass accuracy=11.73660801215906" "computed mass error=0.0053646040000217" "SPLASH=splash10-014i-0912000000-3adc2bfa8656374fadff" "submitter=Aiko Barsch (Bruker)" "MoNA Rating=4.545454545454546"
Num Peaks: 74
123.0097 3.703704
124.0150 0.500501
125.0254 16.716717
126.0285 1.201201
137.0241 0.800801
139.0061 0.500501
161.0261 4.204204
165.0229 0.500501
166.9998 10.810811
168.0042 0.900901
169.0163 100.000000
169.0537 0.400400
170.0198 6.606607
171.0212 0.300300
177.0199 1.201201
193.0167 1.201201
205.0141 0.400400
217.0553 0.500501
219.0688 0.400400
227.0407 0.300300
228.0427 0.600601
229.0140 0.900901
229.0520 0.300300
241.0536 1.101101
243.0318 0.600601
243.0698 0.500501
244.0322 0.400400
245.0410 0.400400
246.0182 0.300300
255.0322 0.400400
256.0411 0.300300
257.0493 0.400400
259.0637 0.700701
261.0434 0.300300
261.0795 0.600601
269.0474 3.403403
270.0536 1.101101
273.0436 0.800801
275.0605 0.400400
285.0427 1.801802
286.0486 0.500501
287.0211 0.400400
287.0583 3.803804
288.0615 1.601602
289.0392 0.900901
303.0588 0.900901
304.0607 0.400400
305.0692 20.020020
306.0739 5.405405
307.0774 0.500501
315.0189 0.400400
316.0259 1.001001
317.0329 3.603604
318.0388 1.001001
319.0472 1.101101
320.0513 0.600601
329.0321 3.503504
329.0650 0.300300
330.0372 1.301301
331.0495 5.305305
332.0570 1.001001
333.0574 0.400400
366.0772 0.400400
393.0595 0.300300
410.0659 0.600601
411.0709 0.500501
426.0641 0.300300
454.0557 0.900901
455.0638 1.101101
456.0666 0.500501
457.0830 3.703704
458.0876 1.401401
647.1744 0.300300
1170.6818 0.300300


Name: Epigallocatechin gallate
Synon: $:00in-source
DB#: MetaboBASE0901
InChIKey: WMBWREPUVVBILR-WIYYLYMNSA-N
Precursor_type: [M-H]-
Spectrum_type: MS2
PrecursorMZ: 457.08
Instrument_type: LC-ESI-TOF
Instrument: impact HD
Ion_mode: N
Collision_energy: 50
Formula: C22H18O11
MW: 458
ExactMass: 458.084911396
Comments: "cas number=989-51-5" "SMILES=c1c(cc(c(c1O)O)O)[C@@H]2[C@@H](Cc3c(cc(cc3O2)O)O)OC(=O)c4cc(c(c(c4)O)O)O" "InChI=InChI=1S/C22H18O11/c23-10-5-12(24)11-7-18(33-22(31)9-3-15(27)20(30)16(28)4-9)21(32-17(11)6-10)8-1-13(25)19(29)14(26)2-8/h1-6,18,21,23-30H,7H2/t18-,21-/m1/s1" "computed SMILES=O=C(OC1CC=2C(O)=CC(O)=CC2OC1C3=CC(O)=C(O)C(O)=C3)C4=CC(O)=C(O)C(O)=C4" "computed InChI=InChI=1S/C22H18O11/c23-10-5-12(24)11-7-18(33-22(31)9-3-15(27)20(30)16(28)4-9)21(32-17(11)6-10)8-1-13(25)19(29)14(26)2-8/h1-6,18,21,23-30H,7H2/t18-,21-/m0/s1" "license=License CC-BY-NC-SA 4.0 International" "author=Plant Biology, The Noble Foundation, Ardmore, OK, US/Dennis Fine, Daniel Wherritt, and Lloyd Sumner" "ionization=ESI" "isolation width=5" "collision gas=Nitrogen" "peak width=0.019" "date=2014-08-19 22:11:47+02:00" "column=Waters Acquity BEH C18 1.7um x 2.1 x 150 mm" "retention time=173.4" "raw data file=C:\Data\Confirmed standards 19_Aug_2014\Epigallocatechin gallate v373_1-E,5_01_659.d" "computed mass accuracy=5.173282576308203" "computed mass error=0.0023646039999789537" "SPLASH=splash10-004i-0900000000-421d0afdbaa8c277f57a" "submitter=Aiko Barsch (Bruker)" "MoNA Rating=4.545454545454546"
Num Peaks: 41
107.0141 1.301301
109.0308 2.102102
121.0296 1.501502
123.0098 8.208208
124.0170 4.504505
125.0256 100.000000
126.0288 7.807808
133.0294 0.800801
137.0239 5.205205
138.0319 1.901902
139.0418 3.003003
149.0258 1.101101
151.0399 0.700701
160.0517 0.800801
161.0246 4.704705
162.0327 1.801802
164.0146 1.001001
165.0189 2.702703
166.0258 1.701702
167.0354 3.603604
169.0154 32.932933
170.0190 1.801802
171.0428 0.600601
175.0419 0.700701
177.0216 2.502503
177.0575 1.101101
178.0262 0.700701
186.0302 0.700701
193.0144 3.003003
199.0426 0.900901
201.0555 1.001001
203.0402 0.800801
204.0408 1.101101
215.0350 0.900901
217.0523 0.800801
219.0655 1.801802
227.0343 1.201201
243.0311 1.401401
255.0310 0.700701
257.0491 0.800801
271.0274 0.600601


Name: Epigallocatechin gallate
Synon: $:00in-source
DB#: MetaboBASE0902
InChIKey: WMBWREPUVVBILR-WIYYLYMNSA-N
Precursor_type: [M-H]-
Spectrum_type: MS2
PrecursorMZ: 457.08
Instrument_type: LC-ESI-TOF
Instrument: impact HD
Ion_mode: N
Collision_energy: 30
Formula: C22H18O11
MW: 458
ExactMass: 458.084911396
Comments: "cas number=989-51-5" "SMILES=c1c(cc(c(c1O)O)O)[C@@H]2[C@@H](Cc3c(cc(cc3O2)O)O)OC(=O)c4cc(c(c(c4)O)O)O" "InChI=InChI=1S/C22H18O11/c23-10-5-12(24)11-7-18(33-22(31)9-3-15(27)20(30)16(28)4-9)21(32-17(11)6-10)8-1-13(25)19(29)14(26)2-8/h1-6,18,21,23-30H,7H2/t18-,21-/m1/s1" "computed SMILES=O=C(OC1CC=2C(O)=CC(O)=CC2OC1C3=CC(O)=C(O)C(O)=C3)C4=CC(O)=C(O)C(O)=C4" "computed InChI=InChI=1S/C22H18O11/c23-10-5-12(24)11-7-18(33-22(31)9-3-15(27)20(30)16(28)4-9)21(32-17(11)6-10)8-1-13(25)19(29)14(26)2-8/h1-6,18,21,23-30H,7H2/t18-,21-/m0/s1" "license=License CC-BY-NC-SA 4.0 International" "author=Plant Biology, The Noble Foundation, Ardmore, OK, US/Dennis Fine, Daniel Wherritt, and Lloyd Sumner" "ionization=ESI" "isolation width=5" "collision gas=Nitrogen" "peak width=0.018" "date=2014-08-19 22:11:47+02:00" "column=Waters Acquity BEH C18 1.7um x 2.1 x 150 mm" "retention time=173.4" "raw data file=C:\Data\Confirmed standards 19_Aug_2014\Epigallocatechin gallate v373_1-E,5_01_659.d" "computed mass accuracy=5.173282576308203" "computed mass error=0.0023646039999789537" "SPLASH=splash10-014i-0911000000-8cd4fb88571a263c38ab" "submitter=Aiko Barsch (Bruker)" "MoNA Rating=4.545454545454546"
Num Peaks: 75
123.0100 11.511512
124.0147 1.401401
125.0256 46.246246
126.0297 3.103103
137.0256 2.902903
138.0309 0.500501
139.0054 0.800801
139.0411 1.201201
161.0249 5.805806
162.0286 1.301301
165.0192 2.102102
166.9992 4.904905
167.0376 1.901902
168.0038 1.001001
168.9737 0.400400
169.0158 100.000000
170.0189 6.506507
171.0182 0.700701
177.0202 2.202202
178.0260 0.700701
179.0374 2.102102
193.0140 3.603604
194.0181 0.700701
199.0399 0.600601
201.0578 0.600601
205.0166 1.001001
217.0547 0.900901
219.0667 1.801802
220.0719 0.700701
221.0456 1.601602
227.0356 1.001001
228.0408 0.700701
229.0197 0.600601
232.0357 0.500501
235.0646 0.400400
241.0529 0.700701
243.0340 1.601602
243.0701 0.600601
244.0392 1.001001
245.0090 0.700701
245.0447 0.800801
246.0533 0.600601
255.0265 0.500501
257.0485 0.600601
259.0227 0.500501
260.0302 0.500501
261.0779 1.801802
262.0826 0.700701
269.0458 2.102102
270.0207 0.500501
270.0533 0.500501
271.0268 0.800801
272.0291 0.700701
273.0377 0.500501
275.0594 0.800801
285.0435 1.201201
286.0462 0.700701
287.0184 0.600601
287.0587 1.401401
288.0596 0.500501
289.0404 0.700701
299.0239 0.700701
305.0695 11.311311
306.0746 4.104104
307.0771 0.600601
311.0192 0.500501
313.0354 0.500501
316.0324 0.500501
317.0317 2.002002
318.0350 0.800801
319.0482 0.700701
329.0291 1.201201
330.0444 0.400400
331.0482 1.001001
332.0543 0.600601


Name: Gallocatechin
Synon: $:00in-source
DB#: MetaboBASE0903
InChIKey: XMOCLSLCDHWDHP-DOMZBBRYSA-N
Precursor_type: [M-H]-
Spectrum_type: MS2
PrecursorMZ: 305.06
Instrument_type: LC-ESI-TOF
Instrument: impact HD
Ion_mode: N
Collision_energy: 40
Formula: C15H14O7
MW: 306
ExactMass: 306.073952788
Comments: "cas number=3371-27-5" "SMILES=C1[C@H]([C@@H](OC2=CC(=CC(=C21)O)O)C3=CC(=C(C(=C3)O)O)O)O" "InChI=InChI=1S/C15H14O7/c16-7-3-9(17)8-5-12(20)15(22-13(8)4-7)6-1-10(18)14(21)11(19)2-6/h1-4,12,15-21H,5H2/t12-,15+/m1/s1" "computed SMILES=OC=1C=C(O)C2=C(OC(C3=CC(O)=C(O)C(O)=C3)C(O)C2)C1" "computed InChI=InChI=1S/C15H14O7/c16-7-3-9(17)8-5-12(20)15(22-13(8)4-7)6-1-10(18)14(21)11(19)2-6/h1-4,12,15-21H,5H2/t12-,15+/m0/s1" "license=License CC-BY-NC-SA 4.0 International" "author=Plant Biology, The Noble Foundation, Ardmore, OK, US/Dennis Fine, Daniel Wherritt, and Lloyd Sumner" "ionization=ESI" "isolation width=5" "collision gas=Nitrogen" "peak width=0.02" "date=2014-08-19 19:55:39+02:00" "column=Waters Acquity BEH C18 1.7um x 2.1 x 150 mm" "retention time=67.8" "raw data file=C:\Data\Confirmed standards 19_Aug_2014\Gallocatechin vial 370_1-E,2_01_656.d" "computed mass accuracy=21.886802596187433" "computed mass error=-0.006676787999992939" "SPLASH=splash10-002r-0900000000-c1cd10a5867d444bd1d3" "submitter=Aiko Barsch (Bruker)" "MoNA Rating=4.545454545454546"
Num Peaks: 96
107.0506 2.402402
108.0224 2.402402
109.0298 66.066066
110.0347 8.408408
111.0456 7.207207
115.0544 1.401401
117.0346 2.402402
119.0504 3.503504
120.0236 1.201201
121.0298 16.516517
121.0654 2.702703
122.0355 2.802803
123.0082 19.919920
123.0458 2.902903
124.0166 24.324324
125.0247 100.000000
126.0285 9.509510
130.0435 1.701702
131.0505 3.103103
132.0551 1.101101
133.0293 4.204204
133.0665 2.502503
134.0372 1.101101
135.0074 1.201201
135.0456 3.203203
137.0247 87.487487
137.0619 1.001001
138.0314 23.423423
139.0401 48.048048
139.0604 1.001001
140.0465 4.504505
143.0497 2.102102
145.0293 5.005005
145.0653 2.002002
146.0386 2.202202
147.0443 4.504505
148.0534 1.501502
149.0245 7.307307
149.0602 3.603604
150.0313 3.703704
151.0397 9.109109
152.0427 1.901902
153.0190 3.903904
155.0341 1.501502
157.0648 1.901902
158.0371 2.302302
159.0443 5.905906
160.0509 1.801802
161.0245 9.709710
161.0608 2.002002
162.0310 2.402402
163.0402 2.702703
163.0773 1.401401
164.0109 11.411411
164.0475 2.302302
165.0192 13.613614
165.0539 1.801802
166.0267 5.505506
167.0354 15.615616
168.0389 2.002002
170.0306 1.101101
171.0469 1.301301
172.0512 2.302302
173.0246 2.202202
173.0604 3.403403
174.0341 2.202202
175.0407 8.608609
176.0452 3.603604
177.0181 4.604605
177.0554 4.404404
178.0250 2.902903
179.0354 1.601602
186.0316 1.401401
187.0393 4.004004
188.0452 2.002002
189.0219 1.501502
189.0538 3.003003
190.0584 1.301301
191.0336 3.503504
191.0677 1.901902
193.0506 2.002002
199.0409 2.302302
201.0558 1.901902
202.0597 1.201201
203.0350 2.502503
204.0417 2.102102
211.0395 1.401401
212.0464 1.001001
215.0351 1.701702
217.0509 1.901902
219.0669 4.404404
227.0375 1.101101
229.0515 1.401401
231.0307 1.001001
237.0762 1.301301
242.0170 1.101101


Name: Gallocatechin
Synon: $:00in-source
DB#: MetaboBASE0904
InChIKey: XMOCLSLCDHWDHP-DOMZBBRYSA-N
Precursor_type: [M-H]-
Spectrum_type: MS2
PrecursorMZ: 305.066
Instrument_type: LC-ESI-TOF
Instrument: impact HD
Ion_mode: N
Collision_energy: 30
Formula: C15H14O7
MW: 306
ExactMass: 306.073952788
Comments: "cas number=3371-27-5" "SMILES=C1[C@H]([C@@H](OC2=CC(=CC(=C21)O)O)C3=CC(=C(C(=C3)O)O)O)O" "InChI=InChI=1S/C15H14O7/c16-7-3-9(17)8-5-12(20)15(22-13(8)4-7)6-1-10(18)14(21)11(19)2-6/h1-4,12,15-21H,5H2/t12-,15+/m1/s1" "computed SMILES=OC=1C=C(O)C2=C(OC(C3=CC(O)=C(O)C(O)=C3)C(O)C2)C1" "computed InChI=InChI=1S/C15H14O7/c16-7-3-9(17)8-5-12(20)15(22-13(8)4-7)6-1-10(18)14(21)11(19)2-6/h1-4,12,15-21H,5H2/t12-,15+/m0/s1" "license=License CC-BY-NC-SA 4.0 International" "author=Plant Biology, The Noble Foundation, Ardmore, OK, US/Dennis Fine, Daniel Wherritt, and Lloyd Sumner" "ionization=ESI" "isolation width=5" "collision gas=Nitrogen" "peak width=0.019" "date=2014-08-19 19:55:39+02:00" "column=Waters Acquity BEH C18 1.7um x 2.1 x 150 mm" "retention time=67.8" "raw data file=C:\Data\Confirmed standards 19_Aug_2014\Gallocatechin vial 370_1-E,2_01_656.d" "computed mass accuracy=2.21849698105044" "computed mass error=-6.767880000211335E-4" "SPLASH=splash10-00n0-0910000000-06ff48cb1edb79736ede" "submitter=Aiko Barsch (Bruker)" "MoNA Rating=4.583333333333334"
Num Peaks: 86
109.0295 26.526527
110.0340 2.802803
111.0455 6.406406
112.0490 1.101101
121.0295 6.106106
122.0356 1.201201
123.0092 9.409409
123.0448 1.601602
124.0167 10.110110
125.0249 100.000000
126.0291 9.609610
131.0505 1.001001
133.0292 1.201201
133.0655 1.401401
135.0454 2.702703
137.0248 69.469469
138.0301 13.513514
139.0400 28.928929
140.0445 3.603604
143.0499 1.101101
145.0298 1.101101
145.0657 1.001001
147.0449 2.902903
149.0242 4.904905
149.0605 2.902903
150.0304 2.102102
151.0398 5.605606
153.0188 1.901902
159.0454 2.502503
160.0548 1.201201
161.0239 3.403403
161.0594 1.201201
162.0324 2.502503
163.0414 1.801802
164.0116 9.709710
165.0191 21.421421
165.0534 1.101101
166.0259 5.105105
167.0348 24.724725
168.0388 3.503504
171.0461 1.101101
173.0244 1.501502
173.0602 2.702703
174.0305 1.601602
175.0396 6.106106
175.0724 1.201201
176.0451 3.803804
177.0193 4.904905
177.0556 5.205205
178.0266 2.802803
179.0348 6.206206
181.0519 1.001001
187.0396 2.002002
189.0549 3.403403
191.0339 2.602603
191.0710 2.302302
192.0402 1.101101
193.0505 2.602603
199.0393 1.601602
201.0561 2.802803
203.0346 4.204204
204.0412 3.003003
205.0487 2.002002
207.0648 1.401401
213.0558 1.301301
215.0348 1.501502
215.0705 1.001001
217.0510 3.103103
218.0553 1.801802
219.0660 10.210210
220.0705 2.402402
221.0446 4.104104
227.0367 1.201201
229.0499 2.402402
230.0576 1.001001
231.0641 1.201201
233.0456 1.101101
235.0614 1.101101
237.0778 4.304304
238.0815 1.001001
242.0186 1.201201
243.0285 1.301301
243.0656 1.601602
245.0454 1.301301
257.0442 1.701702
274.0504 1.801802


Name: Gallocatechin
Synon: $:00in-source
DB#: MetaboBASE0905
InChIKey: XMOCLSLCDHWDHP-DOMZBBRYSA-N
Instrument_type: LC-ESI-TOF
Instrument: impact HD
Ion_mode: N
Formula: C15H14O7
MW: 306
ExactMass: 306.073952788
Comments: "cas number=3371-27-5" "SMILES=C1[C@H]([C@@H](OC2=CC(=CC(=C21)O)O)C3=CC(=C(C(=C3)O)O)O)O" "InChI=InChI=1S/C15H14O7/c16-7-3-9(17)8-5-12(20)15(22-13(8)4-7)6-1-10(18)14(21)11(19)2-6/h1-4,12,15-21H,5H2/t12-,15+/m1/s1" "computed SMILES=OC=1C=C(O)C2=C(OC(C3=CC(O)=C(O)C(O)=C3)C(O)C2)C1" "computed InChI=InChI=1S/C15H14O7/c16-7-3-9(17)8-5-12(20)15(22-13(8)4-7)6-1-10(18)14(21)11(19)2-6/h1-4,12,15-21H,5H2/t12-,15+/m0/s1" "license=License CC-BY-NC-SA 4.0 International" "author=Plant Biology, The Noble Foundation, Ardmore, OK, US/Dennis Fine, Daniel Wherritt, and Lloyd Sumner" "ionization=ESI" "collision gas=Nitrogen" "peak width=0.015" "date=2014-08-19 19:55:39+02:00" "column=Waters Acquity BEH C18 1.7um x 2.1 x 150 mm" "retention time=67.8" "raw data file=C:\Data\Confirmed standards 19_Aug_2014\Gallocatechin vial 370_1-E,2_01_656.d" "SPLASH=splash10-0a4i-0009003000-3d7ef0f8ac2fcb86dd95" "submitter=Aiko Barsch (Bruker)" "MoNA Rating=3.888888888888889"
Num Peaks: 20
259.0617 3.403403
261.0771 2.402402
275.0566 3.303303
285.0407 2.802803
303.0527 35.435435
304.0568 9.209209
305.0684 100.000000
306.0729 25.825826
307.0758 4.204204
607.1123 3.403403
608.1160 2.002002
609.1272 5.805806
610.1317 3.203203
611.1436 28.328328
612.1484 15.715716
613.1513 5.305305
614.1553 1.401401
913.1859 1.201201
914.1882 1.101101
915.1992 1.201201


Name: Gallocatechin
Synon: $:00in-source
DB#: MetaboBASE0906
InChIKey: XMOCLSLCDHWDHP-DOMZBBRYSA-N
Precursor_type: [M-H]-
Spectrum_type: MS2
PrecursorMZ: 305.0686
Instrument_type: LC-ESI-TOF
Instrument: impact HD
Ion_mode: N
Collision_energy: 10
Formula: C15H14O7
MW: 306
ExactMass: 306.073952788
Comments: "cas number=3371-27-5" "SMILES=C1[C@H]([C@@H](OC2=CC(=CC(=C21)O)O)C3=CC(=C(C(=C3)O)O)O)O" "InChI=InChI=1S/C15H14O7/c16-7-3-9(17)8-5-12(20)15(22-13(8)4-7)6-1-10(18)14(21)11(19)2-6/h1-4,12,15-21H,5H2/t12-,15+/m1/s1" "computed SMILES=OC=1C=C(O)C2=C(OC(C3=CC(O)=C(O)C(O)=C3)C(O)C2)C1" "computed InChI=InChI=1S/C15H14O7/c16-7-3-9(17)8-5-12(20)15(22-13(8)4-7)6-1-10(18)14(21)11(19)2-6/h1-4,12,15-21H,5H2/t12-,15+/m0/s1" "license=License CC-BY-NC-SA 4.0 International" "author=Plant Biology, The Noble Foundation, Ardmore, OK, US/Dennis Fine, Daniel Wherritt, and Lloyd Sumner" "ionization=ESI" "isolation width=5" "collision gas=Nitrogen" "peak width=0.018" "date=2014-08-19 19:55:39+02:00" "column=Waters Acquity BEH C18 1.7um x 2.1 x 150 mm" "retention time=67.8" "raw data file=C:\Data\Confirmed standards 19_Aug_2014\Gallocatechin vial 370_1-E,2_01_656.d" "computed mass accuracy=6.304195187601523" "computed mass error=0.0019232120000083341" "SPLASH=splash10-0a4i-0019000000-83d961b9674b7b1b2a65" "submitter=Aiko Barsch (Bruker)" "MoNA Rating=4.545454545454546"
Num Peaks: 22
125.0246 4.404404
137.0247 2.802803
165.0195 3.403403
179.0348 2.702703
219.0659 1.801802
221.0456 1.501502
235.0611 1.701702
241.0513 1.301301
257.0461 1.601602
259.0616 2.402402
261.0770 4.304304
262.0812 1.101101
274.0488 1.001001
275.0564 5.305305
276.0612 2.002002
285.0409 4.104104
286.0456 1.501502
303.0520 14.114114
304.0560 5.805806
305.0686 100.000000
306.0728 27.427427
307.0752 2.402402


Name: Gallocatechin
Synon: $:00in-source
DB#: MetaboBASE0907
InChIKey: XMOCLSLCDHWDHP-DOMZBBRYSA-N
Precursor_type: [M-H]-
Spectrum_type: MS2
PrecursorMZ: 305.0674
Instrument_type: LC-ESI-TOF
Instrument: impact HD
Ion_mode: N
Collision_energy: 20
Formula: C15H14O7
MW: 306
ExactMass: 306.073952788
Comments: "cas number=3371-27-5" "SMILES=C1[C@H]([C@@H](OC2=CC(=CC(=C21)O)O)C3=CC(=C(C(=C3)O)O)O)O" "InChI=InChI=1S/C15H14O7/c16-7-3-9(17)8-5-12(20)15(22-13(8)4-7)6-1-10(18)14(21)11(19)2-6/h1-4,12,15-21H,5H2/t12-,15+/m1/s1" "computed SMILES=OC=1C=C(O)C2=C(OC(C3=CC(O)=C(O)C(O)=C3)C(O)C2)C1" "computed InChI=InChI=1S/C15H14O7/c16-7-3-9(17)8-5-12(20)15(22-13(8)4-7)6-1-10(18)14(21)11(19)2-6/h1-4,12,15-21H,5H2/t12-,15+/m0/s1" "license=License CC-BY-NC-SA 4.0 International" "author=Plant Biology, The Noble Foundation, Ardmore, OK, US/Dennis Fine, Daniel Wherritt, and Lloyd Sumner" "ionization=ESI" "isolation width=5" "collision gas=Nitrogen" "peak width=0.018" "date=2014-08-19 19:55:39+02:00" "column=Waters Acquity BEH C18 1.7um x 2.1 x 150 mm" "retention time=67.8" "raw data file=C:\Data\Confirmed standards 19_Aug_2014\Gallocatechin vial 370_1-E,2_01_656.d" "computed mass accuracy=2.3706630076676225" "computed mass error=7.232120000253417E-4" "SPLASH=splash10-00p0-0941000000-47f58a4dd33c3125d051" "submitter=Aiko Barsch (Bruker)" "MoNA Rating=4.583333333333334"
Num Peaks: 102
109.0295 9.409409
110.0347 1.001001
111.0452 3.203203
121.0294 2.502503
123.0087 3.503504
123.0452 1.301301
124.0156 2.502503
125.0250 100.000000
126.0292 10.210210
135.0462 1.601602
137.0249 51.851852
138.0299 8.208208
139.0403 22.222222
140.0448 2.702703
147.0474 1.001001
149.0248 3.703704
150.0321 2.102102
151.0394 4.404404
153.0182 1.201201
159.0447 1.501502
161.0240 2.802803
162.0293 1.001001
163.0398 2.102102
164.0107 6.106106
165.0198 39.239239
166.0244 7.007007
167.0351 28.928929
168.0398 3.503504
173.0617 1.401401
175.0399 4.404404
175.0778 1.401401
176.0457 1.101101
177.0193 7.207207
177.0553 5.905906
178.0250 2.702703
178.0609 1.001001
179.0353 23.623624
180.0387 4.704705
181.0507 1.701702
185.0611 1.301301
189.0562 3.003003
191.0351 3.703704
191.0717 2.802803
193.0512 2.502503
199.0405 1.901902
200.0473 1.001001
201.0546 2.402402
203.0352 4.904905
204.0423 4.504505
205.0491 2.002002
207.0659 4.004004
208.0709 1.201201
213.0559 1.701702
215.0359 1.101101
215.0709 1.301301
217.0508 6.206206
218.0564 3.503504
219.0298 1.401401
219.0668 24.324324
220.0708 5.905906
221.0461 16.116116
222.0505 3.703704
228.0420 1.101101
229.0509 2.002002
230.0582 1.101101
231.0666 3.303303
232.0719 1.001001
233.0465 3.203203
233.0808 2.202202
234.0484 1.201201
235.0617 4.604605
236.0649 1.701702
237.0769 7.007007
238.0807 1.801802
239.0347 1.001001
241.0508 3.503504
242.0228 1.101101
242.0551 1.101101
243.0298 2.002002
243.0654 4.504505
244.0713 1.501502
245.0458 1.901902
247.0242 1.701702
257.0457 6.706707
258.0511 2.202202
259.0261 1.101101
259.0594 2.102102
261.0411 1.101101
261.0773 14.514515
262.0811 4.004004
263.0566 2.502503
274.0490 7.607608
275.0562 8.208208
276.0612 2.102102
285.0411 4.504505
286.0447 1.601602
287.0557 2.102102
288.0619 1.001001
303.0506 2.402402
304.0565 1.301301
305.0674 38.938939
306.0711 11.611612


Name: Heptadecanoic acid
Synon: $:00in-source
DB#: MetaboBASE0908
InChIKey: KEMQGTRYUADPNZ-UHFFFAOYSA-N
Precursor_type: [M-H]-
Spectrum_type: MS2
PrecursorMZ: 269.2493
Instrument_type: LC-ESI-TOF
Instrument: impact HD
Ion_mode: N
Collision_energy: 20
Formula: C17H34O2
MW: 270
ExactMass: 270.255880328
Comments: "cas number=506-12-7" "SMILES=CCCCCCCCCCCCCCCCC(=O)O" "InChI=InChI=1S/C17H34O2/c1-2-3-4-5-6-7-8-9-10-11-12-13-14-15-16-17(18)19/h2-16H2,1H3,(H,18,19)" "computed SMILES=O=C(O)CCCCCCCCCCCCCCCC" "license=License CC-BY-NC-SA 4.0 International" "author=Plant Biology, The Noble Foundation, Ardmore, OK, US/Dennis Fine, Daniel Wherritt, and Lloyd Sumner" "ionization=ESI" "isolation width=5" "collision gas=Nitrogen" "peak width=0.012" "date=2014-08-20 04:19:05+02:00" "column=Waters Acquity BEH C18 1.7um x 2.1 x 150 mm" "retention time=1935.6" "raw data file=C:\Data\Confirmed standards 19_Aug_2014\Heptadecanoic acid v164 MSMS_1-C,2_01_668.d" "computed mass accuracy=2.5837467358548296" "computed mass error=6.956720000061978E-4" "SPLASH=splash10-014i-0090000000-233b71c471008bbed61b" "submitter=Aiko Barsch (Bruker)" "MoNA Rating=4.583333333333334"
Num Peaks: 4
251.2378 0.300300
269.2493 100.000000
270.2522 13.713714
271.2540 0.700701


Name: Heptadecanoic acid
Synon: $:00in-source
DB#: MetaboBASE0909
InChIKey: KEMQGTRYUADPNZ-UHFFFAOYSA-N
Precursor_type: [M-H]-
Spectrum_type: MS2
PrecursorMZ: 269.2484
Instrument_type: LC-ESI-TOF
Instrument: impact HD
Ion_mode: N
Collision_energy: 30
Formula: C17H34O2
MW: 270
ExactMass: 270.255880328
Comments: "cas number=506-12-7" "SMILES=CCCCCCCCCCCCCCCCC(=O)O" "InChI=InChI=1S/C17H34O2/c1-2-3-4-5-6-7-8-9-10-11-12-13-14-15-16-17(18)19/h2-16H2,1H3,(H,18,19)" "computed SMILES=O=C(O)CCCCCCCCCCCCCCCC" "license=License CC-BY-NC-SA 4.0 International" "author=Plant Biology, The Noble Foundation, Ardmore, OK, US/Dennis Fine, Daniel Wherritt, and Lloyd Sumner" "ionization=ESI" "isolation width=5" "collision gas=Nitrogen" "peak width=0.017" "date=2014-08-20 04:19:05+02:00" "column=Waters Acquity BEH C18 1.7um x 2.1 x 150 mm" "retention time=1935.6" "raw data file=C:\Data\Confirmed standards 19_Aug_2014\Heptadecanoic acid v164 MSMS_1-C,2_01_668.d" "computed mass accuracy=0.7588828754237997" "computed mass error=-2.0432799999525741E-4" "SPLASH=splash10-014i-0090000000-94bee87e459e47f84a4d" "submitter=Aiko Barsch (Bruker)" "MoNA Rating=4.615384615384616"
Num Peaks: 4
251.2398 5.205205
269.2484 100.000000
270.2506 16.416416
271.2502 1.101101


Name: Heptadecanoic acid
Synon: $:00in-source
DB#: MetaboBASE0910
InChIKey: KEMQGTRYUADPNZ-UHFFFAOYSA-N
Instrument_type: LC-ESI-TOF
Instrument: impact HD
Ion_mode: N
Formula: C17H34O2
MW: 270
ExactMass: 270.255880328
Comments: "cas number=506-12-7" "SMILES=CCCCCCCCCCCCCCCCC(=O)O" "InChI=InChI=1S/C17H34O2/c1-2-3-4-5-6-7-8-9-10-11-12-13-14-15-16-17(18)19/h2-16H2,1H3,(H,18,19)" "computed SMILES=O=C(O)CCCCCCCCCCCCCCCC" "license=License CC-BY-NC-SA 4.0 International" "author=Plant Biology, The Noble Foundation, Ardmore, OK, US/Dennis Fine, Daniel Wherritt, and Lloyd Sumner" "ionization=ESI" "collision gas=Nitrogen" "peak width=0.018" "date=2014-08-20 04:19:05+02:00" "column=Waters Acquity BEH C18 1.7um x 2.1 x 150 mm" "retention time=1935.6" "raw data file=C:\Data\Confirmed standards 19_Aug_2014\Heptadecanoic acid v164 MSMS_1-C,2_01_668.d" "SPLASH=splash10-014i-0090000000-1e57778151b8b2a05362" "submitter=Aiko Barsch (Bruker)" "MoNA Rating=3.888888888888889"
Num Peaks: 17
128.0097 0.700701
248.9737 0.200200
269.2495 100.000000
269.7682 0.600601
270.2525 15.615616
271.2553 1.701702
279.0094 1.701702
337.2353 0.600601
367.1790 0.300300
368.9784 0.200200
369.1742 5.305305
370.1762 1.501502
371.1766 0.400400
420.2474 0.500501
430.0095 2.902903
431.0108 0.400400
431.1935 0.300300


Name: Heptadecanoic acid
Synon: $:00in-source
DB#: MetaboBASE0911
InChIKey: KEMQGTRYUADPNZ-UHFFFAOYSA-N
Precursor_type: [M-H]-
Spectrum_type: MS2
PrecursorMZ: 269.2496
Instrument_type: LC-ESI-TOF
Instrument: impact HD
Ion_mode: N
Collision_energy: 10
Formula: C17H34O2
MW: 270
ExactMass: 270.255880328
Comments: "cas number=506-12-7" "SMILES=CCCCCCCCCCCCCCCCC(=O)O" "InChI=InChI=1S/C17H34O2/c1-2-3-4-5-6-7-8-9-10-11-12-13-14-15-16-17(18)19/h2-16H2,1H3,(H,18,19)" "computed SMILES=O=C(O)CCCCCCCCCCCCCCCC" "license=License CC-BY-NC-SA 4.0 International" "author=Plant Biology, The Noble Foundation, Ardmore, OK, US/Dennis Fine, Daniel Wherritt, and Lloyd Sumner" "ionization=ESI" "isolation width=5" "collision gas=Nitrogen" "peak width=0.011" "date=2014-08-20 04:19:05+02:00" "column=Waters Acquity BEH C18 1.7um x 2.1 x 150 mm" "retention time=1935.6" "raw data file=C:\Data\Confirmed standards 19_Aug_2014\Heptadecanoic acid v164 MSMS_1-C,2_01_668.d" "computed mass accuracy=3.6979516403654267" "computed mass error=9.95671999987735E-4" "SPLASH=splash10-014i-0090000000-433ed2666c0e94078147" "submitter=Aiko Barsch (Bruker)" "MoNA Rating=4.583333333333334"
Num Peaks: 4
269.2496 100.000000
269.7685 0.400400
270.2526 13.013013
271.2554 0.700701


Name: Heptadecanoic acid
Synon: $:00in-source
DB#: MetaboBASE0912
InChIKey: KEMQGTRYUADPNZ-UHFFFAOYSA-N
Precursor_type: [M-H]-
Spectrum_type: MS2
PrecursorMZ: 269.25
Instrument_type: LC-ESI-TOF
Instrument: impact HD
Ion_mode: N
Collision_energy: 40
Formula: C17H34O2
MW: 270
ExactMass: 270.255880328
Comments: "cas number=506-12-7" "SMILES=CCCCCCCCCCCCCCCCC(=O)O" "InChI=InChI=1S/C17H34O2/c1-2-3-4-5-6-7-8-9-10-11-12-13-14-15-16-17(18)19/h2-16H2,1H3,(H,18,19)" "computed SMILES=O=C(O)CCCCCCCCCCCCCCCC" "license=License CC-BY-NC-SA 4.0 International" "author=Plant Biology, The Noble Foundation, Ardmore, OK, US/Dennis Fine, Daniel Wherritt, and Lloyd Sumner" "ionization=ESI" "isolation width=5" "collision gas=Nitrogen" "peak width=0.015" "date=2014-08-20 04:19:05+02:00" "column=Waters Acquity BEH C18 1.7um x 2.1 x 150 mm" "retention time=1935.6" "raw data file=C:\Data\Confirmed standards 19_Aug_2014\Heptadecanoic acid v164 MSMS_1-C,2_01_668.d" "computed mass accuracy=5.183554317552511" "computed mass error=0.0013956720000010137" "SPLASH=splash10-014i-0900000000-1e14b3fcd14dfdf48cbd" "submitter=Aiko Barsch (Bruker)" "MoNA Rating=3.846153846153846"
Num Peaks: 1
116.9293 100.000000


Name: Tricosanoic acid
Synon: $:00in-source
DB#: MetaboBASE0913
InChIKey: XEZVDURJDFGERA-UHFFFAOYSA-N
Precursor_type: [M-H]-
Spectrum_type: MS2
PrecursorMZ: 353.35
Instrument_type: LC-ESI-TOF
Instrument: impact HD
Ion_mode: N
Collision_energy: 40
Formula: C23H46O2
MW: 354
ExactMass: 354.349780712
Comments: "cas number=2433-96-7" "SMILES=CCCCCCCCCCCCCCCCCCCCCCC(=O)O" "InChI=InChI=1S/C23H46O2/c1-2-3-4-5-6-7-8-9-10-11-12-13-14-15-16-17-18-19-20-21-22-23(24)25/h2-22H2,1H3,(H,24,25)" "computed SMILES=O=C(O)CCCCCCCCCCCCCCCCCCCCCC" "license=License CC-BY-NC-SA 4.0 International" "author=Plant Biology, The Noble Foundation, Ardmore, OK, US/Dennis Fine, Daniel Wherritt, and Lloyd Sumner" "ionization=ESI" "isolation width=5" "collision gas=Nitrogen" "peak width=0.018" "date=2014-08-20 04:59:53+02:00" "column=Waters Acquity BEH C18 1.7um x 2.1 x 150 mm" "retention time=2086.2" "raw data file=C:\Data\Confirmed standards 19_Aug_2014\Tricosanoic acid v219 MSMS_1-D,4_01_669.d" "computed mass accuracy=21.21207867561803" "computed mass error=0.007495288000029632" "SPLASH=splash10-05fr-0590000000-455d8ab1313a61d90f8c" "submitter=Aiko Barsch (Bruker)" "MoNA Rating=3.846153846153846"
Num Peaks: 2
106.9860 60.260260
223.1554 100.000000


Name: Tricosanoic acid
Synon: $:00in-source
DB#: MetaboBASE0914
InChIKey: XEZVDURJDFGERA-UHFFFAOYSA-N
Precursor_type: [M-H]-
Spectrum_type: MS2
PrecursorMZ: 353.3415
Instrument_type: LC-ESI-TOF
Instrument: impact HD
Ion_mode: N
Collision_energy: 30
Formula: C23H46O2
MW: 354
ExactMass: 354.349780712
Comments: "cas number=2433-96-7" "SMILES=CCCCCCCCCCCCCCCCCCCCCCC(=O)O" "InChI=InChI=1S/C23H46O2/c1-2-3-4-5-6-7-8-9-10-11-12-13-14-15-16-17-18-19-20-21-22-23(24)25/h2-22H2,1H3,(H,24,25)" "computed SMILES=O=C(O)CCCCCCCCCCCCCCCCCCCCCC" "license=License CC-BY-NC-SA 4.0 International" "author=Plant Biology, The Noble Foundation, Ardmore, OK, US/Dennis Fine, Daniel Wherritt, and Lloyd Sumner" "ionization=ESI" "isolation width=5" "collision gas=Nitrogen" "peak width=0.019" "date=2014-08-20 04:59:53+02:00" "column=Waters Acquity BEH C18 1.7um x 2.1 x 150 mm" "retention time=2086.2" "raw data file=C:\Data\Confirmed standards 19_Aug_2014\Tricosanoic acid v219 MSMS_1-D,4_01_669.d" "computed mass accuracy=2.843458806839116" "computed mass error=-0.0010047119999967435" "SPLASH=splash10-0udi-0009000000-6cab4a327eae32b5f787" "submitter=Aiko Barsch (Bruker)" "MoNA Rating=4.583333333333334"
Num Peaks: 3
217.9791 5.305305
353.3415 100.000000
354.3441 28.228228


Name: Tricosanoic acid
Synon: $:00in-source
DB#: MetaboBASE0915
InChIKey: XEZVDURJDFGERA-UHFFFAOYSA-N
Precursor_type: [M-H]-
Spectrum_type: MS2
PrecursorMZ: 353.3427
Instrument_type: LC-ESI-TOF
Instrument: impact HD
Ion_mode: N
Collision_energy: 10
Formula: C23H46O2
MW: 354
ExactMass: 354.349780712
Comments: "cas number=2433-96-7" "SMILES=CCCCCCCCCCCCCCCCCCCCCCC(=O)O" "InChI=InChI=1S/C23H46O2/c1-2-3-4-5-6-7-8-9-10-11-12-13-14-15-16-17-18-19-20-21-22-23(24)25/h2-22H2,1H3,(H,24,25)" "computed SMILES=O=C(O)CCCCCCCCCCCCCCCCCCCCCC" "license=License CC-BY-NC-SA 4.0 International" "author=Plant Biology, The Noble Foundation, Ardmore, OK, US/Dennis Fine, Daniel Wherritt, and Lloyd Sumner" "ionization=ESI" "isolation width=5" "collision gas=Nitrogen" "peak width=0.016" "date=2014-08-20 04:59:53+02:00" "column=Waters Acquity BEH C18 1.7um x 2.1 x 150 mm" "retention time=2086.2" "raw data file=C:\Data\Confirmed standards 19_Aug_2014\Tricosanoic acid v219 MSMS_1-D,4_01_669.d" "computed mass accuracy=0.552687235327768" "computed mass error=1.952879999862489E-4" "SPLASH=splash10-0udi-0029000000-37d069e8e40dc2126055" "submitter=Aiko Barsch (Bruker)" "MoNA Rating=4.615384615384616"
Num Peaks: 3
285.9662 27.427427
353.3427 100.000000
354.3457 22.522523


Name: Tricosanoic acid
Synon: $:00in-source
DB#: MetaboBASE0916
InChIKey: XEZVDURJDFGERA-UHFFFAOYSA-N
Precursor_type: [M-H]-
Spectrum_type: MS2
PrecursorMZ: 353.3424
Instrument_type: LC-ESI-TOF
Instrument: impact HD
Ion_mode: N
Collision_energy: 20
Formula: C23H46O2
MW: 354
ExactMass: 354.349780712
Comments: "cas number=2433-96-7" "SMILES=CCCCCCCCCCCCCCCCCCCCCCC(=O)O" "InChI=InChI=1S/C23H46O2/c1-2-3-4-5-6-7-8-9-10-11-12-13-14-15-16-17-18-19-20-21-22-23(24)25/h2-22H2,1H3,(H,24,25)" "computed SMILES=O=C(O)CCCCCCCCCCCCCCCCCCCCCC" "license=License CC-BY-NC-SA 4.0 International" "author=Plant Biology, The Noble Foundation, Ardmore, OK, US/Dennis Fine, Daniel Wherritt, and Lloyd Sumner" "ionization=ESI" "isolation width=5" "collision gas=Nitrogen" "peak width=0.017" "date=2014-08-20 04:59:53+02:00" "column=Waters Acquity BEH C18 1.7um x 2.1 x 150 mm" "retention time=2086.2" "raw data file=C:\Data\Confirmed standards 19_Aug_2014\Tricosanoic acid v219 MSMS_1-D,4_01_669.d" "computed mass accuracy=0.2963471125890591" "computed mass error=-1.0471199999528835E-4" "SPLASH=splash10-0udi-0009000000-32d4687abf7d5b474472" "submitter=Aiko Barsch (Bruker)" "MoNA Rating=4.615384615384616"
Num Peaks: 4
217.9786 6.006006
285.9668 2.402402
353.3424 100.000000
354.3451 24.124124


Name: Tricosanoic acid
Synon: $:00in-source
DB#: MetaboBASE0917
InChIKey: XEZVDURJDFGERA-UHFFFAOYSA-N
Instrument_type: LC-ESI-TOF
Instrument: impact HD
Ion_mode: N
Formula: C23H46O2
MW: 354
ExactMass: 354.349780712
Comments: "cas number=2433-96-7" "SMILES=CCCCCCCCCCCCCCCCCCCCCCC(=O)O" "InChI=InChI=1S/C23H46O2/c1-2-3-4-5-6-7-8-9-10-11-12-13-14-15-16-17-18-19-20-21-22-23(24)25/h2-22H2,1H3,(H,24,25)" "computed SMILES=O=C(O)CCCCCCCCCCCCCCCCCCCCCC" "license=License CC-BY-NC-SA 4.0 International" "author=Plant Biology, The Noble Foundation, Ardmore, OK, US/Dennis Fine, Daniel Wherritt, and Lloyd Sumner" "ionization=ESI" "collision gas=Nitrogen" "peak width=0.016" "date=2014-08-20 04:59:53+02:00" "column=Waters Acquity BEH C18 1.7um x 2.1 x 150 mm" "retention time=2086.2" "raw data file=C:\Data\Confirmed standards 19_Aug_2014\Tricosanoic acid v219 MSMS_1-D,4_01_669.d" "SPLASH=splash10-0udi-0009000000-0756d3aa19109128f075" "submitter=Aiko Barsch (Bruker)" "MoNA Rating=3.888888888888889"
Num Peaks: 4
353.3432 100.000000
354.3459 22.822823
655.3403 5.105105
730.6780 9.009009


Name: 2,3-Trans-3,4-trans-Leucocyanidin
Synon: $:00in-source
DB#: MetaboBASE0918
InChIKey: SBZWTSHAFILOTE-UHFFFAOYSA-N
Spectrum_type: MS2
PrecursorMZ: 303.05
Instrument_type: LC-ESI-TOF
Instrument: impact HD
Ion_mode: N
Collision_energy: 20
Formula: C15H14O7
MW: 306
ExactMass: 306.073952788
Comments: "cas number=480-17-1" "SMILES=c1cc(c(cc1C2C(C(c3c(cc(cc3O2)O)O)O)O)O)O" "InChI=InChI=1S/C15H14O7/c16-7-4-10(19)12-11(5-7)22-15(14(21)13(12)20)6-1-2-8(17)9(18)3-6/h1-5,13-21H" "computed SMILES=OC=1C=C(O)C2=C(OC(C3=CC=C(O)C(O)=C3)C(O)C2O)C1" "synonym=Trans,trans-Leucocyanidin" "license=License CC-BY-NC-SA 4.0 International" "author=Plant Biology, The Noble Foundation, Ardmore, OK, US/Dennis Fine, Daniel Wherritt, and Lloyd Sumner" "ionization=ESI" "isolation width=5" "collision gas=Nitrogen" "peak width=0.017" "date=2014-08-22 01:17:25+02:00" "column=Waters Acquity BEH C18 1.7um x 2.1 x 150 mm" "retention time=115.2" "raw data file=C:\Data\Confirmed standards 21_Aug_2014\trans,trans-Leucocyanidin v378_1-F,2_01_684.d" "SPLASH=splash10-004r-0950000000-538e24b231bc36c09f48" "submitter=Aiko Barsch (Bruker)" "MoNA Rating=3.125"
Num Peaks: 20
121.0290 8.608609
125.0251 100.000000
126.0296 22.322322
137.0249 40.340340
151.0025 14.214214
152.0101 9.109109
153.0188 35.535536
154.0257 8.408408
175.0379 13.213213
213.0548 7.207207
217.0514 9.809810
229.0501 11.211211
232.0726 6.706707
241.0499 16.316316
243.0296 7.507508
245.0462 13.813814
257.0466 20.820821
258.0523 13.313313
285.0416 34.534535
286.0474 8.108108


Name: 2,3-Trans-3,4-trans-Leucocyanidin
Synon: $:00in-source
DB#: MetaboBASE0919
InChIKey: SBZWTSHAFILOTE-UHFFFAOYSA-N
Spectrum_type: MS2
PrecursorMZ: 303.05
Instrument_type: LC-ESI-TOF
Instrument: impact HD
Ion_mode: N
Collision_energy: 30
Formula: C15H14O7
MW: 306
ExactMass: 306.073952788
Comments: "cas number=480-17-1" "SMILES=c1cc(c(cc1C2C(C(c3c(cc(cc3O2)O)O)O)O)O)O" "InChI=InChI=1S/C15H14O7/c16-7-4-10(19)12-11(5-7)22-15(14(21)13(12)20)6-1-2-8(17)9(18)3-6/h1-5,13-21H" "computed SMILES=OC=1C=C(O)C2=C(OC(C3=CC=C(O)C(O)=C3)C(O)C2O)C1" "synonym=Trans,trans-Leucocyanidin" "license=License CC-BY-NC-SA 4.0 International" "author=Plant Biology, The Noble Foundation, Ardmore, OK, US/Dennis Fine, Daniel Wherritt, and Lloyd Sumner" "ionization=ESI" "isolation width=5" "collision gas=Nitrogen" "peak width=0.019" "date=2014-08-22 01:17:25+02:00" "column=Waters Acquity BEH C18 1.7um x 2.1 x 150 mm" "retention time=115.2" "raw data file=C:\Data\Confirmed standards 21_Aug_2014\trans,trans-Leucocyanidin v378_1-F,2_01_684.d" "SPLASH=splash10-004i-0900000000-797dae0ccbdefbfd105b" "submitter=Aiko Barsch (Bruker)" "MoNA Rating=3.125"
Num Peaks: 14
109.0293 27.027027
121.0300 28.528529
123.0449 14.814815
125.0240 100.000000
126.0308 23.423423
137.0248 64.564565
149.0227 13.313313
151.0018 18.418418
152.0119 15.015015
153.0190 43.843844
174.0303 19.619620
175.0391 15.415415
188.0484 14.414414
229.0523 19.819820


Name: 2,3-Trans-3,4-trans-Leucocyanidin
Synon: $:00in-source
DB#: MetaboBASE0920
InChIKey: SBZWTSHAFILOTE-UHFFFAOYSA-N
Spectrum_type: MS2
PrecursorMZ: 303.0515
Instrument_type: LC-ESI-TOF
Instrument: impact HD
Ion_mode: N
Collision_energy: 10
Formula: C15H14O7
MW: 306
ExactMass: 306.073952788
Comments: "cas number=480-17-1" "SMILES=c1cc(c(cc1C2C(C(c3c(cc(cc3O2)O)O)O)O)O)O" "InChI=InChI=1S/C15H14O7/c16-7-4-10(19)12-11(5-7)22-15(14(21)13(12)20)6-1-2-8(17)9(18)3-6/h1-5,13-21H" "computed SMILES=OC=1C=C(O)C2=C(OC(C3=CC=C(O)C(O)=C3)C(O)C2O)C1" "synonym=Trans,trans-Leucocyanidin" "license=License CC-BY-NC-SA 4.0 International" "author=Plant Biology, The Noble Foundation, Ardmore, OK, US/Dennis Fine, Daniel Wherritt, and Lloyd Sumner" "ionization=ESI" "isolation width=5" "collision gas=Nitrogen" "peak width=0.018" "date=2014-08-22 01:17:25+02:00" "column=Waters Acquity BEH C18 1.7um x 2.1 x 150 mm" "retention time=115.2" "raw data file=C:\Data\Confirmed standards 21_Aug_2014\trans,trans-Leucocyanidin v378_1-F,2_01_684.d" "SPLASH=splash10-004r-0591000000-e96e5118c1fd0f849dad" "submitter=Aiko Barsch (Bruker)" "MoNA Rating=3.125"
Num Peaks: 25
125.0252 100.000000
126.0299 16.016016
137.0226 16.416416
149.0242 4.804805
153.0190 19.219219
165.0194 9.209209
177.0194 10.910911
217.0505 8.308308
231.0654 7.907908
241.0514 17.817818
242.0545 6.706707
243.0291 5.705706
245.0456 34.434434
246.0544 8.708709
257.0460 18.218218
258.0503 5.905906
259.0616 10.210210
275.0559 41.441441
276.0610 22.822823
285.0403 68.768769
286.0444 36.636637
301.0357 4.904905
303.0515 31.731732
304.0557 13.913914
305.0700 5.505506


Name: 2,3-Trans-3,4-trans-Leucocyanidin
Synon: $:00in-source
DB#: MetaboBASE0921
InChIKey: SBZWTSHAFILOTE-UHFFFAOYSA-N
Instrument_type: LC-ESI-TOF
Instrument: impact HD
Ion_mode: N
Collision_energy: 10
Formula: C15H14O7
MW: 306
ExactMass: 306.073952788
Comments: "cas number=480-17-1" "SMILES=c1cc(c(cc1C2C(C(c3c(cc(cc3O2)O)O)O)O)O)O" "InChI=InChI=1S/C15H14O7/c16-7-4-10(19)12-11(5-7)22-15(14(21)13(12)20)6-1-2-8(17)9(18)3-6/h1-5,13-21H" "computed SMILES=OC=1C=C(O)C2=C(OC(C3=CC=C(O)C(O)=C3)C(O)C2O)C1" "synonym=Trans,trans-Leucocyanidin" "license=License CC-BY-NC-SA 4.0 International" "author=Plant Biology, The Noble Foundation, Ardmore, OK, US/Dennis Fine, Daniel Wherritt, and Lloyd Sumner" "ionization=ESI" "collision gas=Nitrogen" "peak width=0.018" "date=2014-08-20 01:35:45+02:00" "column=Waters Acquity BEH C18 1.7um x 2.1 x 150 mm" "retention time=115.2" "raw data file=C:\Data\Confirmed standards 19_Aug_2014\trans,trans-Leucocyanidin v378_1-F,2_01_664.d" "SPLASH=splash10-0ufr-0696101000-edfdbd9489a088bbb600" "submitter=Aiko Barsch (Bruker)" "MoNA Rating=4.444444444444445"
Num Peaks: 66
116.9281 2.102102
123.0436 1.901902
125.0241 41.741742
126.0295 10.810811
137.0243 9.309309
149.0237 1.301301
151.0031 16.216216
151.0397 5.805806
152.0091 4.004004
153.0190 78.878879
154.0248 22.822823
155.0282 2.002002
163.0029 2.302302
165.0188 9.009009
166.0240 1.301301
177.0190 8.708709
178.9982 1.401401
181.0141 0.600601
217.0497 6.506507
221.0069 0.600601
231.0661 2.202202
236.9708 3.503504
241.0496 11.711712
242.0552 2.802803
243.0282 3.703704
245.0444 12.412412
246.0497 2.802803
257.0446 27.227227
258.0497 9.109109
259.0597 11.411411
260.0651 2.802803
275.0555 66.966967
276.0604 26.126126
277.0654 5.105105
285.0396 76.276276
286.0446 27.327327
287.0505 7.707708
301.0346 7.907908
302.0410 0.600601
303.0503 100.000000
304.0553 37.137137
305.0646 24.324324
306.0710 7.107107
309.0369 6.106106
319.0447 4.404404
325.0328 0.700701
327.0462 6.506507
357.9770 4.604605
371.0071 8.808809
372.0096 1.201201
387.0022 4.104104
388.0021 0.700701
389.0160 0.800801
404.9892 0.700701
447.9724 4.804805
449.9874 15.215215
450.9933 7.207207
481.0730 4.704705
482.0771 0.700701
499.9676 2.002002
607.1111 6.606607
608.1119 5.305305
609.1207 10.110110
610.1265 6.306306
611.1378 9.609610
612.1434 6.106106


Name: 2,3-Trans-3,4-cis-Leucocyanidin
Synon: $:00in-source
DB#: MetaboBASE0922
InChIKey: SBZWTSHAFILOTE-SOUVJXGZSA-N
Instrument_type: LC-ESI-TOF
Instrument: impact HD
Ion_mode: N
Collision_energy: 10
Formula: C15H14O7
MW: 306
ExactMass: 306.073952788
Comments: "cas number=93527-39-0" "SMILES=c1cc(c(cc1[C@@H]2[C@H]([C@H](c3c(cc(cc3O2)O)O)O)O)O)O" "InChI=InChI=1S/C15H14O7/c16-7-4-10(19)12-11(5-7)22-15(14(21)13(12)20)6-1-2-8(17)9(18)3-6/h1-5,13-21H/t13-,14-,15+/m0/s1" "computed SMILES=OC=1C=C(O)C2=C(OC(C3=CC=C(O)C(O)=C3)C(O)C2O)C1" "computed InChI=InChI=1S/C15H14O7/c16-7-4-10(19)12-11(5-7)22-15(14(21)13(12)20)6-1-2-8(17)9(18)3-6/h1-5,13-21H" "license=License CC-BY-NC-SA 4.0 International" "author=Plant Biology, The Noble Foundation, Ardmore, OK, US/Dennis Fine, Daniel Wherritt, and Lloyd Sumner" "ionization=ESI" "collision gas=Nitrogen" "peak width=0.018" "date=2014-08-20 00:54:56+02:00" "column=Waters Acquity BEH C18 1.7um x 2.1 x 150 mm" "retention time=85.8" "raw data file=C:\Data\Confirmed standards 19_Aug_2014\trans,cis-Leucocyanidin v377_1-F,1_01_663.d" "SPLASH=splash10-0udi-0009000000-003cf3d9205115931541" "submitter=Aiko Barsch (Bruker)" "MoNA Rating=4.444444444444445"
Num Peaks: 10
289.0339 0.300300
290.0376 0.100100
301.0331 0.200200
303.0509 100.000000
304.0559 45.545546
305.0642 27.627628
306.0712 9.809810
307.0777 0.100100
309.0372 3.003003
310.0431 0.600601


Name: 2,3-Trans-3,4-cis-Leucocyanidin
Synon: $:00in-source
DB#: MetaboBASE0923
InChIKey: SBZWTSHAFILOTE-SOUVJXGZSA-N
Spectrum_type: MS2
PrecursorMZ: 303.05
Instrument_type: LC-ESI-TOF
Instrument: impact HD
Ion_mode: N
Collision_energy: 30
Formula: C15H14O7
MW: 306
ExactMass: 306.073952788
Comments: "cas number=93527-39-0" "SMILES=c1cc(c(cc1[C@@H]2[C@H]([C@H](c3c(cc(cc3O2)O)O)O)O)O)O" "InChI=InChI=1S/C15H14O7/c16-7-4-10(19)12-11(5-7)22-15(14(21)13(12)20)6-1-2-8(17)9(18)3-6/h1-5,13-21H/t13-,14-,15+/m0/s1" "computed SMILES=OC=1C=C(O)C2=C(OC(C3=CC=C(O)C(O)=C3)C(O)C2O)C1" "computed InChI=InChI=1S/C15H14O7/c16-7-4-10(19)12-11(5-7)22-15(14(21)13(12)20)6-1-2-8(17)9(18)3-6/h1-5,13-21H" "license=License CC-BY-NC-SA 4.0 International" "author=Plant Biology, The Noble Foundation, Ardmore, OK, US/Dennis Fine, Daniel Wherritt, and Lloyd Sumner" "ionization=ESI" "isolation width=5" "collision gas=Nitrogen" "peak width=0.02" "date=2014-08-22 00:36:33+02:00" "column=Waters Acquity BEH C18 1.7um x 2.1 x 150 mm" "retention time=85.8" "raw data file=C:\Data\Confirmed standards 21_Aug_2014\trans,cis-Leucocyanidin v377_1-F,1_01_683.d" "SPLASH=splash10-0fb9-0900000000-6485766e32e558575478" "submitter=Aiko Barsch (Bruker)" "MoNA Rating=3.125"
Num Peaks: 26
109.0309 12.812813
121.0311 25.525526
123.0459 14.614615
125.0257 100.000000
126.0312 32.632633
137.0250 50.650651
147.0469 12.612613
149.0255 16.616617
150.0321 10.710711
151.0048 27.927928
151.0421 8.708709
152.0123 13.513514
153.0206 58.458458
154.0274 15.315315
159.0448 8.208208
171.0456 6.006006
174.0319 7.207207
175.0420 11.011011
185.0622 6.306306
187.0418 6.706707
188.0482 7.807808
189.0546 8.808809
213.0573 5.905906
228.0420 6.606607
229.0508 15.315315
257.0464 10.510511


Name: 2,3-Trans-3,4-cis-Leucocyanidin
Synon: $:00in-source
DB#: MetaboBASE0924
InChIKey: SBZWTSHAFILOTE-SOUVJXGZSA-N
Spectrum_type: MS2
PrecursorMZ: 303.05
Instrument_type: LC-ESI-TOF
Instrument: impact HD
Ion_mode: N
Collision_energy: 20
Formula: C15H14O7
MW: 306
ExactMass: 306.073952788
Comments: "cas number=93527-39-0" "SMILES=c1cc(c(cc1[C@@H]2[C@H]([C@H](c3c(cc(cc3O2)O)O)O)O)O)O" "InChI=InChI=1S/C15H14O7/c16-7-4-10(19)12-11(5-7)22-15(14(21)13(12)20)6-1-2-8(17)9(18)3-6/h1-5,13-21H/t13-,14-,15+/m0/s1" "computed SMILES=OC=1C=C(O)C2=C(OC(C3=CC=C(O)C(O)=C3)C(O)C2O)C1" "computed InChI=InChI=1S/C15H14O7/c16-7-4-10(19)12-11(5-7)22-15(14(21)13(12)20)6-1-2-8(17)9(18)3-6/h1-5,13-21H" "license=License CC-BY-NC-SA 4.0 International" "author=Plant Biology, The Noble Foundation, Ardmore, OK, US/Dennis Fine, Daniel Wherritt, and Lloyd Sumner" "ionization=ESI" "isolation width=5" "collision gas=Nitrogen" "peak width=0.02" "date=2014-08-22 00:36:33+02:00" "column=Waters Acquity BEH C18 1.7um x 2.1 x 150 mm" "retention time=85.8" "raw data file=C:\Data\Confirmed standards 21_Aug_2014\trans,cis-Leucocyanidin v377_1-F,1_01_683.d" "SPLASH=splash10-0fb9-0930000000-f55130580bbd8b0b45e4" "submitter=Aiko Barsch (Bruker)" "MoNA Rating=3.125"
Num Peaks: 36
109.0297 6.306306
121.0293 6.606607
123.0449 4.004004
125.0254 100.000000
126.0308 23.423423
137.0248 25.025025
149.0264 15.615616
150.0309 3.703704
151.0048 10.310310
151.0418 4.004004
152.0118 4.804805
153.0201 50.050050
154.0263 16.316316
163.0052 4.604605
165.0191 3.703704
175.0418 7.507508
177.0192 6.206206
178.9995 3.203203
189.0564 4.304304
199.0417 3.403403
213.0560 5.205205
217.0518 12.612613
218.0572 5.805806
229.0510 7.907908
230.0578 4.504505
231.0661 3.603604
241.0525 10.710711
242.0573 3.203203
243.0329 3.103103
256.0389 4.604605
257.0468 22.022022
258.0536 8.108108
275.0571 7.207207
276.0616 3.503504
285.0413 19.119119
286.0461 8.608609


Name: 2,3-Trans-3,4-cis-Leucocyanidin
Synon: $:00in-source
DB#: MetaboBASE0925
InChIKey: SBZWTSHAFILOTE-SOUVJXGZSA-N
Spectrum_type: MS2
PrecursorMZ: 303.0525
Instrument_type: LC-ESI-TOF
Instrument: impact HD
Ion_mode: N
Collision_energy: 10
Formula: C15H14O7
MW: 306
ExactMass: 306.073952788
Comments: "cas number=93527-39-0" "SMILES=c1cc(c(cc1[C@@H]2[C@H]([C@H](c3c(cc(cc3O2)O)O)O)O)O)O" "InChI=InChI=1S/C15H14O7/c16-7-4-10(19)12-11(5-7)22-15(14(21)13(12)20)6-1-2-8(17)9(18)3-6/h1-5,13-21H/t13-,14-,15+/m0/s1" "computed SMILES=OC=1C=C(O)C2=C(OC(C3=CC=C(O)C(O)=C3)C(O)C2O)C1" "computed InChI=InChI=1S/C15H14O7/c16-7-4-10(19)12-11(5-7)22-15(14(21)13(12)20)6-1-2-8(17)9(18)3-6/h1-5,13-21H" "license=License CC-BY-NC-SA 4.0 International" "author=Plant Biology, The Noble Foundation, Ardmore, OK, US/Dennis Fine, Daniel Wherritt, and Lloyd Sumner" "ionization=ESI" "isolation width=5" "collision gas=Nitrogen" "peak width=0.019" "date=2014-08-22 00:36:33+02:00" "column=Waters Acquity BEH C18 1.7um x 2.1 x 150 mm" "retention time=85.8" "raw data file=C:\Data\Confirmed standards 21_Aug_2014\trans,cis-Leucocyanidin v377_1-F,1_01_683.d" "SPLASH=splash10-004r-0791000000-10ab351997f48e512657" "submitter=Aiko Barsch (Bruker)" "MoNA Rating=3.125"
Num Peaks: 32
125.0254 89.589590
126.0314 22.422422
137.0253 16.916917
149.0251 5.605606
151.0058 5.005005
153.0204 47.347347
154.0263 10.910911
165.0214 7.507508
166.0264 4.104104
175.0392 4.104104
177.0200 10.710711
178.9998 4.104104
181.0146 4.404404
217.0516 3.503504
231.0660 3.803804
241.0516 19.219219
242.0564 5.205205
243.0299 3.603604
245.0458 3.703704
257.0464 19.619620
258.0516 6.906907
259.0621 8.808809
260.0695 3.803804
275.0574 49.849850
276.0624 21.021021
277.0662 3.503504
285.0415 100.000000
286.0473 35.735736
287.0533 4.404404
303.0525 36.236236
304.0577 16.316316
305.0673 7.507508


Name: Lignoceric acid
Synon: $:00in-source
DB#: MetaboBASE0926
InChIKey: QZZGJDVWLFXDLK-UHFFFAOYSA-N
Precursor_type: [M-H]-
Spectrum_type: MS2
PrecursorMZ: 367.3596
Instrument_type: LC-ESI-TOF
Instrument: impact HD
Ion_mode: N
Collision_energy: 20
Formula: C24H48O2
MW: 368
ExactMass: 368.365430776
Comments: "cas number=557-59-5" "SMILES=CCCCCCCCCCCCCCCCCCCCCCCC(=O)O" "InChI=InChI=1S/C24H48O2/c1-2-3-4-5-6-7-8-9-10-11-12-13-14-15-16-17-18-19-20-21-22-23-24(25)26/h2-23H2,1H3,(H,25,26)" "computed SMILES=O=C(O)CCCCCCCCCCCCCCCCCCCCCCC" "license=License CC-BY-NC-SA 4.0 International" "author=Plant Biology, The Noble Foundation, Ardmore, OK, US/Dennis Fine, Daniel Wherritt, and Lloyd Sumner" "ionization=ESI" "isolation width=5" "collision gas=Nitrogen" "peak width=0.017" "date=2014-08-21 23:55:37+02:00" "column=Waters Acquity BEH C18 1.7um x 2.1 x 150 mm" "retention time=2113.2" "raw data file=C:\Data\Confirmed standards 21_Aug_2014\Lignoceric acid vial 183_1-C,6_01_682.d" "computed mass accuracy=3.9340852941048454" "computed mass error=0.0014452240000082384" "SPLASH=splash10-014i-0009000000-5c9df57aa4e8e48bd80f" "submitter=Aiko Barsch (Bruker)" "MoNA Rating=4.583333333333334"
Num Peaks: 3
367.3596 100.000000
368.3625 24.824825
369.3664 0.800801


Name: Lignoceric acid
Synon: $:00in-source
DB#: MetaboBASE0927
InChIKey: QZZGJDVWLFXDLK-UHFFFAOYSA-N
Precursor_type: [M-H]-
Spectrum_type: MS2
PrecursorMZ: 367.3592
Instrument_type: LC-ESI-TOF
Instrument: impact HD
Ion_mode: N
Collision_energy: 10
Formula: C24H48O2
MW: 368
ExactMass: 368.365430776
Comments: "cas number=557-59-5" "SMILES=CCCCCCCCCCCCCCCCCCCCCCCC(=O)O" "InChI=InChI=1S/C24H48O2/c1-2-3-4-5-6-7-8-9-10-11-12-13-14-15-16-17-18-19-20-21-22-23-24(25)26/h2-23H2,1H3,(H,25,26)" "computed SMILES=O=C(O)CCCCCCCCCCCCCCCCCCCCCCC" "license=License CC-BY-NC-SA 4.0 International" "author=Plant Biology, The Noble Foundation, Ardmore, OK, US/Dennis Fine, Daniel Wherritt, and Lloyd Sumner" "ionization=ESI" "isolation width=5" "collision gas=Nitrogen" "peak width=0.017" "date=2014-08-21 23:55:37+02:00" "column=Waters Acquity BEH C18 1.7um x 2.1 x 150 mm" "retention time=2113.2" "raw data file=C:\Data\Confirmed standards 21_Aug_2014\Lignoceric acid vial 183_1-C,6_01_682.d" "computed mass accuracy=2.84523703229689" "computed mass error=0.0010452239999949597" "SPLASH=splash10-014i-0009000000-a22a23dbfe780a163a38" "submitter=Aiko Barsch (Bruker)" "MoNA Rating=3.9285714285714284"
Num Peaks: 2
367.3592 100.000000
368.3624 24.524525


Name: Lignoceric acid
Synon: $:00in-source
DB#: MetaboBASE0928
InChIKey: QZZGJDVWLFXDLK-UHFFFAOYSA-N
Instrument_type: LC-ESI-TOF
Instrument: impact HD
Ion_mode: N
Collision_energy: 10
Formula: C24H48O2
MW: 368
ExactMass: 368.365430776
Comments: "cas number=557-59-5" "SMILES=CCCCCCCCCCCCCCCCCCCCCCCC(=O)O" "InChI=InChI=1S/C24H48O2/c1-2-3-4-5-6-7-8-9-10-11-12-13-14-15-16-17-18-19-20-21-22-23-24(25)26/h2-23H2,1H3,(H,25,26)" "computed SMILES=O=C(O)CCCCCCCCCCCCCCCCCCCCCCC" "license=License CC-BY-NC-SA 4.0 International" "author=Plant Biology, The Noble Foundation, Ardmore, OK, US/Dennis Fine, Daniel Wherritt, and Lloyd Sumner" "ionization=ESI" "collision gas=Nitrogen" "peak width=0.017" "date=2014-08-15 00:15:25+02:00" "column=Waters Acquity BEH C18 1.7um x 2.1 x 150 mm" "retention time=2113.2" "raw data file=G:\Sumner Lab Data Management Workspace Jun2013\Projects\NSF-JST Metabolomics Nov2011-Sep2014\UPLC-MS-MSMS\Confirmed standards 14Aug2014\Lignoceric acid vial 183_1-C,6_01_622.d" "SPLASH=splash10-014i-0009000000-7907c6ab3ef19e9cdf86" "submitter=Aiko Barsch (Bruker)" "MoNA Rating=4.444444444444445"
Num Peaks: 7
248.9718 1.701702
265.1455 1.301301
280.9603 0.800801
293.1749 1.001001
367.3548 100.000000
368.3571 27.427427
369.3598 3.203203


Name: Lignoceric acid
Synon: $:00in-source
DB#: MetaboBASE0929
InChIKey: QZZGJDVWLFXDLK-UHFFFAOYSA-N
Precursor_type: [M-H]-
Spectrum_type: MS2
PrecursorMZ: 367.359
Instrument_type: LC-ESI-TOF
Instrument: impact HD
Ion_mode: N
Collision_energy: 30
Formula: C24H48O2
MW: 368
ExactMass: 368.365430776
Comments: "cas number=557-59-5" "SMILES=CCCCCCCCCCCCCCCCCCCCCCCC(=O)O" "InChI=InChI=1S/C24H48O2/c1-2-3-4-5-6-7-8-9-10-11-12-13-14-15-16-17-18-19-20-21-22-23-24(25)26/h2-23H2,1H3,(H,25,26)" "computed SMILES=O=C(O)CCCCCCCCCCCCCCCCCCCCCCC" "license=License CC-BY-NC-SA 4.0 International" "author=Plant Biology, The Noble Foundation, Ardmore, OK, US/Dennis Fine, Daniel Wherritt, and Lloyd Sumner" "ionization=ESI" "isolation width=5" "collision gas=Nitrogen" "peak width=0.017" "date=2014-08-21 23:55:37+02:00" "column=Waters Acquity BEH C18 1.7um x 2.1 x 150 mm" "retention time=2113.2" "raw data file=C:\Data\Confirmed standards 21_Aug_2014\Lignoceric acid vial 183_1-C,6_01_682.d" "computed mass accuracy=2.3008120121960274" "computed mass error=8.452239999883204E-4" "SPLASH=splash10-014i-0009000000-847587fdc96a653e9651" "submitter=Aiko Barsch (Bruker)" "MoNA Rating=3.9285714285714284"
Num Peaks: 2
367.3590 100.000000
368.3625 27.227227


Name: Stearic acid
Synon: $:00in-source
DB#: MetaboBASE0930
InChIKey: QIQXTHQIDYTFRH-UHFFFAOYSA-N
Precursor_type: [M-H]-
Spectrum_type: MS2
PrecursorMZ: 283.2655
Instrument_type: LC-ESI-TOF
Instrument: impact HD
Ion_mode: N
Collision_energy: 10
Formula: C18H36O2
MW: 284
ExactMass: 284.271530392
Comments: "cas number=57-11-4" "SMILES=CCCCCCCCCCCCCCCCCC(=O)O" "InChI=InChI=1S/C18H36O2/c1-2-3-4-5-6-7-8-9-10-11-12-13-14-15-16-17-18(19)20/h2-17H2,1H3,(H,19,20)" "computed SMILES=O=C(O)CCCCCCCCCCCCCCCCC" "license=License CC-BY-NC-SA 4.0 International" "author=Plant Biology, The Noble Foundation, Ardmore, OK, US/Dennis Fine, Daniel Wherritt, and Lloyd Sumner" "ionization=ESI" "isolation width=5" "collision gas=Nitrogen" "peak width=0.01" "date=2014-08-22 02:38:57+02:00" "column=Waters Acquity BEH C18 1.7um x 2.1 x 150 mm" "retention time=1971.6" "raw data file=C:\Data\Confirmed standards 21_Aug_2014\Stearic acid vial 223_1-D,6_01_686.d" "computed mass accuracy=4.397316298583937" "computed mass error=0.001245607999976528" "SPLASH=splash10-001i-0090000000-9441e6362046ae198384" "submitter=Aiko Barsch (Bruker)" "MoNA Rating=4.583333333333334"
Num Peaks: 6
283.2402 0.200200
283.2655 100.000000
283.2943 0.300300
283.7971 0.700701
284.2686 15.215215
285.2710 0.700701


Name: Stearic acid
Synon: $:00in-source
DB#: MetaboBASE0931
InChIKey: QIQXTHQIDYTFRH-UHFFFAOYSA-N
Instrument_type: LC-ESI-TOF
Instrument: impact HD
Ion_mode: N
Formula: C18H36O2
MW: 284
ExactMass: 284.271530392
Comments: "cas number=57-11-4" "SMILES=CCCCCCCCCCCCCCCCCC(=O)O" "InChI=InChI=1S/C18H36O2/c1-2-3-4-5-6-7-8-9-10-11-12-13-14-15-16-17-18(19)20/h2-17H2,1H3,(H,19,20)" "computed SMILES=O=C(O)CCCCCCCCCCCCCCCCC" "license=License CC-BY-NC-SA 4.0 International" "author=Plant Biology, The Noble Foundation, Ardmore, OK, US/Dennis Fine, Daniel Wherritt, and Lloyd Sumner" "ionization=ESI" "collision gas=Nitrogen" "peak width=0.011" "date=2014-08-22 02:38:57+02:00" "column=Waters Acquity BEH C18 1.7um x 2.1 x 150 mm" "retention time=1971.6" "raw data file=C:\Data\Confirmed standards 21_Aug_2014\Stearic acid vial 223_1-D,6_01_686.d" "SPLASH=splash10-001i-0090000000-f629b105972a0728beb6" "submitter=Aiko Barsch (Bruker)" "MoNA Rating=3.888888888888889"
Num Peaks: 8
283.2389 0.300300
283.2652 100.000000
283.2948 0.300300
283.5639 0.100100
283.7740 0.100100
283.7971 1.201201
284.2683 19.919920
285.2705 2.302302


Name: Stearic acid
Synon: $:00in-source
DB#: MetaboBASE0932
InChIKey: QIQXTHQIDYTFRH-UHFFFAOYSA-N
Precursor_type: [M-H]-
Spectrum_type: MS2
PrecursorMZ: 283.2654
Instrument_type: LC-ESI-TOF
Instrument: impact HD
Ion_mode: N
Collision_energy: 20
Formula: C18H36O2
MW: 284
ExactMass: 284.271530392
Comments: "cas number=57-11-4" "SMILES=CCCCCCCCCCCCCCCCCC(=O)O" "InChI=InChI=1S/C18H36O2/c1-2-3-4-5-6-7-8-9-10-11-12-13-14-15-16-17-18(19)20/h2-17H2,1H3,(H,19,20)" "computed SMILES=O=C(O)CCCCCCCCCCCCCCCCC" "license=License CC-BY-NC-SA 4.0 International" "author=Plant Biology, The Noble Foundation, Ardmore, OK, US/Dennis Fine, Daniel Wherritt, and Lloyd Sumner" "ionization=ESI" "isolation width=5" "collision gas=Nitrogen" "peak width=0.011" "date=2014-08-22 02:38:57+02:00" "column=Waters Acquity BEH C18 1.7um x 2.1 x 150 mm" "retention time=1971.6" "raw data file=C:\Data\Confirmed standards 21_Aug_2014\Stearic acid vial 223_1-D,6_01_686.d" "computed mass accuracy=4.044292031436349" "computed mass error=0.00114560800000163" "SPLASH=splash10-001i-0090000000-fbf3f8e91badb0ec251d" "submitter=Aiko Barsch (Bruker)" "MoNA Rating=4.583333333333334"
Num Peaks: 5
265.2537 0.200200
283.2654 100.000000
283.7971 0.400400
284.2685 16.016016
285.2711 0.900901


Name: Stearic acid
Synon: $:00in-source
DB#: MetaboBASE0933
InChIKey: QIQXTHQIDYTFRH-UHFFFAOYSA-N
Precursor_type: [M-H]-
Spectrum_type: MS2
PrecursorMZ: 283.2647
Instrument_type: LC-ESI-TOF
Instrument: impact HD
Ion_mode: N
Collision_energy: 30
Formula: C18H36O2
MW: 284
ExactMass: 284.271530392
Comments: "cas number=57-11-4" "SMILES=CCCCCCCCCCCCCCCCCC(=O)O" "InChI=InChI=1S/C18H36O2/c1-2-3-4-5-6-7-8-9-10-11-12-13-14-15-16-17-18(19)20/h2-17H2,1H3,(H,19,20)" "computed SMILES=O=C(O)CCCCCCCCCCCCCCCCC" "license=License CC-BY-NC-SA 4.0 International" "author=Plant Biology, The Noble Foundation, Ardmore, OK, US/Dennis Fine, Daniel Wherritt, and Lloyd Sumner" "ionization=ESI" "isolation width=5" "collision gas=Nitrogen" "peak width=0.0095" "date=2014-08-22 02:38:57+02:00" "column=Waters Acquity BEH C18 1.7um x 2.1 x 150 mm" "retention time=1971.6" "raw data file=C:\Data\Confirmed standards 21_Aug_2014\Stearic acid vial 223_1-D,6_01_686.d" "computed mass accuracy=1.5731151816898261" "computed mass error=4.456080000068141E-4" "SPLASH=splash10-001i-0090000000-55efcdc9c7bfd521ef5a" "submitter=Aiko Barsch (Bruker)" "MoNA Rating=4.583333333333334"
Num Peaks: 24
263.2384 0.300300
265.2538 3.303303
266.2591 0.400400
283.2647 100.000000
283.3087 0.300300
284.2674 17.817818
285.2700 1.001001
309.2451 0.200200
630.8229 0.200200
705.7520 0.200200
867.8809 0.200200
1014.2543 0.300300
1019.8428 0.200200
1153.2799 0.200200
1187.7324 0.200200
1240.9136 0.300300
1277.4769 0.300300
1288.8289 0.300300
1320.2375 0.300300
1373.4257 0.300300
1397.6549 0.200200
1427.9182 0.300300
1482.1078 0.200200
1482.3739 0.300300


Name: Heneicosanoic acid
Synon: $:00in-source
DB#: MetaboBASE0934
InChIKey: CKDDRHZIAZRDBW-UHFFFAOYSA-N
Precursor_type: [M-H]-
Spectrum_type: MS2
PrecursorMZ: 325.3113
Instrument_type: LC-ESI-TOF
Instrument: impact HD
Ion_mode: N
Collision_energy: 40
Formula: C21H42O2
MW: 326
ExactMass: 326.318480584
Comments: "cas number=2363-71-5" "SMILES=CCCCCCCCCCCCCCCCCCCCC(=O)O" "InChI=InChI=1S/C21H42O2/c1-2-3-4-5-6-7-8-9-10-11-12-13-14-15-16-17-18-19-20-21(22)23/h2-20H2,1H3,(H,22,23)" "computed SMILES=O=C(O)CCCCCCCCCCCCCCCCCCCC" "license=License CC-BY-NC-SA 4.0 International" "author=Plant Biology, The Noble Foundation, Ardmore, OK, US/Dennis Fine, Daniel Wherritt, and Lloyd Sumner" "ionization=ESI" "isolation width=5" "collision gas=Nitrogen" "peak width=0.017" "date=2014-08-21 23:14:42+02:00" "column=Waters Acquity BEH C18 1.7um x 2.1 x 150 mm" "retention time=2042.4" "raw data file=C:\Data\Confirmed standards 21_Aug_2014\n-Heneicosanoic acid vial 174_1-C,5_01_681.d" "computed mass accuracy=0.29330674963317205" "computed mass error=9.541600002194173E-5" "SPLASH=splash10-004i-0009000000-de3d68bcc91dd21e1b82" "submitter=Aiko Barsch (Bruker)" "MoNA Rating=4.0"
Num Peaks: 2
325.3113 100.000000
326.3172 27.627628


Name: Heneicosanoic acid
Synon: $:00in-source
DB#: MetaboBASE0935
InChIKey: CKDDRHZIAZRDBW-UHFFFAOYSA-N
Precursor_type: [M-H]-
Spectrum_type: MS2
PrecursorMZ: 325.3135
Instrument_type: LC-ESI-TOF
Instrument: impact HD
Ion_mode: N
Collision_energy: 10
Formula: C21H42O2
MW: 326
ExactMass: 326.318480584
Comments: "cas number=2363-71-5" "SMILES=CCCCCCCCCCCCCCCCCCCCC(=O)O" "InChI=InChI=1S/C21H42O2/c1-2-3-4-5-6-7-8-9-10-11-12-13-14-15-16-17-18-19-20-21(22)23/h2-20H2,1H3,(H,22,23)" "computed SMILES=O=C(O)CCCCCCCCCCCCCCCCCCCC" "license=License CC-BY-NC-SA 4.0 International" "author=Plant Biology, The Noble Foundation, Ardmore, OK, US/Dennis Fine, Daniel Wherritt, and Lloyd Sumner" "ionization=ESI" "isolation width=5" "collision gas=Nitrogen" "peak width=0.011" "date=2014-08-21 23:14:42+02:00" "column=Waters Acquity BEH C18 1.7um x 2.1 x 150 mm" "retention time=2042.4" "raw data file=C:\Data\Confirmed standards 21_Aug_2014\n-Heneicosanoic acid vial 174_1-C,5_01_681.d" "computed mass accuracy=7.056012123632397" "computed mass error=0.0022954159999812873" "SPLASH=splash10-004i-0009000000-b460efbbb047c9d921a0" "submitter=Aiko Barsch (Bruker)" "MoNA Rating=4.545454545454546"
Num Peaks: 3
325.3135 100.000000
326.3163 20.120120
327.3177 1.001001


Name: Heneicosanoic acid
Synon: $:00in-source
DB#: MetaboBASE0936
InChIKey: CKDDRHZIAZRDBW-UHFFFAOYSA-N
Precursor_type: [M-H]-
Spectrum_type: MS2
PrecursorMZ: 325.3134
Instrument_type: LC-ESI-TOF
Instrument: impact HD
Ion_mode: N
Collision_energy: 20
Formula: C21H42O2
MW: 326
ExactMass: 326.318480584
Comments: "cas number=2363-71-5" "SMILES=CCCCCCCCCCCCCCCCCCCCC(=O)O" "InChI=InChI=1S/C21H42O2/c1-2-3-4-5-6-7-8-9-10-11-12-13-14-15-16-17-18-19-20-21(22)23/h2-20H2,1H3,(H,22,23)" "computed SMILES=O=C(O)CCCCCCCCCCCCCCCCCCCC" "license=License CC-BY-NC-SA 4.0 International" "author=Plant Biology, The Noble Foundation, Ardmore, OK, US/Dennis Fine, Daniel Wherritt, and Lloyd Sumner" "ionization=ESI" "isolation width=5" "collision gas=Nitrogen" "peak width=0.011" "date=2014-08-21 23:14:42+02:00" "column=Waters Acquity BEH C18 1.7um x 2.1 x 150 mm" "retention time=2042.4" "raw data file=C:\Data\Confirmed standards 21_Aug_2014\n-Heneicosanoic acid vial 174_1-C,5_01_681.d" "computed mass accuracy=6.748618409221352" "computed mass error=0.0021954160000063894" "SPLASH=splash10-004i-0009000000-50c83801cda9cc618562" "submitter=Aiko Barsch (Bruker)" "MoNA Rating=4.545454545454546"
Num Peaks: 3
325.3134 100.000000
326.3162 20.820821
327.3186 1.001001


Name: Heneicosanoic acid
Synon: $:00in-source
DB#: MetaboBASE0937
InChIKey: CKDDRHZIAZRDBW-UHFFFAOYSA-N
Precursor_type: [M-H]-
Spectrum_type: MS2
PrecursorMZ: 325.3128
Instrument_type: LC-ESI-TOF
Instrument: impact HD
Ion_mode: N
Collision_energy: 30
Formula: C21H42O2
MW: 326
ExactMass: 326.318480584
Comments: "cas number=2363-71-5" "SMILES=CCCCCCCCCCCCCCCCCCCCC(=O)O" "InChI=InChI=1S/C21H42O2/c1-2-3-4-5-6-7-8-9-10-11-12-13-14-15-16-17-18-19-20-21(22)23/h2-20H2,1H3,(H,22,23)" "computed SMILES=O=C(O)CCCCCCCCCCCCCCCCCCCC" "license=License CC-BY-NC-SA 4.0 International" "author=Plant Biology, The Noble Foundation, Ardmore, OK, US/Dennis Fine, Daniel Wherritt, and Lloyd Sumner" "ionization=ESI" "isolation width=5" "collision gas=Nitrogen" "peak width=0.015" "date=2014-08-21 23:14:42+02:00" "column=Waters Acquity BEH C18 1.7um x 2.1 x 150 mm" "retention time=2042.4" "raw data file=C:\Data\Confirmed standards 21_Aug_2014\n-Heneicosanoic acid vial 174_1-C,5_01_681.d" "computed mass accuracy=4.904252153577946" "computed mass error=0.0015954159999864714" "SPLASH=splash10-004i-0009000000-692538bbbc86d3d2a008" "submitter=Aiko Barsch (Bruker)" "MoNA Rating=4.583333333333334"
Num Peaks: 5
307.3010 1.201201
308.3031 0.300300
325.3128 100.000000
326.3154 22.922923
327.3181 1.201201


Name: Procyanidin B2
Synon: $:00in-source
DB#: MetaboBASE0938
InChIKey: XFZJEEAOWLFHDH-NFJBMHMQSA-N
Precursor_type: [M-H]-
Spectrum_type: MS2
PrecursorMZ: 577.14
Instrument_type: LC-ESI-TOF
Instrument: impact HD
Ion_mode: N
Collision_energy: 50
Formula: C30H26O12
MW: 578
ExactMass: 578.142426272
Comments: "cas number=29106-49-8" "SMILES=c1cc(c(cc1[C@@H]2[C@@H](Cc3c(cc(c(c3O2)[C@H]4c5c(cc(cc5O[C@@H]([C@@H]4O)c6ccc(c(c6)O)O)O)O)O)O)O)O)O" "InChI=InChI=1S/C30H26O12/c31-13-7-20(37)24-23(8-13)41-29(12-2-4-16(33)19(36)6-12)27(40)26(24)25-21(38)10-17(34)14-9-22(39)28(42-30(14)25)11-1-3-15(32)18(35)5-11/h1-8,10,22,26-29,31-40H,9H2/t22-,26-,27-,28-,29-/m1/s1" "computed SMILES=OC=1C=C(O)C2=C(OC(C3=CC=C(O)C(O)=C3)C(O)C2C=4C(O)=CC(O)=C5C4OC(C6=CC=C(O)C(O)=C6)C(O)C5)C1" "license=License CC-BY-NC-SA 4.0 International" "author=Plant Biology, The Noble Foundation, Ardmore, OK, US/Dennis Fine, Daniel Wherritt, and Lloyd Sumner" "ionization=ESI" "isolation width=5" "collision gas=Nitrogen" "peak width=0.018" "date=2014-08-20 00:14:06+02:00" "column=Waters Acquity BEH C18 1.7um x 2.1 x 150 mm" "retention time=152.4" "raw data file=C:\Data\Confirmed standards 19_Aug_2014\Procyanidin B2 vial 376_1-E,8_01_662.d" "computed mass accuracy=8.403035658709229" "computed mass error=0.004849728000067444" "SPLASH=splash10-0551-0790100000-ba210c828673adbc07c8" "submitter=Aiko Barsch (Bruker)" "MoNA Rating=4.545454545454546"
Num Peaks: 43
109.0293 15.015015
123.0450 16.916917
125.0247 100.000000
126.0297 12.012012
137.0241 32.732733
149.0243 12.812813
151.0399 24.024024
161.0241 38.038038
163.0029 7.907908
164.0112 11.511512
165.0187 13.913914
175.0399 18.418418
177.0190 15.315315
179.0348 11.811812
187.0399 12.612613
203.0705 20.920921
205.0142 7.407407
205.0495 15.615616
217.0499 7.607608
221.0812 10.210210
227.0702 8.608609
229.0500 16.916917
230.0570 7.707708
243.0285 15.615616
245.0454 12.712713
245.0814 57.757758
246.0854 9.109109
247.0618 7.107107
255.0301 31.131131
256.0365 32.132132
257.0446 16.616617
269.0443 9.509510
273.0400 7.507508
281.0456 15.615616
283.0237 11.611612
285.0397 26.726727
286.0451 9.909910
289.0714 54.654655
290.0768 10.510511
297.0406 8.608609
339.0874 16.516517
407.0772 47.047047
408.0811 16.416416


Name: Procyanidin B2
Synon: $:00in-source
DB#: MetaboBASE0939
InChIKey: XFZJEEAOWLFHDH-NFJBMHMQSA-N
Instrument_type: LC-ESI-TOF
Instrument: impact HD
Ion_mode: N
Formula: C30H26O12
MW: 578
ExactMass: 578.142426272
Comments: "cas number=29106-49-8" "SMILES=c1cc(c(cc1[C@@H]2[C@@H](Cc3c(cc(c(c3O2)[C@H]4c5c(cc(cc5O[C@@H]([C@@H]4O)c6ccc(c(c6)O)O)O)O)O)O)O)O)O" "InChI=InChI=1S/C30H26O12/c31-13-7-20(37)24-23(8-13)41-29(12-2-4-16(33)19(36)6-12)27(40)26(24)25-21(38)10-17(34)14-9-22(39)28(42-30(14)25)11-1-3-15(32)18(35)5-11/h1-8,10,22,26-29,31-40H,9H2/t22-,26-,27-,28-,29-/m1/s1" "computed SMILES=OC=1C=C(O)C2=C(OC(C3=CC=C(O)C(O)=C3)C(O)C2C=4C(O)=CC(O)=C5C4OC(C6=CC=C(O)C(O)=C6)C(O)C5)C1" "license=License CC-BY-NC-SA 4.0 International" "author=Plant Biology, The Noble Foundation, Ardmore, OK, US/Dennis Fine, Daniel Wherritt, and Lloyd Sumner" "ionization=ESI" "collision gas=Nitrogen" "peak width=0.016" "date=2014-08-20 00:14:06+02:00" "column=Waters Acquity BEH C18 1.7um x 2.1 x 150 mm" "retention time=152.4" "raw data file=C:\Data\Confirmed standards 19_Aug_2014\Procyanidin B2 vial 376_1-E,8_01_662.d" "SPLASH=splash10-004i-0300090000-f0366f761dd35900f408" "submitter=Aiko Barsch (Bruker)" "MoNA Rating=3.888888888888889"
Num Peaks: 41
423.0712 1.601602
424.0763 1.001001
425.0874 1.801802
426.0909 1.001001
555.0918 1.301301
571.0870 3.503504
572.0910 1.701702
573.1039 12.512513
574.1080 8.608609
575.1196 20.020020
576.1241 13.213213
577.1368 100.000000
578.1416 73.673674
579.1457 25.325325
580.1484 6.106106
581.1516 1.301301
599.1162 1.701702
600.1229 1.201201
695.0715 1.101101
1149.2281 2.302302
1150.2379 2.702703
1151.2471 6.506507
1152.2527 7.807808
1153.2609 10.310310
1154.2694 9.809810
1155.2780 17.317317
1156.2847 20.020020
1157.2898 13.213213
1158.2930 6.806807
1159.2966 2.302302
1441.3313 1.101101
1441.8286 1.501502
1442.3328 1.801802
1442.8435 2.002002
1443.3445 2.202202
1443.8446 2.202202
1444.3467 2.302302
1444.8500 2.302302
1445.3573 1.901902
1445.8639 1.601602
1446.3669 1.101101


Name: Procyanidin B2
Synon: $:00in-source
DB#: MetaboBASE0940
InChIKey: XFZJEEAOWLFHDH-NFJBMHMQSA-N
Precursor_type: [M-H]-
Spectrum_type: MS2
PrecursorMZ: 577.1368
Instrument_type: LC-ESI-TOF
Instrument: impact HD
Ion_mode: N
Collision_energy: 10
Formula: C30H26O12
MW: 578
ExactMass: 578.142426272
Comments: "cas number=29106-49-8" "SMILES=c1cc(c(cc1[C@@H]2[C@@H](Cc3c(cc(c(c3O2)[C@H]4c5c(cc(cc5O[C@@H]([C@@H]4O)c6ccc(c(c6)O)O)O)O)O)O)O)O)O" "InChI=InChI=1S/C30H26O12/c31-13-7-20(37)24-23(8-13)41-29(12-2-4-16(33)19(36)6-12)27(40)26(24)25-21(38)10-17(34)14-9-22(39)28(42-30(14)25)11-1-3-15(32)18(35)5-11/h1-8,10,22,26-29,31-40H,9H2/t22-,26-,27-,28-,29-/m1/s1" "computed SMILES=OC=1C=C(O)C2=C(OC(C3=CC=C(O)C(O)=C3)C(O)C2C=4C(O)=CC(O)=C5C4OC(C6=CC=C(O)C(O)=C6)C(O)C5)C1" "license=License CC-BY-NC-SA 4.0 International" "author=Plant Biology, The Noble Foundation, Ardmore, OK, US/Dennis Fine, Daniel Wherritt, and Lloyd Sumner" "ionization=ESI" "isolation width=5" "collision gas=Nitrogen" "peak width=0.017" "date=2014-08-20 00:14:06+02:00" "column=Waters Acquity BEH C18 1.7um x 2.1 x 150 mm" "retention time=152.4" "raw data file=C:\Data\Confirmed standards 19_Aug_2014\Procyanidin B2 vial 376_1-E,8_01_662.d" "computed mass accuracy=2.858469603870177" "computed mass error=0.0016497280000749015" "SPLASH=splash10-004i-0000190000-82899b68a12b3ff7f0a3" "submitter=Aiko Barsch (Bruker)" "MoNA Rating=4.583333333333334"
Num Peaks: 51
125.0238 0.400400
245.0439 0.400400
285.0388 0.900901
286.0455 0.900901
287.0558 3.403403
288.0592 0.800801
289.0710 2.902903
290.0763 0.600601
299.0556 0.300300
405.0613 0.100100
406.0611 0.100100
407.0778 1.901902
408.0820 0.800801
409.0858 0.200200
422.0570 0.100100
423.0719 3.203203
424.0775 2.202202
425.0885 16.016016
426.0925 5.605606
427.0974 0.600601
447.0719 0.100100
448.0742 0.100100
449.0873 1.101101
450.0906 0.500501
451.1038 1.601602
452.0742 0.200200
452.1079 0.400400
453.0805 0.300300
464.0708 0.200200
465.0767 0.100100
531.1244 0.100100
539.0947 0.100100
546.1108 0.100100
556.0983 0.600601
557.1047 0.400400
558.1110 0.200200
559.1244 0.300300
560.1324 0.100100
573.1015 0.200200
574.1086 4.604605
575.1192 18.918919
575.2236 0.100100
576.1254 13.513514
577.1368 100.000000
577.2651 0.200200
577.3076 0.200200
578.1413 44.144144
578.2493 0.100100
578.2831 0.100100
579.1442 6.606607
580.1465 1.201201


Name: Procyanidin B2
Synon: $:00in-source
DB#: MetaboBASE0941
InChIKey: XFZJEEAOWLFHDH-NFJBMHMQSA-N
Precursor_type: [M-H]-
Spectrum_type: MS2
PrecursorMZ: 577.136
Instrument_type: LC-ESI-TOF
Instrument: impact HD
Ion_mode: N
Collision_energy: 20
Formula: C30H26O12
MW: 578
ExactMass: 578.142426272
Comments: "cas number=29106-49-8" "SMILES=c1cc(c(cc1[C@@H]2[C@@H](Cc3c(cc(c(c3O2)[C@H]4c5c(cc(cc5O[C@@H]([C@@H]4O)c6ccc(c(c6)O)O)O)O)O)O)O)O)O" "InChI=InChI=1S/C30H26O12/c31-13-7-20(37)24-23(8-13)41-29(12-2-4-16(33)19(36)6-12)27(40)26(24)25-21(38)10-17(34)14-9-22(39)28(42-30(14)25)11-1-3-15(32)18(35)5-11/h1-8,10,22,26-29,31-40H,9H2/t22-,26-,27-,28-,29-/m1/s1" "computed SMILES=OC=1C=C(O)C2=C(OC(C3=CC=C(O)C(O)=C3)C(O)C2C=4C(O)=CC(O)=C5C4OC(C6=CC=C(O)C(O)=C6)C(O)C5)C1" "license=License CC-BY-NC-SA 4.0 International" "author=Plant Biology, The Noble Foundation, Ardmore, OK, US/Dennis Fine, Daniel Wherritt, and Lloyd Sumner" "ionization=ESI" "isolation width=5" "collision gas=Nitrogen" "peak width=0.016" "date=2014-08-20 00:14:06+02:00" "column=Waters Acquity BEH C18 1.7um x 2.1 x 150 mm" "retention time=152.4" "raw data file=C:\Data\Confirmed standards 19_Aug_2014\Procyanidin B2 vial 376_1-E,8_01_662.d" "computed mass accuracy=1.472318483075643" "computed mass error=8.497280000483443E-4" "SPLASH=splash10-004i-0050950000-7c3e401e0cdbb5a2faba" "submitter=Aiko Barsch (Bruker)" "MoNA Rating=4.583333333333334"
Num Peaks: 61
125.0242 15.315315
126.0295 1.801802
161.0238 3.503504
243.0663 1.101101
245.0448 7.607608
245.0810 2.202202
246.0509 1.601602
255.0286 1.001001
273.0402 4.304304
274.0450 1.101101
285.0406 9.509510
286.0450 5.805806
287.0556 32.832833
288.0604 8.308308
289.0722 89.489489
290.0761 16.116116
291.0797 1.501502
297.0401 1.101101
299.0561 10.610611
300.0603 2.302302
327.0508 1.601602
328.0564 1.001001
329.0657 3.003003
331.0827 1.301301
339.0867 1.301301
381.0961 3.803804
382.1014 1.301301
405.0615 1.801802
406.0667 1.401401
407.0778 75.075075
408.0824 24.924925
409.0855 3.603604
413.0849 1.001001
423.0717 10.810811
424.0769 8.508509
425.0885 100.000000
426.0929 36.436436
427.0960 5.005005
447.0692 1.401401
448.0749 1.301301
449.0878 10.610611
450.0908 4.704705
451.1030 36.636637
452.1075 10.310310
453.0817 1.801802
454.0879 1.101101
533.1433 1.201201
539.0972 2.302302
540.1027 1.301301
556.0969 3.503504
557.1044 3.003003
558.1099 1.501502
559.1237 4.604605
560.1271 1.701702
574.1086 5.605606
575.1192 23.123123
576.1244 16.616617
577.1360 85.085085
578.1404 39.839840
579.1431 5.705706
580.1490 1.101101


Name: Procyanidin B2
Synon: $:00in-source
DB#: MetaboBASE0942
InChIKey: XFZJEEAOWLFHDH-NFJBMHMQSA-N
Precursor_type: [M-H]-
Spectrum_type: MS2
PrecursorMZ: 577.1351
Instrument_type: LC-ESI-TOF
Instrument: impact HD
Ion_mode: N
Collision_energy: 30
Formula: C30H26O12
MW: 578
ExactMass: 578.142426272
Comments: "cas number=29106-49-8" "SMILES=c1cc(c(cc1[C@@H]2[C@@H](Cc3c(cc(c(c3O2)[C@H]4c5c(cc(cc5O[C@@H]([C@@H]4O)c6ccc(c(c6)O)O)O)O)O)O)O)O)O" "InChI=InChI=1S/C30H26O12/c31-13-7-20(37)24-23(8-13)41-29(12-2-4-16(33)19(36)6-12)27(40)26(24)25-21(38)10-17(34)14-9-22(39)28(42-30(14)25)11-1-3-15(32)18(35)5-11/h1-8,10,22,26-29,31-40H,9H2/t22-,26-,27-,28-,29-/m1/s1" "computed SMILES=OC=1C=C(O)C2=C(OC(C3=CC=C(O)C(O)=C3)C(O)C2C=4C(O)=CC(O)=C5C4OC(C6=CC=C(O)C(O)=C6)C(O)C5)C1" "license=License CC-BY-NC-SA 4.0 International" "author=Plant Biology, The Noble Foundation, Ardmore, OK, US/Dennis Fine, Daniel Wherritt, and Lloyd Sumner" "ionization=ESI" "isolation width=5" "collision gas=Nitrogen" "peak width=0.016" "date=2014-08-20 00:14:06+02:00" "column=Waters Acquity BEH C18 1.7um x 2.1 x 150 mm" "retention time=152.4" "raw data file=C:\Data\Confirmed standards 19_Aug_2014\Procyanidin B2 vial 376_1-E,8_01_662.d" "computed mass accuracy=0.08710612117182084" "computed mass error=-5.0271999953110935E-5" "SPLASH=splash10-052r-0191600000-9a516f7211ac18d6e0fe" "submitter=Aiko Barsch (Bruker)" "MoNA Rating=4.615384615384616"
Num Peaks: 63
125.0243 20.720721
126.0296 3.103103
137.0239 2.602603
151.0400 1.001001
161.0237 6.906907
165.0189 1.101101
175.0401 1.001001
177.0189 1.201201
229.0510 1.101101
243.0300 1.401401
243.0649 1.301301
244.0356 1.001001
245.0453 5.405405
245.0814 8.608609
246.0487 1.501502
246.0859 1.801802
255.0291 2.102102
257.0440 1.101101
269.0451 1.701702
273.0401 5.705706
274.0450 1.601602
281.0453 1.401401
283.0230 1.001001
284.0305 1.101101
285.0402 9.409409
286.0453 5.005005
287.0561 13.513514
288.0608 2.802803
289.0727 100.000000
290.0766 18.018018
291.0801 1.501502
297.0396 1.501502
299.0556 4.504505
300.0622 1.401401
327.0515 1.701702
328.0584 1.601602
329.0653 3.703704
331.0809 1.001001
339.0874 4.804805
340.0902 1.601602
381.0979 5.105105
382.1024 1.901902
405.0601 1.101101
407.0787 67.567568
408.0831 21.721722
409.0887 3.203203
423.0716 2.802803
424.0765 2.002002
425.0880 12.712713
426.0934 4.704705
449.0872 4.004004
450.0918 2.002002
451.1037 8.008008
452.0746 1.201201
452.1090 2.602603
539.0975 1.701702
540.1058 1.201201
556.0974 1.401401
557.1022 1.101101
575.1183 1.201201
576.1229 1.001001
577.1351 2.002002
578.1436 1.101101


Name: Procyanidin B2
Synon: $:00in-source
DB#: MetaboBASE0943
InChIKey: XFZJEEAOWLFHDH-NFJBMHMQSA-N
Spectrum_type: MS2
PrecursorMZ: 575.108
Instrument_type: LC-ESI-TOF
Instrument: impact HD
Ion_mode: N
Collision_energy: 40
Formula: C30H26O12
MW: 578
ExactMass: 578.142426272
Comments: "cas number=29106-49-8" "SMILES=c1cc(c(cc1[C@@H]2[C@@H](Cc3c(cc(c(c3O2)[C@H]4c5c(cc(cc5O[C@@H]([C@@H]4O)c6ccc(c(c6)O)O)O)O)O)O)O)O)O" "InChI=InChI=1S/C30H26O12/c31-13-7-20(37)24-23(8-13)41-29(12-2-4-16(33)19(36)6-12)27(40)26(24)25-21(38)10-17(34)14-9-22(39)28(42-30(14)25)11-1-3-15(32)18(35)5-11/h1-8,10,22,26-29,31-40H,9H2/t22-,26-,27-,28-,29-/m1/s1" "computed SMILES=OC=1C=C(O)C2=C(OC(C3=CC=C(O)C(O)=C3)C(O)C2C=4C(O)=CC(O)=C5C4OC(C6=CC=C(O)C(O)=C6)C(O)C5)C1" "license=License CC-BY-NC-SA 4.0 International" "author=Plant Biology, The Noble Foundation, Ardmore, OK, US/Dennis Fine, Daniel Wherritt, and Lloyd Sumner" "ionization=ESI" "isolation width=5" "collision gas=Nitrogen" "peak width=0.017" "date=2014-08-20 00:14:06+02:00" "column=Waters Acquity BEH C18 1.7um x 2.1 x 150 mm" "retention time=152.4" "raw data file=C:\Data\Confirmed standards 19_Aug_2014\Procyanidin B2 vial 376_1-E,8_01_662.d" "SPLASH=splash10-052r-0391200000-f0bdc661ae52358a3a75" "submitter=Aiko Barsch (Bruker)" "MoNA Rating=3.125"
Num Peaks: 106
109.0281 3.403403
121.0302 1.001001
123.0443 2.602603
125.0244 46.046046
126.0299 5.905906
137.0242 10.310310
138.0289 1.001001
149.0238 2.202202
151.0397 5.905906
161.0240 15.015015
161.0592 1.201201
162.0289 2.802803
163.0028 2.002002
163.0393 1.401401
164.0100 2.302302
165.0185 4.604605
167.0340 1.301301
175.0393 5.905906
177.0190 5.605606
178.0244 1.101101
179.0342 4.404404
187.0398 1.901902
188.0487 1.101101
201.0551 1.001001
203.0342 1.401401
203.0712 3.903904
205.0142 3.003003
205.0506 5.205205
215.0347 1.601602
217.0501 1.801802
219.0659 1.501502
221.0808 1.601602
225.0536 1.101101
227.0342 1.901902
227.0700 2.102102
228.0409 1.101101
229.0499 4.304304
230.0557 2.002002
231.0300 2.102102
231.0657 1.001001
241.0507 2.302302
243.0292 5.605606
243.0654 2.002002
244.0356 2.602603
245.0451 9.209209
245.0816 38.438438
246.0496 2.002002
246.0871 5.905906
247.0608 3.403403
253.0489 1.701702
255.0294 7.907908
255.0641 1.601602
256.0357 6.006006
257.0443 5.105105
258.0497 1.701702
259.0605 2.002002
269.0447 3.603604
270.0508 1.301301
271.0612 2.402402
273.0399 8.108108
274.0487 2.602603
275.0546 1.101101
281.0452 5.705706
282.0490 1.801802
283.0238 4.004004
283.0602 1.401401
284.0300 3.503504
285.0396 15.615616
285.0744 1.201201
286.0456 7.207207
287.0546 7.807808
288.0611 2.802803
289.0724 100.000000
290.0757 16.316316
291.0777 1.701702
297.0398 3.703704
297.0756 2.002002
298.0447 1.801802
299.0547 3.103103
307.0593 1.301301
313.0354 1.301301
315.0863 1.701702
326.0399 1.001001
327.0501 2.302302
328.0560 2.302302
329.0663 3.003003
331.0814 1.001001
339.0872 14.114114
340.0924 4.304304
341.0671 2.002002
357.0985 1.901902
363.0853 1.601602
381.0960 4.504505
382.1026 1.601602
389.0645 1.501502
405.0622 1.301301
407.0780 70.470470
408.0825 24.724725
409.0881 3.403403
423.0708 1.201201
425.0876 2.302302
449.0898 1.501502
451.1038 1.201201
471.1084 1.601602
539.0945 1.601602
540.1025 1.601602


Name: Procyanidin B1
Synon: $:00in-source
DB#: MetaboBASE0944
InChIKey: XFZJEEAOWLFHDH-UKWJTHFESA-N
Precursor_type: [M-H]-
Spectrum_type: MS2
PrecursorMZ: 577.14
Instrument_type: LC-ESI-TOF
Instrument: impact HD
Ion_mode: N
Collision_energy: 40
Formula: C30H26O12
MW: 578
ExactMass: 578.142426272
Comments: "cas number=20315-25-7" "SMILES=c1cc(c(cc1[C@@H]2[C@H](Cc3c(cc(c(c3O2)[C@H]4c5c(cc(cc5O[C@@H]([C@@H]4O)c6ccc(c(c6)O)O)O)O)O)O)O)O)O" "InChI=InChI=1S/C30H26O12/c31-13-7-20(37)24-23(8-13)41-29(12-2-4-16(33)19(36)6-12)27(40)26(24)25-21(38)10-17(34)14-9-22(39)28(42-30(14)25)11-1-3-15(32)18(35)5-11/h1-8,10,22,26-29,31-40H,9H2/t22-,26+,27+,28+,29+/m0/s1" "computed SMILES=OC=1C=C(O)C2=C(OC(C3=CC=C(O)C(O)=C3)C(O)C2C=4C(O)=CC(O)=C5C4OC(C6=CC=C(O)C(O)=C6)C(O)C5)C1" "computed InChI=InChI=1S/C30H26O12/c31-13-7-20(37)24-23(8-13)41-29(12-2-4-16(33)19(36)6-12)27(40)26(24)25-21(38)10-17(34)14-9-22(39)28(42-30(14)25)11-1-3-15(32)18(35)5-11/h1-8,10,22,26-29,31-40H,9H2/t22-,26?,27-,28-,29-/m1/s1" "license=License CC-BY-NC-SA 4.0 International" "author=Plant Biology, The Noble Foundation, Ardmore, OK, US/Dennis Fine, Daniel Wherritt, and Lloyd Sumner" "ionization=ESI" "isolation width=5" "collision gas=Nitrogen" "peak width=0.015" "date=2014-08-19 23:33:22+02:00" "column=Waters Acquity BEH C18 1.7um x 2.1 x 150 mm" "retention time=106.2" "raw data file=C:\Data\Confirmed standards 19_Aug_2014\Procyanidin B1 vial 375_1-E,7_01_661.d" "computed mass accuracy=8.403035658709229" "computed mass error=0.004849728000067444" "SPLASH=splash10-052r-0390200000-9f1e13b0bba9785308a3" "submitter=Aiko Barsch (Bruker)" "MoNA Rating=4.545454545454546"
Num Peaks: 39
109.0286 4.004004
125.0241 45.245245
126.0280 3.703704
137.0242 9.109109
151.0397 4.504505
161.0244 16.716717
165.0188 5.005005
175.0400 4.804805
177.0179 4.604605
179.0341 3.203203
203.0700 4.204204
205.0493 4.504505
229.0495 5.105105
243.0287 7.607608
245.0446 7.807808
245.0815 34.434434
246.0854 5.605606
247.0592 3.103103
255.0287 9.409409
256.0368 6.906907
257.0451 4.804805
269.0448 3.503504
273.0397 8.108108
281.0456 5.105105
283.0247 3.703704
284.0315 3.003003
285.0393 21.521522
286.0452 6.206206
287.0539 6.006006
289.0718 100.000000
290.0758 15.515516
297.0398 4.204204
299.0552 3.203203
329.0653 3.803804
339.0875 14.014014
340.0877 3.103103
381.0975 4.104104
407.0781 69.269269
408.0817 17.417417


Name: Procyanidin B1
Synon: $:00in-source
DB#: MetaboBASE0945
InChIKey: XFZJEEAOWLFHDH-UKWJTHFESA-N
Instrument_type: LC-ESI-TOF
Instrument: impact HD
Ion_mode: N
Formula: C30H26O12
MW: 578
ExactMass: 578.142426272
Comments: "cas number=20315-25-7" "SMILES=c1cc(c(cc1[C@@H]2[C@H](Cc3c(cc(c(c3O2)[C@H]4c5c(cc(cc5O[C@@H]([C@@H]4O)c6ccc(c(c6)O)O)O)O)O)O)O)O)O" "InChI=InChI=1S/C30H26O12/c31-13-7-20(37)24-23(8-13)41-29(12-2-4-16(33)19(36)6-12)27(40)26(24)25-21(38)10-17(34)14-9-22(39)28(42-30(14)25)11-1-3-15(32)18(35)5-11/h1-8,10,22,26-29,31-40H,9H2/t22-,26+,27+,28+,29+/m0/s1" "computed SMILES=OC=1C=C(O)C2=C(OC(C3=CC=C(O)C(O)=C3)C(O)C2C=4C(O)=CC(O)=C5C4OC(C6=CC=C(O)C(O)=C6)C(O)C5)C1" "computed InChI=InChI=1S/C30H26O12/c31-13-7-20(37)24-23(8-13)41-29(12-2-4-16(33)19(36)6-12)27(40)26(24)25-21(38)10-17(34)14-9-22(39)28(42-30(14)25)11-1-3-15(32)18(35)5-11/h1-8,10,22,26-29,31-40H,9H2/t22-,26?,27-,28-,29-/m1/s1" "license=License CC-BY-NC-SA 4.0 International" "author=Plant Biology, The Noble Foundation, Ardmore, OK, US/Dennis Fine, Daniel Wherritt, and Lloyd Sumner" "ionization=ESI" "collision gas=Nitrogen" "peak width=0.013" "date=2014-08-19 23:33:22+02:00" "column=Waters Acquity BEH C18 1.7um x 2.1 x 150 mm" "retention time=106.2" "raw data file=C:\Data\Confirmed standards 19_Aug_2014\Procyanidin B1 vial 375_1-E,7_01_661.d" "SPLASH=splash10-004i-0100090000-6fdf4ab81dd423c4334d" "submitter=Aiko Barsch (Bruker)" "MoNA Rating=3.888888888888889"
Num Peaks: 33
423.0720 1.701702
425.0862 1.201201
555.0916 1.301301
556.0021 1.701702
571.0871 2.002002
573.1039 12.712713
574.1085 6.506507
575.1196 22.922923
576.1245 12.312312
577.1360 100.000000
578.1407 52.652653
579.1436 15.115115
580.1469 3.503504
591.1100 1.101101
597.0995 1.301301
599.1165 3.903904
600.1213 2.102102
661.0869 1.101101
676.0524 1.401401
677.0565 1.101101
695.0690 1.401401
865.1965 1.201201
866.2043 1.301301
1149.2308 1.201201
1150.2321 1.201201
1151.2434 3.703704
1152.2502 3.903904
1153.2578 5.905906
1154.2645 4.904905
1155.2760 9.709710
1156.2813 9.109109
1157.2836 5.205205
1158.2939 2.002002


Name: Procyanidin B1
Synon: $:00in-source
DB#: MetaboBASE0946
InChIKey: XFZJEEAOWLFHDH-UKWJTHFESA-N
Precursor_type: [M-H]-
Spectrum_type: MS2
PrecursorMZ: 577.1372
Instrument_type: LC-ESI-TOF
Instrument: impact HD
Ion_mode: N
Collision_energy: 10
Formula: C30H26O12
MW: 578
ExactMass: 578.142426272
Comments: "cas number=20315-25-7" "SMILES=c1cc(c(cc1[C@@H]2[C@H](Cc3c(cc(c(c3O2)[C@H]4c5c(cc(cc5O[C@@H]([C@@H]4O)c6ccc(c(c6)O)O)O)O)O)O)O)O)O" "InChI=InChI=1S/C30H26O12/c31-13-7-20(37)24-23(8-13)41-29(12-2-4-16(33)19(36)6-12)27(40)26(24)25-21(38)10-17(34)14-9-22(39)28(42-30(14)25)11-1-3-15(32)18(35)5-11/h1-8,10,22,26-29,31-40H,9H2/t22-,26+,27+,28+,29+/m0/s1" "computed SMILES=OC=1C=C(O)C2=C(OC(C3=CC=C(O)C(O)=C3)C(O)C2C=4C(O)=CC(O)=C5C4OC(C6=CC=C(O)C(O)=C6)C(O)C5)C1" "computed InChI=InChI=1S/C30H26O12/c31-13-7-20(37)24-23(8-13)41-29(12-2-4-16(33)19(36)6-12)27(40)26(24)25-21(38)10-17(34)14-9-22(39)28(42-30(14)25)11-1-3-15(32)18(35)5-11/h1-8,10,22,26-29,31-40H,9H2/t22-,26?,27-,28-,29-/m1/s1" "license=License CC-BY-NC-SA 4.0 International" "author=Plant Biology, The Noble Foundation, Ardmore, OK, US/Dennis Fine, Daniel Wherritt, and Lloyd Sumner" "ionization=ESI" "isolation width=5" "collision gas=Nitrogen" "peak width=0.015" "date=2014-08-19 23:33:22+02:00" "column=Waters Acquity BEH C18 1.7um x 2.1 x 150 mm" "retention time=106.2" "raw data file=C:\Data\Confirmed standards 19_Aug_2014\Procyanidin B1 vial 375_1-E,7_01_661.d" "computed mass accuracy=3.5515437232051235" "computed mass error=0.00204972800008818" "SPLASH=splash10-004i-0000190000-136d2e8bbb6419a5dcb7" "submitter=Aiko Barsch (Bruker)" "MoNA Rating=4.583333333333334"
Num Peaks: 19
287.0548 2.402402
289.0711 3.103103
297.0398 0.100100
407.0770 2.002002
409.0854 0.100100
422.0597 0.100100
423.0726 3.403403
424.0759 1.701702
425.0879 12.012012
426.0923 3.203203
447.0742 0.100100
451.1040 1.401401
531.1275 0.100100
574.1086 4.004004
575.1201 22.722723
576.1251 13.513514
577.1372 100.000000
578.1412 31.831832
579.1445 4.404404


Name: Procyanidin B1
Synon: $:00in-source
DB#: MetaboBASE0947
InChIKey: XFZJEEAOWLFHDH-UKWJTHFESA-N
Precursor_type: [M-H]-
Spectrum_type: MS2
PrecursorMZ: 577.1358
Instrument_type: LC-ESI-TOF
Instrument: impact HD
Ion_mode: N
Collision_energy: 30
Formula: C30H26O12
MW: 578
ExactMass: 578.142426272
Comments: "cas number=20315-25-7" "SMILES=c1cc(c(cc1[C@@H]2[C@H](Cc3c(cc(c(c3O2)[C@H]4c5c(cc(cc5O[C@@H]([C@@H]4O)c6ccc(c(c6)O)O)O)O)O)O)O)O)O" "InChI=InChI=1S/C30H26O12/c31-13-7-20(37)24-23(8-13)41-29(12-2-4-16(33)19(36)6-12)27(40)26(24)25-21(38)10-17(34)14-9-22(39)28(42-30(14)25)11-1-3-15(32)18(35)5-11/h1-8,10,22,26-29,31-40H,9H2/t22-,26+,27+,28+,29+/m0/s1" "computed SMILES=OC=1C=C(O)C2=C(OC(C3=CC=C(O)C(O)=C3)C(O)C2C=4C(O)=CC(O)=C5C4OC(C6=CC=C(O)C(O)=C6)C(O)C5)C1" "computed InChI=InChI=1S/C30H26O12/c31-13-7-20(37)24-23(8-13)41-29(12-2-4-16(33)19(36)6-12)27(40)26(24)25-21(38)10-17(34)14-9-22(39)28(42-30(14)25)11-1-3-15(32)18(35)5-11/h1-8,10,22,26-29,31-40H,9H2/t22-,26?,27-,28-,29-/m1/s1" "license=License CC-BY-NC-SA 4.0 International" "author=Plant Biology, The Noble Foundation, Ardmore, OK, US/Dennis Fine, Daniel Wherritt, and Lloyd Sumner" "ionization=ESI" "isolation width=5" "collision gas=Nitrogen" "peak width=0.013" "date=2014-08-19 23:33:22+02:00" "column=Waters Acquity BEH C18 1.7um x 2.1 x 150 mm" "retention time=106.2" "raw data file=C:\Data\Confirmed standards 19_Aug_2014\Procyanidin B1 vial 375_1-E,7_01_661.d" "computed mass accuracy=1.1257801025314116" "computed mass error=6.497280000985484E-4" "SPLASH=splash10-052r-0191600000-fe7651fd7e7097baa30a" "submitter=Aiko Barsch (Bruker)" "MoNA Rating=4.583333333333334"
Num Peaks: 62
124.0482 0.100100
125.0240 19.619620
126.0281 1.701702
137.0241 2.702703
161.0240 7.607608
229.0489 1.101101
243.0306 2.102102
243.0667 1.201201
245.0451 4.904905
245.0810 8.508509
246.0861 1.301301
255.0293 1.901902
256.0351 1.101101
257.0436 1.001001
269.0445 1.601602
273.0400 5.205205
274.0436 1.101101
281.0446 1.501502
283.0234 1.301301
284.0314 1.001001
285.0401 11.511512
286.0444 4.504505
287.0549 11.311311
288.0595 2.302302
289.0723 100.000000
290.0760 15.515516
291.0803 1.201201
297.0390 1.401401
299.0549 4.604605
300.0605 1.201201
313.0337 1.101101
325.0769 0.100100
327.0513 1.701702
328.0577 1.701702
329.0663 3.303303
339.0870 4.604605
340.0899 1.001001
341.0661 1.001001
381.0993 4.504505
382.1016 1.301301
405.0613 1.301301
407.0779 63.863864
408.0823 16.816817
409.0856 2.202202
423.0711 3.403403
424.0768 1.801802
425.0874 11.911912
426.0915 3.403403
449.0885 4.704705
450.0931 2.002002
451.1019 7.807808
452.0747 1.501502
452.1084 2.002002
453.0786 1.201201
471.1071 1.101101
539.0984 3.103103
540.1022 1.501502
556.0961 1.401401
557.1033 1.101101
575.1172 1.701702
576.1218 1.001001
577.1358 2.602603


Name: Procyanidin B1
Synon: $:00in-source
DB#: MetaboBASE0948
InChIKey: XFZJEEAOWLFHDH-UKWJTHFESA-N
Precursor_type: [M-H]-
Spectrum_type: MS2
PrecursorMZ: 577.136
Instrument_type: LC-ESI-TOF
Instrument: impact HD
Ion_mode: N
Collision_energy: 20
Formula: C30H26O12
MW: 578
ExactMass: 578.142426272
Comments: "cas number=20315-25-7" "SMILES=c1cc(c(cc1[C@@H]2[C@H](Cc3c(cc(c(c3O2)[C@H]4c5c(cc(cc5O[C@@H]([C@@H]4O)c6ccc(c(c6)O)O)O)O)O)O)O)O)O" "InChI=InChI=1S/C30H26O12/c31-13-7-20(37)24-23(8-13)41-29(12-2-4-16(33)19(36)6-12)27(40)26(24)25-21(38)10-17(34)14-9-22(39)28(42-30(14)25)11-1-3-15(32)18(35)5-11/h1-8,10,22,26-29,31-40H,9H2/t22-,26+,27+,28+,29+/m0/s1" "computed SMILES=OC=1C=C(O)C2=C(OC(C3=CC=C(O)C(O)=C3)C(O)C2C=4C(O)=CC(O)=C5C4OC(C6=CC=C(O)C(O)=C6)C(O)C5)C1" "computed InChI=InChI=1S/C30H26O12/c31-13-7-20(37)24-23(8-13)41-29(12-2-4-16(33)19(36)6-12)27(40)26(24)25-21(38)10-17(34)14-9-22(39)28(42-30(14)25)11-1-3-15(32)18(35)5-11/h1-8,10,22,26-29,31-40H,9H2/t22-,26?,27-,28-,29-/m1/s1" "license=License CC-BY-NC-SA 4.0 International" "author=Plant Biology, The Noble Foundation, Ardmore, OK, US/Dennis Fine, Daniel Wherritt, and Lloyd Sumner" "ionization=ESI" "isolation width=5" "collision gas=Nitrogen" "peak width=0.011" "date=2014-08-19 23:33:22+02:00" "column=Waters Acquity BEH C18 1.7um x 2.1 x 150 mm" "retention time=106.2" "raw data file=C:\Data\Confirmed standards 19_Aug_2014\Procyanidin B1 vial 375_1-E,7_01_661.d" "computed mass accuracy=1.472318483075643" "computed mass error=8.497280000483443E-4" "SPLASH=splash10-004i-0050960000-456238d05a29305098bb" "submitter=Aiko Barsch (Bruker)" "MoNA Rating=4.583333333333334"
Num Peaks: 60
125.0241 16.716717
126.0283 1.001001
161.0248 3.703704
243.0292 1.201201
245.0448 6.906907
245.0818 2.302302
246.0495 1.101101
269.0471 1.101101
273.0400 4.304304
285.0402 13.013013
286.0453 4.804805
287.0557 31.131131
288.0601 5.905906
289.0721 99.199199
290.0769 16.016016
291.0797 1.001001
297.0398 1.501502
299.0559 9.809810
300.0602 1.901902
327.0503 1.201201
328.0547 1.301301
329.0658 3.503504
331.0813 1.901902
339.0869 1.501502
381.0967 3.203203
382.1022 1.001001
405.0591 1.301301
407.0778 73.373373
408.0818 20.220220
409.0850 2.902903
410.0972 1.001001
423.0715 13.913914
424.0770 6.906907
425.0886 96.496496
426.0930 24.624625
427.0963 3.103103
447.0705 1.801802
448.0745 1.201201
449.0875 11.611612
450.0910 4.804805
451.1039 38.138138
452.0791 3.603604
452.1078 9.109109
453.0822 3.003003
467.1002 1.301301
513.1176 1.101101
533.1456 1.801802
539.0973 4.604605
540.1039 2.202202
556.0959 3.503504
557.1063 3.703704
558.1093 1.701702
559.1238 5.405405
560.1277 1.301301
574.1084 4.304304
575.1205 29.529530
576.1237 18.818819
577.1360 100.000000
578.1411 32.232232
579.1429 5.505506


Name: Procyanidin B1
Synon: $:00in-source
DB#: MetaboBASE0949
InChIKey: XFZJEEAOWLFHDH-UKWJTHFESA-N
Precursor_type: [M-H]-
Spectrum_type: MS2
PrecursorMZ: 577.14
Instrument_type: LC-ESI-TOF
Instrument: impact HD
Ion_mode: N
Collision_energy: 50
Formula: C30H26O12
MW: 578
ExactMass: 578.142426272
Comments: "cas number=20315-25-7" "SMILES=c1cc(c(cc1[C@@H]2[C@H](Cc3c(cc(c(c3O2)[C@H]4c5c(cc(cc5O[C@@H]([C@@H]4O)c6ccc(c(c6)O)O)O)O)O)O)O)O)O" "InChI=InChI=1S/C30H26O12/c31-13-7-20(37)24-23(8-13)41-29(12-2-4-16(33)19(36)6-12)27(40)26(24)25-21(38)10-17(34)14-9-22(39)28(42-30(14)25)11-1-3-15(32)18(35)5-11/h1-8,10,22,26-29,31-40H,9H2/t22-,26+,27+,28+,29+/m0/s1" "computed SMILES=OC=1C=C(O)C2=C(OC(C3=CC=C(O)C(O)=C3)C(O)C2C=4C(O)=CC(O)=C5C4OC(C6=CC=C(O)C(O)=C6)C(O)C5)C1" "computed InChI=InChI=1S/C30H26O12/c31-13-7-20(37)24-23(8-13)41-29(12-2-4-16(33)19(36)6-12)27(40)26(24)25-21(38)10-17(34)14-9-22(39)28(42-30(14)25)11-1-3-15(32)18(35)5-11/h1-8,10,22,26-29,31-40H,9H2/t22-,26?,27-,28-,29-/m1/s1" "license=License CC-BY-NC-SA 4.0 International" "author=Plant Biology, The Noble Foundation, Ardmore, OK, US/Dennis Fine, Daniel Wherritt, and Lloyd Sumner" "ionization=ESI" "isolation width=5" "collision gas=Nitrogen" "peak width=0.016" "date=2014-08-19 23:33:22+02:00" "column=Waters Acquity BEH C18 1.7um x 2.1 x 150 mm" "retention time=106.2" "raw data file=C:\Data\Confirmed standards 19_Aug_2014\Procyanidin B1 vial 375_1-E,7_01_661.d" "computed mass accuracy=8.403035658709229" "computed mass error=0.004849728000067444" "SPLASH=splash10-0551-0690000000-0de917967e41c73de31b" "submitter=Aiko Barsch (Bruker)" "MoNA Rating=4.545454545454546"
Num Peaks: 85
109.0296 17.217217
121.0289 6.706707
122.0368 3.803804
123.0443 14.514515
125.0242 100.000000
126.0286 6.906907
137.0236 30.830831
138.0288 3.103103
139.0377 4.104104
147.0448 3.103103
149.0241 11.411411
150.0300 3.003003
151.0389 25.625626
159.0452 3.603604
161.0240 31.631632
161.0610 4.904905
162.0316 7.807808
163.0026 8.908909
163.0389 5.705706
164.0109 10.210210
165.0181 14.814815
167.0331 4.104104
175.0396 17.417417
177.0181 13.413413
179.0340 9.309309
187.0397 9.809810
188.0460 3.703704
189.0537 3.303303
202.0627 4.104104
203.0332 3.603604
203.0702 15.015015
205.0132 7.507508
205.0505 14.114114
215.0342 4.104104
217.0499 6.406406
221.0820 9.109109
225.0543 4.004004
227.0332 6.406406
227.0692 8.308308
228.0412 5.905906
229.0499 14.514515
230.0568 7.307307
231.0285 6.906907
240.0406 3.103103
241.0490 6.906907
243.0301 17.717718
243.0654 3.303303
244.0346 5.605606
245.0451 12.612613
245.0815 57.857858
246.0865 9.709710
247.0613 7.907908
255.0291 31.431431
255.0636 3.003003
256.0365 27.227227
257.0441 15.415415
258.0486 3.903904
259.0591 3.503504
269.0440 9.009009
270.0500 3.303303
271.0612 7.307307
273.0397 6.406406
281.0452 13.613614
282.0510 3.203203
283.0230 10.010010
283.0573 3.103103
284.0279 7.607608
285.0403 27.327327
286.0443 8.808809
287.0537 4.404404
289.0717 56.756757
290.0780 7.207207
297.0393 7.907908
298.0440 3.803804
299.0545 3.103103
307.0596 5.605606
315.0876 4.304304
321.0773 3.003003
339.0856 13.313313
340.0918 3.403403
363.0826 4.704705
389.0659 3.303303
407.0773 39.439439
408.0812 12.412412
471.1103 3.603604


Name: Epigallocatechin
Synon: $:00in-source
DB#: MetaboBASE0950
InChIKey: XMOCLSLCDHWDHP-IUODEOHRSA-N
Precursor_type: [M-H]-
Spectrum_type: MS2
PrecursorMZ: 305.0673
Instrument_type: LC-ESI-TOF
Instrument: impact HD
Ion_mode: N
Collision_energy: 10
Formula: C15H14O7
MW: 306
ExactMass: 306.073952788
Comments: "cas number=970-74-1" "SMILES=c1c(cc(c(c1O)O)O)[C@@H]2[C@@H](Cc3c(cc(cc3O2)O)O)O" "InChI=InChI=1S/C15H14O7/c16-7-3-9(17)8-5-12(20)15(22-13(8)4-7)6-1-10(18)14(21)11(19)2-6/h1-4,12,15-21H,5H2/t12-,15-/m1/s1" "computed SMILES=OC=1C=C(O)C2=C(OC(C3=CC(O)=C(O)C(O)=C3)C(O)C2)C1" "license=License CC-BY-NC-SA 4.0 International" "author=Plant Biology, The Noble Foundation, Ardmore, OK, US/Dennis Fine, Daniel Wherritt, and Lloyd Sumner" "ionization=ESI" "isolation width=5" "collision gas=Nitrogen" "peak width=0.016" "date=2014-08-19 21:31:04+02:00" "column=Waters Acquity BEH C18 1.7um x 2.1 x 150 mm" "retention time=103.2" "raw data file=C:\Data\Confirmed standards 19_Aug_2014\Epigallocatechin vial 372_1-E,4_01_658.d" "computed mass accuracy=2.0428672623830884" "computed mass error=6.232119999936003E-4" "SPLASH=splash10-0a4i-0029000000-82c2dfbbc69b748bc6f3" "submitter=Aiko Barsch (Bruker)" "MoNA Rating=4.583333333333334"
Num Peaks: 30
125.0238 5.105105
137.0238 3.903904
139.0393 1.201201
165.0189 4.404404
166.0231 1.101101
167.0332 1.101101
179.0343 2.902903
217.0486 1.101101
219.0654 2.202202
221.0453 1.601602
231.0650 1.001001
233.0455 1.301301
235.0617 2.702703
241.0495 2.002002
257.0451 2.002002
259.0601 4.004004
260.0649 1.601602
261.0399 1.301301
261.0761 4.904905
262.0804 1.501502
274.0481 1.601602
275.0559 8.008008
276.0605 3.803804
285.0401 6.006006
286.0443 2.802803
303.0512 23.723724
304.0565 12.712713
305.0673 100.000000
306.0721 40.240240
307.0765 3.803804


Name: Epigallocatechin
Synon: $:00in-source
DB#: MetaboBASE0951
InChIKey: XMOCLSLCDHWDHP-IUODEOHRSA-N
Precursor_type: [M-H]-
Spectrum_type: MS2
PrecursorMZ: 305.0683
Instrument_type: LC-ESI-TOF
Instrument: impact HD
Ion_mode: N
Collision_energy: 30
Formula: C15H14O7
MW: 306
ExactMass: 306.073952788
Comments: "cas number=970-74-1" "SMILES=c1c(cc(c(c1O)O)O)[C@@H]2[C@@H](Cc3c(cc(cc3O2)O)O)O" "InChI=InChI=1S/C15H14O7/c16-7-3-9(17)8-5-12(20)15(22-13(8)4-7)6-1-10(18)14(21)11(19)2-6/h1-4,12,15-21H,5H2/t12-,15-/m1/s1" "computed SMILES=OC=1C=C(O)C2=C(OC(C3=CC(O)=C(O)C(O)=C3)C(O)C2)C1" "license=License CC-BY-NC-SA 4.0 International" "author=Plant Biology, The Noble Foundation, Ardmore, OK, US/Dennis Fine, Daniel Wherritt, and Lloyd Sumner" "ionization=ESI" "isolation width=5" "collision gas=Nitrogen" "peak width=0.019" "date=2014-08-19 21:31:04+02:00" "column=Waters Acquity BEH C18 1.7um x 2.1 x 150 mm" "retention time=103.2" "raw data file=C:\Data\Confirmed standards 19_Aug_2014\Epigallocatechin vial 372_1-E,4_01_658.d" "computed mass accuracy=5.320815043801001" "computed mass error=0.0016232120000267969" "SPLASH=splash10-002r-0910000000-8dfe0ba4e2ec1225213f" "submitter=Aiko Barsch (Bruker)" "MoNA Rating=4.545454545454546"
Num Peaks: 113
109.0291 32.132132
110.0344 3.403403
111.0451 4.304304
112.0484 1.201201
119.0510 2.002002
121.0292 10.510511
122.0356 1.501502
123.0091 12.812813
123.0447 2.102102
124.0165 12.212212
125.0244 100.000000
126.0290 10.810811
131.0488 1.001001
133.0288 2.102102
133.0667 2.102102
135.0453 4.404404
137.0245 87.887888
137.0620 1.101101
138.0296 19.519520
139.0396 27.127127
140.0442 4.104104
143.0503 1.101101
145.0301 2.202202
145.0662 1.401401
147.0446 4.904905
149.0242 7.407407
149.0592 3.403403
150.0301 3.103103
151.0392 8.108108
152.0443 1.301301
153.0183 2.802803
159.0448 3.103103
160.0547 1.501502
161.0227 5.005005
161.0591 2.002002
162.0315 2.102102
163.0400 2.802803
164.0110 9.309309
164.0471 2.302302
165.0187 26.926927
165.0564 1.401401
166.0256 6.506507
167.0350 25.925926
168.0391 4.104104
171.0449 2.502503
173.0244 2.002002
173.0594 2.102102
174.0323 2.602603
175.0398 7.407407
176.0460 3.803804
177.0199 6.806807
177.0542 5.505506
178.0283 3.703704
178.0608 1.901902
179.0351 8.508509
180.0414 1.601602
181.0501 1.301301
185.0567 1.301301
186.0647 1.001001
187.0388 2.902903
188.0467 2.602603
189.0560 3.003003
190.0249 1.601602
190.0594 2.202202
191.0352 4.804805
191.0683 2.302302
192.0426 1.501502
193.0499 4.104104
198.0313 1.301301
199.0390 2.602603
200.0445 1.201201
201.0218 1.101101
201.0539 3.003003
203.0338 4.304304
204.0419 3.603604
205.0476 1.901902
207.0649 1.601602
211.0372 1.101101
212.0448 1.401401
213.0544 1.801802
215.0327 2.302302
215.0688 1.001001
216.0417 1.801802
217.0483 4.004004
218.0561 3.703704
219.0302 1.001001
219.0654 12.612613
220.0710 4.604605
221.0453 4.004004
222.0473 1.501502
227.0337 1.001001
228.0415 1.401401
229.0494 4.304304
230.0559 2.002002
232.0343 1.101101
233.0453 1.701702
234.0481 1.201201
235.0606 2.402402
237.0771 4.404404
238.0829 1.701702
239.0370 1.301301
241.0495 1.501502
242.0229 1.501502
243.0286 3.103103
243.0656 1.101101
246.0522 1.001001
257.0466 3.803804
258.0517 1.701702
259.0229 1.001001
261.0771 1.001001
274.0491 1.601602
275.0528 2.402402
285.0389 1.801802


Name: Epigallocatechin
Synon: $:00in-source
DB#: MetaboBASE0952
InChIKey: XMOCLSLCDHWDHP-IUODEOHRSA-N
Instrument_type: LC-ESI-TOF
Instrument: impact HD
Ion_mode: N
Formula: C15H14O7
MW: 306
ExactMass: 306.073952788
Comments: "cas number=970-74-1" "SMILES=c1c(cc(c(c1O)O)O)[C@@H]2[C@@H](Cc3c(cc(cc3O2)O)O)O" "InChI=InChI=1S/C15H14O7/c16-7-3-9(17)8-5-12(20)15(22-13(8)4-7)6-1-10(18)14(21)11(19)2-6/h1-4,12,15-21H,5H2/t12-,15-/m1/s1" "computed SMILES=OC=1C=C(O)C2=C(OC(C3=CC(O)=C(O)C(O)=C3)C(O)C2)C1" "license=License CC-BY-NC-SA 4.0 International" "author=Plant Biology, The Noble Foundation, Ardmore, OK, US/Dennis Fine, Daniel Wherritt, and Lloyd Sumner" "ionization=ESI" "collision gas=Nitrogen" "peak width=0.015" "date=2014-08-19 21:31:04+02:00" "column=Waters Acquity BEH C18 1.7um x 2.1 x 150 mm" "retention time=103.2" "raw data file=C:\Data\Confirmed standards 19_Aug_2014\Epigallocatechin vial 372_1-E,4_01_658.d" "SPLASH=splash10-0pb9-0019003000-c4d2b02a82d1cf14714e" "submitter=Aiko Barsch (Bruker)" "MoNA Rating=3.888888888888889"
Num Peaks: 33
235.0608 1.201201
259.0612 5.105105
260.0663 2.002002
261.0401 1.201201
261.0762 3.203203
262.0819 1.001001
275.0562 5.805806
276.0612 2.102102
277.0690 1.001001
285.0406 5.005005
286.0452 1.501502
303.0522 56.256256
304.0571 20.320320
305.0676 100.000000
306.0730 35.535536
307.0769 6.606607
308.0788 1.101101
321.0607 1.401401
556.0021 1.901902
607.1103 4.504505
608.1159 3.303303
609.1256 7.107107
610.1313 5.405405
611.1420 25.025025
612.1478 18.118118
613.1524 7.407407
614.1550 2.202202
625.1185 1.301301
626.1243 1.001001
631.1062 1.101101
913.1815 1.701702
914.1884 1.601602
915.1966 1.301301


Name: Epigallocatechin
Synon: $:00in-source
DB#: MetaboBASE0953
InChIKey: XMOCLSLCDHWDHP-IUODEOHRSA-N
Precursor_type: [M-H]-
Spectrum_type: MS2
PrecursorMZ: 305.0666
Instrument_type: LC-ESI-TOF
Instrument: impact HD
Ion_mode: N
Collision_energy: 20
Formula: C15H14O7
MW: 306
ExactMass: 306.073952788
Comments: "cas number=970-74-1" "SMILES=c1c(cc(c(c1O)O)O)[C@@H]2[C@@H](Cc3c(cc(cc3O2)O)O)O" "InChI=InChI=1S/C15H14O7/c16-7-3-9(17)8-5-12(20)15(22-13(8)4-7)6-1-10(18)14(21)11(19)2-6/h1-4,12,15-21H,5H2/t12-,15-/m1/s1" "computed SMILES=OC=1C=C(O)C2=C(OC(C3=CC(O)=C(O)C(O)=C3)C(O)C2)C1" "license=License CC-BY-NC-SA 4.0 International" "author=Plant Biology, The Noble Foundation, Ardmore, OK, US/Dennis Fine, Daniel Wherritt, and Lloyd Sumner" "ionization=ESI" "isolation width=5" "collision gas=Nitrogen" "peak width=0.019" "date=2014-08-19 21:31:04+02:00" "column=Waters Acquity BEH C18 1.7um x 2.1 x 150 mm" "retention time=103.2" "raw data file=C:\Data\Confirmed standards 19_Aug_2014\Epigallocatechin vial 372_1-E,4_01_658.d" "computed mass accuracy=0.25170897109423174" "computed mass error=-7.678800000121555E-5" "SPLASH=splash10-00p0-0951000000-95142c4b42b35c4bdac9" "submitter=Aiko Barsch (Bruker)" "MoNA Rating=4.615384615384616"
Num Peaks: 126
109.0295 10.410410
110.0351 2.502503
111.0455 3.703704
121.0285 3.703704
123.0080 5.105105
123.0460 1.301301
124.0160 4.004004
125.0246 100.000000
126.0299 14.014014
133.0273 1.001001
135.0442 1.901902
137.0246 69.269269
138.0303 13.813814
139.0398 27.027027
140.0446 3.303303
149.0236 5.505506
149.0589 1.101101
150.0320 3.603604
151.0396 6.906907
152.0452 1.601602
153.0177 1.801802
159.0441 2.402402
161.0239 3.203203
161.0594 1.101101
162.0320 1.201201
163.0400 1.401401
164.0109 6.506507
165.0191 48.848849
166.0246 10.810811
167.0349 30.430430
168.0392 4.104104
171.0438 1.301301
173.0243 1.001001
173.0588 2.102102
174.0307 1.501502
175.0389 4.804805
176.0444 2.302302
177.0188 12.112112
177.0556 5.505506
178.0254 4.504505
179.0344 27.027027
180.0401 6.306306
181.0499 1.801802
185.0596 1.301301
187.0395 1.301301
188.0447 1.501502
189.0541 4.504505
190.0607 1.101101
191.0351 6.406406
191.0704 3.503504
192.0419 1.001001
192.0760 1.101101
193.0500 4.004004
199.0392 2.902903
201.0565 2.202202
203.0332 5.605606
203.0687 1.301301
204.0416 4.804805
205.0490 1.701702
207.0661 5.505506
208.0719 1.901902
213.0556 2.902903
214.0619 1.101101
215.0345 3.203203
215.0695 2.102102
216.0432 1.601602
217.0506 8.508509
218.0564 5.005005
219.0298 1.401401
219.0656 28.428428
220.0705 9.509510
221.0450 18.418418
222.0495 5.105105
227.0344 1.301301
228.0410 1.301301
229.0487 3.203203
230.0571 2.302302
231.0662 6.006006
232.0727 2.502503
233.0440 6.706707
233.0795 2.602603
234.0528 2.302302
234.0893 1.101101
235.0608 8.208208
236.0644 2.802803
237.0758 8.708709
238.0826 2.502503
239.0320 1.901902
241.0501 6.006006
242.0205 1.301301
242.0564 3.003003
243.0285 4.704705
243.0650 5.605606
244.0339 1.601602
244.0704 1.901902
245.0090 1.001001
245.0440 2.302302
246.0500 1.601602
247.0259 1.301301
256.0374 1.401401
257.0456 10.210210
258.0507 4.704705
259.0237 2.202202
259.0607 4.004004
260.0301 1.601602
260.0659 1.301301
261.0417 2.102102
261.0769 14.814815
262.0819 6.106106
263.0567 2.702703
264.0577 1.001001
267.0296 1.501502
269.0428 1.301301
274.0481 10.410410
275.0551 11.111111
276.0611 5.305305
277.0674 1.201201
285.0399 8.208208
286.0469 4.304304
287.0549 2.902903
288.0573 1.201201
303.0508 4.704705
304.0555 3.203203
305.0666 40.940941
306.0714 17.917918
307.0743 2.502503


Name: Dihydrokaempferol
Synon: $:00in-source
DB#: MetaboBASE0954
InChIKey: PADQINQHPQKXNL-UHFFFAOYSA-N
Instrument_type: LC-ESI-TOF
Instrument: impact HD
Ion_mode: N
Collision_energy: 10
Formula: C15H12O6
MW: 288
ExactMass: 288.06338810399996
Comments: "cas number=480-20-6" "SMILES=c1cc(ccc1C2C(C(=O)c3c(cc(cc3O2)O)O)O)O" "InChI=InChI=1S/C15H12O6/c16-8-3-1-7(2-4-8)15-14(20)13(19)12-10(18)5-9(17)6-11(12)21-15/h1-6,14-18,20H" "computed SMILES=O=C1C=2C(O)=CC(O)=CC2OC(C3=CC=C(O)C=C3)C1O" "license=License CC-BY-NC-SA 4.0 International" "author=Plant Biology, The Noble Foundation, Ardmore, OK, US/Dennis Fine, Daniel Wherritt, and Lloyd Sumner" "ionization=ESI" "collision gas=Nitrogen" "peak width=0.011" "date=2014-08-28 01:23:50+02:00" "column=Waters Acquity BEH C18 1.7um x 2.1 x 150 mm" "retention time=349.8" "raw data file=C:\Data\Confirmed standards 27_Aug_2014\Dihydrokaempferol vial 335_1-A,6_01_709.d" "SPLASH=splash10-000i-0090000000-2af99797077ebf598849" "submitter=Aiko Barsch (Bruker)" "MoNA Rating=4.444444444444445"
Num Peaks: 17
125.0242 2.002002
151.0034 1.101101
201.0554 1.101101
243.0665 8.808809
244.0692 1.401401
259.0618 49.249249
260.0648 8.308308
261.0662 1.201201
269.0451 2.102102
287.0568 100.000000
287.5923 1.601602
288.0599 17.917918
289.0613 2.802803
575.1196 4.104104
576.1224 1.401401
597.1013 3.403403
598.1037 1.201201


Name: Dihydrokaempferol
Synon: $:00in-source
DB#: MetaboBASE0955
InChIKey: PADQINQHPQKXNL-UHFFFAOYSA-N
Precursor_type: [M-H]-
Spectrum_type: MS2
PrecursorMZ: 287.1
Instrument_type: LC-ESI-TOF
Instrument: impact HD
Ion_mode: N
Collision_energy: 40
Formula: C15H12O6
MW: 288
ExactMass: 288.06338810399996
Comments: "cas number=480-20-6" "SMILES=c1cc(ccc1C2C(C(=O)c3c(cc(cc3O2)O)O)O)O" "InChI=InChI=1S/C15H12O6/c16-8-3-1-7(2-4-8)15-14(20)13(19)12-10(18)5-9(17)6-11(12)21-15/h1-6,14-18,20H" "computed SMILES=O=C1C=2C(O)=CC(O)=CC2OC(C3=CC=C(O)C=C3)C1O" "license=License CC-BY-NC-SA 4.0 International" "author=Plant Biology, The Noble Foundation, Ardmore, OK, US/Dennis Fine, Daniel Wherritt, and Lloyd Sumner" "ionization=ESI" "isolation width=5" "collision gas=Nitrogen" "peak width=0.021" "date=2014-08-28 20:10:15+02:00" "column=Waters Acquity BEH C18 1.7um x 2.1 x 150 mm" "retention time=349.8" "raw data file=C:\Data\Confirmed standards 27_Aug_2014\Dihydrokaempferol vial 335 MS2_1-A,6_01_718.d" "computed mass accuracy=152.86623476160895" "computed mass error=0.043887896000057935" "SPLASH=splash10-004i-0900000000-dac0431ed5084c21d19b" "submitter=Aiko Barsch (Bruker)" "MoNA Rating=4.545454545454546"
Num Peaks: 41
105.0354 2.302302
107.0149 4.204204
107.0514 4.304304
109.0303 2.302302
117.0356 4.304304
119.0515 2.402402
121.0308 5.005005
124.0181 19.319319
125.0265 100.000000
126.0293 4.804805
130.0439 8.608609
131.0519 14.814815
133.0311 15.015015
134.0387 10.210210
135.0464 9.609610
137.0258 2.902903
143.0516 4.804805
145.0312 2.602603
145.0675 2.602603
149.0625 5.405405
151.0055 21.621622
152.0132 15.615616
153.0206 7.207207
155.0519 2.702703
156.0597 3.603604
157.0669 3.303303
158.0390 3.803804
159.0464 4.504505
169.0678 3.903904
171.0466 4.004004
172.0541 3.103103
173.0627 7.307307
177.0583 43.943944
178.0610 3.803804
179.0004 2.102102
185.0621 2.202202
197.0618 2.502503
199.0423 2.502503
201.0578 5.305305
213.0584 8.608609
241.0529 4.204204


Name: Dihydrokaempferol
Synon: $:00in-source
DB#: MetaboBASE0956
InChIKey: PADQINQHPQKXNL-UHFFFAOYSA-N
Precursor_type: [M-H]-
Spectrum_type: MS2
PrecursorMZ: 287.1
Instrument_type: LC-ESI-TOF
Instrument: impact HD
Ion_mode: N
Collision_energy: 50
Formula: C15H12O6
MW: 288
ExactMass: 288.06338810399996
Comments: "cas number=480-20-6" "SMILES=c1cc(ccc1C2C(C(=O)c3c(cc(cc3O2)O)O)O)O" "InChI=InChI=1S/C15H12O6/c16-8-3-1-7(2-4-8)15-14(20)13(19)12-10(18)5-9(17)6-11(12)21-15/h1-6,14-18,20H" "computed SMILES=O=C1C=2C(O)=CC(O)=CC2OC(C3=CC=C(O)C=C3)C1O" "license=License CC-BY-NC-SA 4.0 International" "author=Plant Biology, The Noble Foundation, Ardmore, OK, US/Dennis Fine, Daniel Wherritt, and Lloyd Sumner" "ionization=ESI" "isolation width=5" "collision gas=Nitrogen" "peak width=0.021" "date=2014-08-28 20:10:15+02:00" "column=Waters Acquity BEH C18 1.7um x 2.1 x 150 mm" "retention time=349.8" "raw data file=C:\Data\Confirmed standards 27_Aug_2014\Dihydrokaempferol vial 335 MS2_1-A,6_01_718.d" "computed mass accuracy=152.86623476160895" "computed mass error=0.043887896000057935" "SPLASH=splash10-003r-0900000000-17240f5d8dec7fce6d9a" "submitter=Aiko Barsch (Bruker)" "MoNA Rating=4.545454545454546"
Num Peaks: 37
105.0357 6.006006
107.0151 8.808809
107.0514 11.911912
109.0304 5.805806
117.0359 24.024024
119.0517 9.109109
121.0310 14.914915
124.0182 34.134134
125.0261 100.000000
126.0291 5.505506
129.0360 6.006006
130.0440 41.541542
131.0515 28.628629
132.0230 19.219219
133.0310 43.343343
134.0384 30.030030
135.0462 17.317317
137.0257 5.705706
143.0519 21.721722
145.0313 6.106106
145.0675 5.205205
149.0621 7.607608
151.0051 26.626627
152.0124 8.208208
153.0207 6.506507
154.0436 5.805806
155.0514 7.307307
156.0594 7.307307
158.0389 9.709710
159.0457 6.806807
167.0523 6.506507
169.0678 9.709710
171.0470 11.611612
172.0548 5.205205
177.0575 19.019019
185.0623 5.505506
213.0579 8.308308


Name: Dihydrokaempferol
Synon: $:00in-source
DB#: MetaboBASE0957
InChIKey: PADQINQHPQKXNL-UHFFFAOYSA-N
Precursor_type: [M-H]-
Spectrum_type: MS2
PrecursorMZ: 287.0605
Instrument_type: LC-ESI-TOF
Instrument: impact HD
Ion_mode: N
Collision_energy: 10
Formula: C15H12O6
MW: 288
ExactMass: 288.06338810399996
Comments: "cas number=480-20-6" "SMILES=c1cc(ccc1C2C(C(=O)c3c(cc(cc3O2)O)O)O)O" "InChI=InChI=1S/C15H12O6/c16-8-3-1-7(2-4-8)15-14(20)13(19)12-10(18)5-9(17)6-11(12)21-15/h1-6,14-18,20H" "computed SMILES=O=C1C=2C(O)=CC(O)=CC2OC(C3=CC=C(O)C=C3)C1O" "license=License CC-BY-NC-SA 4.0 International" "author=Plant Biology, The Noble Foundation, Ardmore, OK, US/Dennis Fine, Daniel Wherritt, and Lloyd Sumner" "ionization=ESI" "isolation width=5" "collision gas=Nitrogen" "peak width=0.018" "date=2014-08-28 20:10:15+02:00" "column=Waters Acquity BEH C18 1.7um x 2.1 x 150 mm" "retention time=349.8" "raw data file=C:\Data\Confirmed standards 27_Aug_2014\Dihydrokaempferol vial 335 MS2_1-A,6_01_718.d" "computed mass accuracy=15.285614008286228" "computed mass error=0.004387896000025648" "SPLASH=splash10-000i-0090000000-aff4c97bc526698e5107" "submitter=Aiko Barsch (Bruker)" "MoNA Rating=4.545454545454546"
Num Peaks: 29
125.0262 3.403403
126.0289 0.200200
151.0054 0.600601
152.0122 0.200200
179.0003 0.600601
180.0083 0.700701
181.0146 0.100100
199.0782 0.200200
201.0576 0.700701
215.0724 0.200200
219.0683 0.200200
241.0530 0.100100
243.0696 7.207207
244.0723 0.800801
259.0651 54.354354
259.0914 0.100100
259.5742 0.300300
260.0680 5.605606
261.0693 0.500501
269.0485 1.301301
270.0516 0.200200
287.0309 0.300300
287.0605 100.000000
287.0947 0.200200
287.3604 0.600601
287.5714 0.600601
287.5961 1.401401
288.0637 14.814815
289.0646 1.001001


Name: Dihydrokaempferol
Synon: $:00in-source
DB#: MetaboBASE0958
InChIKey: PADQINQHPQKXNL-UHFFFAOYSA-N
Instrument_type: LC-ESI-TOF
Instrument: impact HD
Ion_mode: N
Formula: C15H12O6
MW: 288
ExactMass: 288.06338810399996
Comments: "cas number=480-20-6" "SMILES=c1cc(ccc1C2C(C(=O)c3c(cc(cc3O2)O)O)O)O" "InChI=InChI=1S/C15H12O6/c16-8-3-1-7(2-4-8)15-14(20)13(19)12-10(18)5-9(17)6-11(12)21-15/h1-6,14-18,20H" "computed SMILES=O=C1C=2C(O)=CC(O)=CC2OC(C3=CC=C(O)C=C3)C1O" "license=License CC-BY-NC-SA 4.0 International" "author=Plant Biology, The Noble Foundation, Ardmore, OK, US/Dennis Fine, Daniel Wherritt, and Lloyd Sumner" "ionization=ESI" "collision gas=Nitrogen" "peak width=0.017" "date=2014-08-28 20:10:15+02:00" "column=Waters Acquity BEH C18 1.7um x 2.1 x 150 mm" "retention time=349.8" "raw data file=C:\Data\Confirmed standards 27_Aug_2014\Dihydrokaempferol vial 335 MS2_1-A,6_01_718.d" "SPLASH=splash10-000i-0090000000-d5acb1405d586360cbd5" "submitter=Aiko Barsch (Bruker)" "MoNA Rating=3.888888888888889"
Num Peaks: 32
125.0255 0.200200
151.0049 0.100100
243.0692 3.103103
244.0719 0.400400
259.0649 27.727728
260.0680 3.403403
261.0695 0.500501
269.0485 0.800801
270.0510 0.100100
287.0276 0.300300
287.0597 100.000000
287.0997 0.200200
287.3602 1.201201
287.5693 1.101101
287.5964 2.002002
288.0637 25.425425
289.0654 2.902903
290.0668 0.300300
575.1273 2.302302
576.1297 0.800801
577.1328 0.200200
597.1079 1.501502
598.1100 0.500501
599.1127 0.100100
601.5826 0.100100
863.1948 0.500501
864.1978 0.200200
901.1381 0.100100
1151.2639 0.100100
1151.7689 0.100100
1204.1731 0.300300
1205.1735 0.200200


Name: Dihydrokaempferol
Synon: $:00in-source
DB#: MetaboBASE0959
InChIKey: PADQINQHPQKXNL-UHFFFAOYSA-N
Precursor_type: [M-H]-
Spectrum_type: MS2
PrecursorMZ: 287.0576
Instrument_type: LC-ESI-TOF
Instrument: impact HD
Ion_mode: N
Collision_energy: 20
Formula: C15H12O6
MW: 288
ExactMass: 288.06338810399996
Comments: "cas number=480-20-6" "SMILES=c1cc(ccc1C2C(C(=O)c3c(cc(cc3O2)O)O)O)O" "InChI=InChI=1S/C15H12O6/c16-8-3-1-7(2-4-8)15-14(20)13(19)12-10(18)5-9(17)6-11(12)21-15/h1-6,14-18,20H" "computed SMILES=O=C1C=2C(O)=CC(O)=CC2OC(C3=CC=C(O)C=C3)C1O" "license=License CC-BY-NC-SA 4.0 International" "author=Plant Biology, The Noble Foundation, Ardmore, OK, US/Dennis Fine, Daniel Wherritt, and Lloyd Sumner" "ionization=ESI" "isolation width=5" "collision gas=Nitrogen" "peak width=0.019" "date=2014-08-28 20:10:15+02:00" "column=Waters Acquity BEH C18 1.7um x 2.1 x 150 mm" "retention time=349.8" "raw data file=C:\Data\Confirmed standards 27_Aug_2014\Dihydrokaempferol vial 335 MS2_1-A,6_01_718.d" "computed mass accuracy=5.183266354956788" "computed mass error=0.0014878960000146435" "SPLASH=splash10-0a6r-0590000000-be37c559aeb1a6bd9f11" "submitter=Aiko Barsch (Bruker)" "MoNA Rating=4.545454545454546"
Num Peaks: 37
109.0290 0.600601
124.0159 0.600601
125.0246 72.272272
126.0276 3.103103
133.0292 1.201201
135.0448 0.700701
151.0039 8.508509
152.0114 8.708709
153.0185 2.602603
156.0576 0.600601
157.0654 1.101101
159.0446 0.900901
173.0604 1.901902
177.0561 8.408408
178.0587 0.700701
178.9986 2.902903
180.0064 4.404404
181.0124 0.700701
199.0762 2.902903
201.0562 8.508509
202.0589 0.900901
203.0349 1.501502
215.0716 4.804805
216.0746 0.600601
219.0667 3.903904
225.0558 1.101101
241.0512 2.702703
243.0674 21.321321
244.0701 2.702703
245.0458 0.900901
259.0626 100.000000
260.0656 11.511512
261.0667 0.900901
269.0462 5.605606
270.0491 0.800801
287.0576 23.323323
288.0603 3.503504


Name: Dihydrokaempferol
Synon: $:00in-source
DB#: MetaboBASE0960
InChIKey: PADQINQHPQKXNL-UHFFFAOYSA-N
Precursor_type: [M-H]-
Spectrum_type: MS2
PrecursorMZ: 287.0594
Instrument_type: LC-ESI-TOF
Instrument: impact HD
Ion_mode: N
Collision_energy: 30
Formula: C15H12O6
MW: 288
ExactMass: 288.06338810399996
Comments: "cas number=480-20-6" "SMILES=c1cc(ccc1C2C(C(=O)c3c(cc(cc3O2)O)O)O)O" "InChI=InChI=1S/C15H12O6/c16-8-3-1-7(2-4-8)15-14(20)13(19)12-10(18)5-9(17)6-11(12)21-15/h1-6,14-18,20H" "computed SMILES=O=C1C=2C(O)=CC(O)=CC2OC(C3=CC=C(O)C=C3)C1O" "license=License CC-BY-NC-SA 4.0 International" "author=Plant Biology, The Noble Foundation, Ardmore, OK, US/Dennis Fine, Daniel Wherritt, and Lloyd Sumner" "ionization=ESI" "isolation width=5" "collision gas=Nitrogen" "peak width=0.02" "date=2014-08-28 20:10:15+02:00" "column=Waters Acquity BEH C18 1.7um x 2.1 x 150 mm" "retention time=349.8" "raw data file=C:\Data\Confirmed standards 27_Aug_2014\Dihydrokaempferol vial 335 MS2_1-A,6_01_718.d" "computed mass accuracy=11.4537130643259" "computed mass error=0.003287896000017554" "SPLASH=splash10-004i-0910000000-d8e3d996ea29ae16f181" "submitter=Aiko Barsch (Bruker)" "MoNA Rating=4.545454545454546"
Num Peaks: 44
107.0150 2.302302
109.0307 1.201201
121.0310 1.701702
124.0181 5.205205
125.0265 100.000000
126.0293 4.504505
130.0436 1.401401
131.0518 4.404404
133.0312 4.904905
134.0384 2.702703
135.0466 3.803804
137.0258 1.101101
149.0622 1.701702
151.0059 19.519520
152.0135 18.718719
153.0206 6.406406
156.0597 1.701702
157.0673 2.702703
158.0390 1.001001
159.0468 2.802803
165.0208 1.301301
172.0548 2.102102
173.0631 7.807808
175.0419 1.701702
176.0134 1.101101
177.0584 41.841842
178.0611 3.303303
179.0005 2.002002
180.0078 1.201201
197.0627 1.501502
199.0419 1.001001
199.0786 1.201201
200.0493 1.001001
201.0583 7.907908
203.0371 1.601602
213.0584 3.803804
215.0738 5.105105
219.0681 1.701702
225.0583 2.002002
241.0534 5.705706
243.0686 3.103103
259.0646 14.014014
260.0671 1.901902
269.0486 4.404404


Name: Luteolin 7-O-glucoside
Synon: Cynaroside
Synon: $:00in-source
DB#: MetaboBASE0961
InChIKey: PEFNSGRTCBGNAN-QNDFHXLGSA-N
Instrument_type: LC-ESI-TOF
Instrument: impact HD
Ion_mode: N
Collision_energy: 10
Formula: C21H20O11
MW: 448
ExactMass: 448.10056146
Comments: "cas number=26811-41-6" "SMILES=c1cc(c(cc1c2cc(=O)c3c(cc(cc3o2)O[C@H]4[C@@H]([C@H]([C@@H]([C@H](O4)CO)O)O)O)O)O)O" "InChI=InChI=1S/C21H20O11/c22-7-16-18(27)19(28)20(29)21(32-16)30-9-4-12(25)17-13(26)6-14(31-15(17)5-9)8-1-2-10(23)11(24)3-8/h1-6,16,18-25,27-29H,7H2/t16-,18-,19+,20-,21-/m1/s1" "computed SMILES=O=C1C=C(OC2=CC(OC3OC(CO)C(O)C(O)C3O)=CC(O)=C12)C=4C=CC(O)=C(O)C4" "license=License CC-BY-NC-SA 4.0 International" "author=Plant Biology, The Noble Foundation, Ardmore, OK, US/Dennis Fine, Daniel Wherritt, and Lloyd Sumner" "ionization=ESI" "collision gas=Nitrogen" "peak width=0.014" "date=2014-08-28 04:06:45+02:00" "column=Waters Acquity BEH C18 1.7um x 2.1 x 150 mm" "retention time=324.6" "raw data file=C:\Data\Confirmed standards 27_Aug_2014\Luteolin 7-O-glucoside v386_1-B,2_01_713.d" "SPLASH=splash10-0002-0010900030-c10d893db863fa97d0a8" "submitter=Aiko Barsch (Bruker)" "MoNA Rating=4.444444444444445"
Num Peaks: 21
283.0245 16.416416
284.0272 2.802803
325.0343 1.801802
419.0972 3.203203
445.0770 11.011011
446.0814 4.304304
447.0938 100.000000
448.0966 25.125125
449.0982 5.305305
463.0868 3.003003
513.0636 3.003003
514.0698 1.601602
515.0773 1.601602
556.0020 4.504505
565.0279 2.002002
893.1776 14.614615
894.1804 7.007007
895.1929 24.924925
896.1962 11.511512
897.1985 3.703704
915.1583 2.702703


Name: Oroxylin A
Synon: $:00in-source
DB#: MetaboBASE0962
InChIKey: LKOJGSWUMISDOF-UHFFFAOYSA-N
Precursor_type: [M-H]-
Spectrum_type: MS2
PrecursorMZ: 283.0597
Instrument_type: LC-ESI-TOF
Instrument: impact HD
Ion_mode: N
Collision_energy: 20
Formula: C16H12O5
MW: 284
ExactMass: 284.068473484
Comments: "cas number=480-11-5" "SMILES=COc1c(cc2c(c1O)c(=O)cc(o2)c3ccccc3)O" "InChI=InChI=1S/C16H12O5/c1-20-16-11(18)8-13-14(15(16)19)10(17)7-12(21-13)9-5-3-2-4-6-9/h2-8,18-19H,1H3" "computed SMILES=O=C1C=C(OC2=CC(O)=C(OC)C(O)=C12)C=3C=CC=CC3" "license=License CC-BY-NC-SA 4.0 International" "author=Plant Biology, The Noble Foundation, Ardmore, OK, US/Dennis Fine, Daniel Wherritt, and Lloyd Sumner" "ionization=ESI" "isolation width=5" "collision gas=Nitrogen" "peak width=0.012" "date=2014-08-28 19:29:26+02:00" "column=Waters Acquity BEH C18 1.7um x 2.1 x 150 mm" "retention time=807.6" "raw data file=C:\Data\Confirmed standards 27_Aug_2014\Oroxylin A vial 315 MSMS_1-A,5_01_717.d" "computed mass accuracy=5.290346877247159" "computed mass error=-0.0014974839999695178" "SPLASH=splash10-014i-0090000000-eb4f5f1dc538f545d51d" "submitter=Aiko Barsch (Bruker)" "MoNA Rating=4.545454545454546"
Num Peaks: 5
239.0353 4.004004
267.0288 9.609610
268.0370 100.000000
269.0399 12.412412
283.0597 4.904905


Name: Oroxylin A
Synon: $:00in-source
DB#: MetaboBASE0963
InChIKey: LKOJGSWUMISDOF-UHFFFAOYSA-N
Instrument_type: LC-ESI-TOF
Instrument: impact HD
Ion_mode: N
Formula: C16H12O5
MW: 284
ExactMass: 284.068473484
Comments: "cas number=480-11-5" "SMILES=COc1c(cc2c(c1O)c(=O)cc(o2)c3ccccc3)O" "InChI=InChI=1S/C16H12O5/c1-20-16-11(18)8-13-14(15(16)19)10(17)7-12(21-13)9-5-3-2-4-6-9/h2-8,18-19H,1H3" "computed SMILES=O=C1C=C(OC2=CC(O)=C(OC)C(O)=C12)C=3C=CC=CC3" "license=License CC-BY-NC-SA 4.0 International" "author=Plant Biology, The Noble Foundation, Ardmore, OK, US/Dennis Fine, Daniel Wherritt, and Lloyd Sumner" "ionization=ESI" "collision gas=Nitrogen" "peak width=0.013" "date=2014-08-28 19:29:26+02:00" "column=Waters Acquity BEH C18 1.7um x 2.1 x 150 mm" "retention time=807.6" "raw data file=C:\Data\Confirmed standards 27_Aug_2014\Oroxylin A vial 315 MSMS_1-A,5_01_717.d" "SPLASH=splash10-001i-0090000000-f10240ae5ea536513625" "submitter=Aiko Barsch (Bruker)" "MoNA Rating=3.888888888888889"
Num Peaks: 9
267.0290 12.812813
268.0363 20.820821
269.0392 3.103103
282.0521 10.010010
283.0603 100.000000
284.0633 15.615616
589.1096 5.905906
1186.1552 3.203203
1187.1583 2.302302


Name: Oroxylin A
Synon: $:00in-source
DB#: MetaboBASE0964
InChIKey: LKOJGSWUMISDOF-UHFFFAOYSA-N
Precursor_type: [M-H]-
Spectrum_type: MS2
PrecursorMZ: 283.1
Instrument_type: LC-ESI-TOF
Instrument: impact HD
Ion_mode: N
Collision_energy: 30
Formula: C16H12O5
MW: 284
ExactMass: 284.068473484
Comments: "cas number=480-11-5" "SMILES=COc1c(cc2c(c1O)c(=O)cc(o2)c3ccccc3)O" "InChI=InChI=1S/C16H12O5/c1-20-16-11(18)8-13-14(15(16)19)10(17)7-12(21-13)9-5-3-2-4-6-9/h2-8,18-19H,1H3" "computed SMILES=O=C1C=C(OC2=CC(O)=C(OC)C(O)=C12)C=3C=CC=CC3" "license=License CC-BY-NC-SA 4.0 International" "author=Plant Biology, The Noble Foundation, Ardmore, OK, US/Dennis Fine, Daniel Wherritt, and Lloyd Sumner" "ionization=ESI" "isolation width=5" "collision gas=Nitrogen" "peak width=0.019" "date=2014-08-28 19:29:26+02:00" "column=Waters Acquity BEH C18 1.7um x 2.1 x 150 mm" "retention time=807.6" "raw data file=C:\Data\Confirmed standards 27_Aug_2014\Oroxylin A vial 315 MSMS_1-A,5_01_717.d" "computed mass accuracy=137.06293182632453" "computed mass error=0.03880251600003248" "SPLASH=splash10-014i-0190000000-52f76872511cbf4d32fc" "submitter=Aiko Barsch (Bruker)" "MoNA Rating=4.545454545454546"
Num Peaks: 14
110.0003 3.903904
136.9874 2.402402
137.9946 2.102102
163.0024 3.103103
165.9898 12.712713
184.0518 4.804805
211.0386 3.403403
223.0383 4.904905
224.0452 2.102102
239.0339 23.823824
240.0396 7.907908
267.0284 13.413413
268.0366 100.000000
269.0394 13.413413


Name: Oroxylin A
Synon: $:00in-source
DB#: MetaboBASE0965
InChIKey: LKOJGSWUMISDOF-UHFFFAOYSA-N
Precursor_type: [M-H]-
Spectrum_type: MS2
PrecursorMZ: 283.1
Instrument_type: LC-ESI-TOF
Instrument: impact HD
Ion_mode: N
Collision_energy: 40
Formula: C16H12O5
MW: 284
ExactMass: 284.068473484
Comments: "cas number=480-11-5" "SMILES=COc1c(cc2c(c1O)c(=O)cc(o2)c3ccccc3)O" "InChI=InChI=1S/C16H12O5/c1-20-16-11(18)8-13-14(15(16)19)10(17)7-12(21-13)9-5-3-2-4-6-9/h2-8,18-19H,1H3" "computed SMILES=O=C1C=C(OC2=CC(O)=C(OC)C(O)=C12)C=3C=CC=CC3" "license=License CC-BY-NC-SA 4.0 International" "author=Plant Biology, The Noble Foundation, Ardmore, OK, US/Dennis Fine, Daniel Wherritt, and Lloyd Sumner" "ionization=ESI" "isolation width=5" "collision gas=Nitrogen" "peak width=0.02" "date=2014-08-28 19:29:26+02:00" "column=Waters Acquity BEH C18 1.7um x 2.1 x 150 mm" "retention time=807.6" "raw data file=C:\Data\Confirmed standards 27_Aug_2014\Oroxylin A vial 315 MSMS_1-A,5_01_717.d" "computed mass accuracy=137.06293182632453" "computed mass error=0.03880251600003248" "SPLASH=splash10-02ti-0960000000-a6a20a9f71f7e04fa942" "submitter=Aiko Barsch (Bruker)" "MoNA Rating=4.545454545454546"
Num Peaks: 28
110.0001 89.389389
111.0037 4.304304
115.0545 7.107107
135.0075 8.008008
136.9872 37.337337
137.9940 21.621622
139.0543 37.237237
140.0575 3.303303
143.0489 8.408408
156.0564 4.904905
163.0024 26.226226
165.9898 81.481481
167.0489 15.015015
171.0429 6.906907
183.0438 8.808809
184.0511 21.121121
190.9966 4.504505
195.0438 15.615616
196.0487 3.803804
211.0385 31.731732
212.0435 6.606607
223.0379 25.725726
224.0433 7.107107
239.0331 100.000000
240.0380 22.922923
267.0279 42.842843
268.0352 66.666667
269.0384 10.010010


Name: Oroxylin A
Synon: $:00in-source
DB#: MetaboBASE0966
InChIKey: LKOJGSWUMISDOF-UHFFFAOYSA-N
Precursor_type: [M-H]-
Spectrum_type: MS2
PrecursorMZ: 283.1
Instrument_type: LC-ESI-TOF
Instrument: impact HD
Ion_mode: N
Collision_energy: 50
Formula: C16H12O5
MW: 284
ExactMass: 284.068473484
Comments: "cas number=480-11-5" "SMILES=COc1c(cc2c(c1O)c(=O)cc(o2)c3ccccc3)O" "InChI=InChI=1S/C16H12O5/c1-20-16-11(18)8-13-14(15(16)19)10(17)7-12(21-13)9-5-3-2-4-6-9/h2-8,18-19H,1H3" "computed SMILES=O=C1C=C(OC2=CC(O)=C(OC)C(O)=C12)C=3C=CC=CC3" "license=License CC-BY-NC-SA 4.0 International" "author=Plant Biology, The Noble Foundation, Ardmore, OK, US/Dennis Fine, Daniel Wherritt, and Lloyd Sumner" "ionization=ESI" "isolation width=5" "collision gas=Nitrogen" "peak width=0.021" "date=2014-08-28 19:29:26+02:00" "column=Waters Acquity BEH C18 1.7um x 2.1 x 150 mm" "retention time=807.6" "raw data file=C:\Data\Confirmed standards 27_Aug_2014\Oroxylin A vial 315 MSMS_1-A,5_01_717.d" "computed mass accuracy=137.06293182632453" "computed mass error=0.03880251600003248" "SPLASH=splash10-01p9-0920000000-7aaa9640d85177e2e6b5" "submitter=Aiko Barsch (Bruker)" "MoNA Rating=4.545454545454546"
Num Peaks: 32
110.0002 100.000000
111.0035 4.604605
115.0541 14.214214
117.0341 2.102102
119.0137 3.403403
120.9940 2.902903
127.0544 5.505506
135.0082 10.110110
136.9870 38.538539
137.9932 12.912913
139.0541 59.459459
140.0576 6.706707
141.0368 5.205205
143.0493 12.112112
145.0417 2.402402
155.0477 4.204204
163.0019 15.515516
165.9893 25.825826
167.0492 24.424424
168.0534 2.502503
171.0441 8.108108
183.0441 12.412412
184.0505 4.304304
195.0434 17.817818
211.0393 25.525526
212.0423 3.203203
223.0385 10.810811
224.0400 2.102102
239.0329 49.049049
240.0386 5.805806
267.0280 10.610611
268.0332 4.904905


Name: Oroxylin A
Synon: $:00in-source
DB#: MetaboBASE0967
InChIKey: LKOJGSWUMISDOF-UHFFFAOYSA-N
Precursor_type: [M-H]-
Spectrum_type: MS2
PrecursorMZ: 283.0604
Instrument_type: LC-ESI-TOF
Instrument: impact HD
Ion_mode: N
Collision_energy: 10
Formula: C16H12O5
MW: 284
ExactMass: 284.068473484
Comments: "cas number=480-11-5" "SMILES=COc1c(cc2c(c1O)c(=O)cc(o2)c3ccccc3)O" "InChI=InChI=1S/C16H12O5/c1-20-16-11(18)8-13-14(15(16)19)10(17)7-12(21-13)9-5-3-2-4-6-9/h2-8,18-19H,1H3" "computed SMILES=O=C1C=C(OC2=CC(O)=C(OC)C(O)=C12)C=3C=CC=CC3" "license=License CC-BY-NC-SA 4.0 International" "author=Plant Biology, The Noble Foundation, Ardmore, OK, US/Dennis Fine, Daniel Wherritt, and Lloyd Sumner" "ionization=ESI" "isolation width=5" "collision gas=Nitrogen" "peak width=0.012" "date=2014-08-28 19:29:26+02:00" "column=Waters Acquity BEH C18 1.7um x 2.1 x 150 mm" "retention time=807.6" "raw data file=C:\Data\Confirmed standards 27_Aug_2014\Oroxylin A vial 315 MSMS_1-A,5_01_717.d" "computed mass accuracy=2.8173633612285642" "computed mass error=-7.974839999747019E-4" "SPLASH=splash10-00lr-0090000000-f4adfb9b6320b2c87c9b" "submitter=Aiko Barsch (Bruker)" "MoNA Rating=4.583333333333334"
Num Peaks: 6
267.0287 12.212212
268.0368 49.949950
269.0395 5.805806
282.0516 2.602603
283.0604 100.000000
284.0633 14.314314


Name: 3-Hydroxy-4-methoxycinnamic acid
Synon: isoferulic acid
Synon: $:00in-source
DB#: MetaboBASE0968
InChIKey: QURCVMIEKCOAJU-HWKANZROSA-N
Precursor_type: [M-H]-
Spectrum_type: MS2
PrecursorMZ: 193
Instrument_type: LC-ESI-TOF
Instrument: impact HD
Ion_mode: N
Collision_energy: 40
Formula: C10H10O4
MW: 194
ExactMass: 194.0579088
Comments: "cas number=537-73-5" "SMILES=COc1ccc(cc1O)/C=C/C(=O)O" "InChI=InChI=1S/C10H10O4/c1-14-9-4-2-7(6-8(9)11)3-5-10(12)13/h2-6,11H,1H3,(H,12,13)/b5-3+" "computed SMILES=O=C(O)C=CC1=CC=C(OC)C(O)=C1" "license=License CC-BY-NC-SA 4.0 International" "author=Plant Biology, The Noble Foundation, Ardmore, OK, US/Dennis Fine, Daniel Wherritt, and Lloyd Sumner" "ionization=ESI" "isolation width=5" "collision gas=Nitrogen" "peak width=0.021" "date=2014-08-28 18:48:36+02:00" "column=Waters Acquity BEH C18 1.7um x 2.1 x 150 mm" "retention time=293.4" "raw data file=C:\Data\Confirmed standards 27_Aug_2014\Isoferulic acid vial 312 MSMS_1-A,4_01_716.d" "computed mass accuracy=262.34611398972373" "computed mass error=-0.05063280000001669" "SPLASH=splash10-001i-0900000000-623ecba5385a03e0406b" "submitter=Aiko Barsch (Bruker)" "MoNA Rating=4.166666666666666"
Num Peaks: 3
132.0219 21.221221
133.0293 100.000000
134.0347 15.415415


Name: 3-Hydroxy-4-methoxycinnamic acid
Synon: isoferulic acid
Synon: $:00in-source
DB#: MetaboBASE0969
InChIKey: QURCVMIEKCOAJU-HWKANZROSA-N
Precursor_type: [M-H]-
Spectrum_type: MS2
PrecursorMZ: 193.0509
Instrument_type: LC-ESI-TOF
Instrument: impact HD
Ion_mode: N
Collision_energy: 10
Formula: C10H10O4
MW: 194
ExactMass: 194.0579088
Comments: "cas number=537-73-5" "SMILES=COc1ccc(cc1O)/C=C/C(=O)O" "InChI=InChI=1S/C10H10O4/c1-14-9-4-2-7(6-8(9)11)3-5-10(12)13/h2-6,11H,1H3,(H,12,13)/b5-3+" "computed SMILES=O=C(O)C=CC1=CC=C(OC)C(O)=C1" "license=License CC-BY-NC-SA 4.0 International" "author=Plant Biology, The Noble Foundation, Ardmore, OK, US/Dennis Fine, Daniel Wherritt, and Lloyd Sumner" "ionization=ESI" "isolation width=5" "collision gas=Nitrogen" "peak width=0.016" "date=2014-08-28 18:48:36+02:00" "column=Waters Acquity BEH C18 1.7um x 2.1 x 150 mm" "retention time=293.4" "raw data file=C:\Data\Confirmed standards 27_Aug_2014\Isoferulic acid vial 312 MSMS_1-A,4_01_716.d" "computed mass accuracy=1.3840909314389997" "computed mass error=2.671999999961372E-4" "SPLASH=splash10-004i-0900000000-205ebeb435685d894bcf" "submitter=Aiko Barsch (Bruker)" "MoNA Rating=4.583333333333334"
Num Peaks: 8
134.0374 40.340340
135.0405 2.802803
137.0245 5.705706
149.0579 2.902903
178.0275 100.000000
179.0306 7.207207
193.0509 42.242242
194.0535 3.203203


Name: 3-Hydroxy-4-methoxycinnamic acid
Synon: isoferulic acid
Synon: $:00in-source
DB#: MetaboBASE0970
InChIKey: QURCVMIEKCOAJU-HWKANZROSA-N
Precursor_type: [M-H]-
Spectrum_type: MS2
PrecursorMZ: 193
Instrument_type: LC-ESI-TOF
Instrument: impact HD
Ion_mode: N
Collision_energy: 30
Formula: C10H10O4
MW: 194
ExactMass: 194.0579088
Comments: "cas number=537-73-5" "SMILES=COc1ccc(cc1O)/C=C/C(=O)O" "InChI=InChI=1S/C10H10O4/c1-14-9-4-2-7(6-8(9)11)3-5-10(12)13/h2-6,11H,1H3,(H,12,13)/b5-3+" "computed SMILES=O=C(O)C=CC1=CC=C(OC)C(O)=C1" "license=License CC-BY-NC-SA 4.0 International" "author=Plant Biology, The Noble Foundation, Ardmore, OK, US/Dennis Fine, Daniel Wherritt, and Lloyd Sumner" "ionization=ESI" "isolation width=5" "collision gas=Nitrogen" "peak width=0.021" "date=2014-08-28 18:48:36+02:00" "column=Waters Acquity BEH C18 1.7um x 2.1 x 150 mm" "retention time=293.4" "raw data file=C:\Data\Confirmed standards 27_Aug_2014\Isoferulic acid vial 312 MSMS_1-A,4_01_716.d" "computed mass accuracy=262.34611398972373" "computed mass error=-0.05063280000001669" "SPLASH=splash10-001i-0900000000-97eb2cfc1a86c4933f76" "submitter=Aiko Barsch (Bruker)" "MoNA Rating=4.166666666666666"
Num Peaks: 6
106.0432 2.102102
132.0223 5.205205
133.0293 100.000000
134.0367 63.863864
135.0400 5.305305
178.0269 2.102102


Name: 3-Hydroxy-4-methoxycinnamic acid
Synon: isoferulic acid
Synon: $:00in-source
DB#: MetaboBASE0971
InChIKey: QURCVMIEKCOAJU-HWKANZROSA-N
Precursor_type: [M-H]-
Spectrum_type: MS2
PrecursorMZ: 193
Instrument_type: LC-ESI-TOF
Instrument: impact HD
Ion_mode: N
Collision_energy: 50
Formula: C10H10O4
MW: 194
ExactMass: 194.0579088
Comments: "cas number=537-73-5" "SMILES=COc1ccc(cc1O)/C=C/C(=O)O" "InChI=InChI=1S/C10H10O4/c1-14-9-4-2-7(6-8(9)11)3-5-10(12)13/h2-6,11H,1H3,(H,12,13)/b5-3+" "computed SMILES=O=C(O)C=CC1=CC=C(OC)C(O)=C1" "license=License CC-BY-NC-SA 4.0 International" "author=Plant Biology, The Noble Foundation, Ardmore, OK, US/Dennis Fine, Daniel Wherritt, and Lloyd Sumner" "ionization=ESI" "isolation width=5" "collision gas=Nitrogen" "peak width=0.023" "date=2014-08-28 18:48:36+02:00" "column=Waters Acquity BEH C18 1.7um x 2.1 x 150 mm" "retention time=293.4" "raw data file=C:\Data\Confirmed standards 27_Aug_2014\Isoferulic acid vial 312 MSMS_1-A,4_01_716.d" "computed mass accuracy=262.34611398972373" "computed mass error=-0.05063280000001669" "SPLASH=splash10-001i-0900000000-49f1d1fd82311df29713" "submitter=Aiko Barsch (Bruker)" "MoNA Rating=4.166666666666666"
Num Peaks: 5
105.0336 6.606607
115.0192 11.011011
132.0205 62.762763
133.0295 100.000000
134.0330 6.806807


Name: 3-Hydroxy-4-methoxycinnamic acid
Synon: isoferulic acid
Synon: $:00in-source
DB#: MetaboBASE0972
InChIKey: QURCVMIEKCOAJU-HWKANZROSA-N
Instrument_type: LC-ESI-TOF
Instrument: impact HD
Ion_mode: N
Formula: C10H10O4
MW: 194
ExactMass: 194.0579088
Comments: "cas number=537-73-5" "SMILES=COc1ccc(cc1O)/C=C/C(=O)O" "InChI=InChI=1S/C10H10O4/c1-14-9-4-2-7(6-8(9)11)3-5-10(12)13/h2-6,11H,1H3,(H,12,13)/b5-3+" "computed SMILES=O=C(O)C=CC1=CC=C(OC)C(O)=C1" "license=License CC-BY-NC-SA 4.0 International" "author=Plant Biology, The Noble Foundation, Ardmore, OK, US/Dennis Fine, Daniel Wherritt, and Lloyd Sumner" "ionization=ESI" "collision gas=Nitrogen" "peak width=0.017" "date=2014-08-28 18:48:36+02:00" "column=Waters Acquity BEH C18 1.7um x 2.1 x 150 mm" "retention time=293.4" "raw data file=C:\Data\Confirmed standards 27_Aug_2014\Isoferulic acid vial 312 MSMS_1-A,4_01_716.d" "SPLASH=splash10-005l-0902100000-6fc8730bd28daa779b66" "submitter=Aiko Barsch (Bruker)" "MoNA Rating=3.888888888888889"
Num Peaks: 16
121.0292 2.002002
133.0296 2.002002
134.0377 57.457457
135.0407 4.804805
137.0247 7.207207
178.0277 100.000000
179.0305 8.808809
193.0512 98.198198
194.0541 9.309309
292.9754 2.002002
385.0938 62.562563
386.0968 12.412412
387.1000 2.502503
407.0752 8.108108
409.0906 28.128128
410.0937 6.106106


Name: 3-Hydroxy-4-methoxycinnamic acid
Synon: isoferulic acid
Synon: $:00in-source
DB#: MetaboBASE0973
InChIKey: QURCVMIEKCOAJU-HWKANZROSA-N
Precursor_type: [M-H]-
Spectrum_type: MS2
PrecursorMZ: 193
Instrument_type: LC-ESI-TOF
Instrument: impact HD
Ion_mode: N
Collision_energy: 20
Formula: C10H10O4
MW: 194
ExactMass: 194.0579088
Comments: "cas number=537-73-5" "SMILES=COc1ccc(cc1O)/C=C/C(=O)O" "InChI=InChI=1S/C10H10O4/c1-14-9-4-2-7(6-8(9)11)3-5-10(12)13/h2-6,11H,1H3,(H,12,13)/b5-3+" "computed SMILES=O=C(O)C=CC1=CC=C(OC)C(O)=C1" "license=License CC-BY-NC-SA 4.0 International" "author=Plant Biology, The Noble Foundation, Ardmore, OK, US/Dennis Fine, Daniel Wherritt, and Lloyd Sumner" "ionization=ESI" "isolation width=5" "collision gas=Nitrogen" "peak width=0.019" "date=2014-08-28 18:48:36+02:00" "column=Waters Acquity BEH C18 1.7um x 2.1 x 150 mm" "retention time=293.4" "raw data file=C:\Data\Confirmed standards 27_Aug_2014\Isoferulic acid vial 312 MSMS_1-A,4_01_716.d" "computed mass accuracy=262.34611398972373" "computed mass error=-0.05063280000001669" "SPLASH=splash10-001i-0900000000-98a02290d6c361fab314" "submitter=Aiko Barsch (Bruker)" "MoNA Rating=4.166666666666666"
Num Peaks: 7
121.0292 2.602603
133.0293 19.019019
134.0376 100.000000
135.0406 5.905906
137.0244 12.412412
139.0388 2.702703
178.0270 22.822823


Name: y-Linolenic acid
Synon: $:00in-source
DB#: MetaboBASE0974
InChIKey: VZCCETWTMQHEPK-QNEBEIHSSA-N
Precursor_type: [M-H]-
Spectrum_type: MS2
PrecursorMZ: 277.218
Instrument_type: LC-ESI-TOF
Instrument: impact HD
Ion_mode: N
Collision_energy: 20
Formula: C18H30O2
MW: 278
ExactMass: 278.2245802
Comments: "cas number=506-26-3" "SMILES=CCCCC/C=C\C/C=C\C/C=C\CCCCC(=O)O" "InChI=InChI=1S/C18H30O2/c1-2-3-4-5-6-7-8-9-10-11-12-13-14-15-16-17-18(19)20/h6-7,9-10,12-13H,2-5,8,11,14-17H2,1H3,(H,19,20)/b7-6-,10-9-,13-12-" "computed SMILES=O=C(O)CCCCC=CCC=CCC=CCCCCC" "license=License CC-BY-NC-SA 4.0 International" "author=Plant Biology, The Noble Foundation, Ardmore, OK, US/Dennis Fine, Daniel Wherritt, and Lloyd Sumner" "ionization=ESI" "isolation width=5" "collision gas=Nitrogen" "peak width=0.016" "date=2014-10-08 12:20:09+02:00" "column=Waters Acquity BEH C18 1.7um x 2.1 x 150 mm" "retention time=1693.2" "raw data file=C:\Data\Confirmed standards 6_Oct_2014\y-Linolenic acid vial 389 MSMS_1-C,3_01_968.d" "computed mass accuracy=2.5099380271727973" "computed mass error=6.958000000167885E-4" "SPLASH=splash10-004i-0090000000-143e6ddfa05656a4c4da" "submitter=Aiko Barsch (Bruker)" "MoNA Rating=4.583333333333334"
Num Peaks: 3
259.2066 2.502503
277.2180 100.000000
278.2210 16.016016


Name: y-Linolenic acid
Synon: $:00in-source
DB#: MetaboBASE0975
InChIKey: VZCCETWTMQHEPK-QNEBEIHSSA-N
Precursor_type: [M-H]-
Spectrum_type: MS2
PrecursorMZ: 277.2188
Instrument_type: LC-ESI-TOF
Instrument: impact HD
Ion_mode: N
Collision_energy: 30
Formula: C18H30O2
MW: 278
ExactMass: 278.2245802
Comments: "cas number=506-26-3" "SMILES=CCCCC/C=C\C/C=C\C/C=C\CCCCC(=O)O" "InChI=InChI=1S/C18H30O2/c1-2-3-4-5-6-7-8-9-10-11-12-13-14-15-16-17-18(19)20/h6-7,9-10,12-13H,2-5,8,11,14-17H2,1H3,(H,19,20)/b7-6-,10-9-,13-12-" "computed SMILES=O=C(O)CCCCC=CCC=CCC=CCCCCC" "license=License CC-BY-NC-SA 4.0 International" "author=Plant Biology, The Noble Foundation, Ardmore, OK, US/Dennis Fine, Daniel Wherritt, and Lloyd Sumner" "ionization=ESI" "isolation width=5" "collision gas=Nitrogen" "peak width=0.023" "date=2014-10-08 12:20:09+02:00" "column=Waters Acquity BEH C18 1.7um x 2.1 x 150 mm" "retention time=1693.2" "raw data file=C:\Data\Confirmed standards 6_Oct_2014\y-Linolenic acid vial 389 MSMS_1-C,3_01_968.d" "computed mass accuracy=5.3957379513456605" "computed mass error=0.0014957999999865024" "SPLASH=splash10-004i-0090000000-0b9ba563ad074fe141e8" "submitter=Aiko Barsch (Bruker)" "MoNA Rating=4.545454545454546"
Num Peaks: 3
259.2053 21.421421
277.2188 100.000000
278.2188 16.916917


Name: y-Linolenic acid
Synon: $:00in-source
DB#: MetaboBASE0976
InChIKey: VZCCETWTMQHEPK-QNEBEIHSSA-N
Precursor_type: [M-H]-
Spectrum_type: MS2
PrecursorMZ: 277.218
Instrument_type: LC-ESI-TOF
Instrument: impact HD
Ion_mode: N
Collision_energy: 10
Formula: C18H30O2
MW: 278
ExactMass: 278.2245802
Comments: "cas number=506-26-3" "SMILES=CCCCC/C=C\C/C=C\C/C=C\CCCCC(=O)O" "InChI=InChI=1S/C18H30O2/c1-2-3-4-5-6-7-8-9-10-11-12-13-14-15-16-17-18(19)20/h6-7,9-10,12-13H,2-5,8,11,14-17H2,1H3,(H,19,20)/b7-6-,10-9-,13-12-" "computed SMILES=O=C(O)CCCCC=CCC=CCC=CCCCCC" "license=License CC-BY-NC-SA 4.0 International" "author=Plant Biology, The Noble Foundation, Ardmore, OK, US/Dennis Fine, Daniel Wherritt, and Lloyd Sumner" "ionization=ESI" "isolation width=5" "collision gas=Nitrogen" "peak width=0.016" "date=2014-10-08 12:20:09+02:00" "column=Waters Acquity BEH C18 1.7um x 2.1 x 150 mm" "retention time=1693.2" "raw data file=C:\Data\Confirmed standards 6_Oct_2014\y-Linolenic acid vial 389 MSMS_1-C,3_01_968.d" "computed mass accuracy=2.5099380271727973" "computed mass error=6.958000000167885E-4" "SPLASH=splash10-004i-0090000000-63bf7d731625d5577978" "submitter=Aiko Barsch (Bruker)" "MoNA Rating=3.9285714285714284"
Num Peaks: 2
277.2180 100.000000
278.2210 14.714715


Name: y-Linolenic acid
Synon: $:00in-source
DB#: MetaboBASE0977
InChIKey: VZCCETWTMQHEPK-QNEBEIHSSA-N
Instrument_type: LC-ESI-TOF
Instrument: impact HD
Ion_mode: N
Collision_energy: 10
Formula: C18H30O2
MW: 278
ExactMass: 278.2245802
Comments: "cas number=506-26-3" "SMILES=CCCCC/C=C\C/C=C\C/C=C\CCCCC(=O)O" "InChI=InChI=1S/C18H30O2/c1-2-3-4-5-6-7-8-9-10-11-12-13-14-15-16-17-18(19)20/h6-7,9-10,12-13H,2-5,8,11,14-17H2,1H3,(H,19,20)/b7-6-,10-9-,13-12-" "computed SMILES=O=C(O)CCCCC=CCC=CCC=CCCCCC" "license=License CC-BY-NC-SA 4.0 International" "author=Plant Biology, The Noble Foundation, Ardmore, OK, US/Dennis Fine, Daniel Wherritt, and Lloyd Sumner" "ionization=ESI" "collision gas=Nitrogen" "peak width=0.012" "date=2014-10-07 00:58:22+02:00" "column=Waters Acquity BEH C18 1.7um x 2.1 x 150 mm" "retention time=1693.2" "raw data file=C:\Data\Confirmed standards 6_Oct_2014\y-Linolenic acid vial 389_1-C,3_01_933.d" "SPLASH=splash10-004i-0090000000-fbc4e202a8b26c91dc9e" "submitter=Aiko Barsch (Bruker)" "MoNA Rating=4.444444444444445"
Num Peaks: 7
233.2268 0.700701
277.2178 100.000000
278.2208 22.122122
279.2232 2.602603
345.2035 1.301301
377.1418 5.505506
378.1437 1.601602


Name: y-Linolenic acid
Synon: $:00in-source
DB#: MetaboBASE0978
InChIKey: VZCCETWTMQHEPK-QNEBEIHSSA-N
Instrument_type: LC-ESI-TOF
Instrument: impact HD
Ion_mode: N
Formula: C18H30O2
MW: 278
ExactMass: 278.2245802
Comments: "cas number=506-26-3" "SMILES=CCCCC/C=C\C/C=C\C/C=C\CCCCC(=O)O" "InChI=InChI=1S/C18H30O2/c1-2-3-4-5-6-7-8-9-10-11-12-13-14-15-16-17-18(19)20/h6-7,9-10,12-13H,2-5,8,11,14-17H2,1H3,(H,19,20)/b7-6-,10-9-,13-12-" "computed SMILES=O=C(O)CCCCC=CCC=CCC=CCCCCC" "license=License CC-BY-NC-SA 4.0 International" "author=Plant Biology, The Noble Foundation, Ardmore, OK, US/Dennis Fine, Daniel Wherritt, and Lloyd Sumner" "ionization=ESI" "collision gas=Nitrogen" "peak width=0.016" "date=2014-10-08 12:20:09+02:00" "column=Waters Acquity BEH C18 1.7um x 2.1 x 150 mm" "retention time=1693.2" "raw data file=C:\Data\Confirmed standards 6_Oct_2014\y-Linolenic acid vial 389 MSMS_1-C,3_01_968.d" "SPLASH=splash10-004i-0090000000-b56d00321ab0921fe7b7" "submitter=Aiko Barsch (Bruker)" "MoNA Rating=3.888888888888889"
Num Peaks: 7
277.2181 100.000000
278.2214 17.317317
345.2054 3.903904
556.0037 2.002002
577.4256 6.006006
578.4292 2.302302
877.6334 2.002002


Name: Arachidonic acid
Synon: $:00in-source
DB#: MetaboBASE0979
InChIKey: YZXBAPSDXZZRGB-DOFZRALJSA-N
Precursor_type: [M-H]-
Spectrum_type: MS2
PrecursorMZ: 303.2334
Instrument_type: LC-ESI-TOF
Instrument: impact HD
Ion_mode: N
Collision_energy: 10
Formula: C20H32O2
MW: 304
ExactMass: 304.240230264
Comments: "cas number=506-32-1" "SMILES=CCCCC/C=C\C/C=C\C/C=C\C/C=C\CCCC(=O)O" "InChI=InChI=1S/C20H32O2/c1-2-3-4-5-6-7-8-9-10-11-12-13-14-15-16-17-18-19-20(21)22/h6-7,9-10,12-13,15-16H,2-5,8,11,14,17-19H2,1H3,(H,21,22)/b7-6-,10-9-,13-12-,16-15-" "computed SMILES=O=C(O)CCCC=CCC=CCC=CCC=CCCCCC" "license=License CC-BY-NC-SA 4.0 International" "author=Plant Biology, The Noble Foundation, Ardmore, OK, US/Dennis Fine, Daniel Wherritt, and Lloyd Sumner" "ionization=ESI" "isolation width=5" "collision gas=Nitrogen" "peak width=0.017" "date=2014-10-08 14:22:49+02:00" "column=Waters Acquity BEH C18 1.7um x 2.1 x 150 mm" "retention time=1782.6" "raw data file=C:\Data\Confirmed standards 6_Oct_2014\Arachidonic acid vial 392 MSMS_1-C,6_01_971.d" "computed mass accuracy=1.4699436144481606" "computed mass error=4.457360000174049E-4" "SPLASH=splash10-0udi-0009000000-6bd9d0477c122d3eed94" "submitter=Aiko Barsch (Bruker)" "MoNA Rating=4.583333333333334"
Num Peaks: 3
259.2431 3.103103
303.2334 100.000000
304.2368 20.620621


Name: Arachidonic acid
Synon: $:00in-source
DB#: MetaboBASE0980
InChIKey: YZXBAPSDXZZRGB-DOFZRALJSA-N
Precursor_type: [M-H]-
Spectrum_type: MS2
PrecursorMZ: 303.2335
Instrument_type: LC-ESI-TOF
Instrument: impact HD
Ion_mode: N
Collision_energy: 20
Formula: C20H32O2
MW: 304
ExactMass: 304.240230264
Comments: "cas number=506-32-1" "SMILES=CCCCC/C=C\C/C=C\C/C=C\C/C=C\CCCC(=O)O" "InChI=InChI=1S/C20H32O2/c1-2-3-4-5-6-7-8-9-10-11-12-13-14-15-16-17-18-19-20(21)22/h6-7,9-10,12-13,15-16H,2-5,8,11,14,17-19H2,1H3,(H,21,22)/b7-6-,10-9-,13-12-,16-15-" "computed SMILES=O=C(O)CCCC=CCC=CCC=CCC=CCCCCC" "license=License CC-BY-NC-SA 4.0 International" "author=Plant Biology, The Noble Foundation, Ardmore, OK, US/Dennis Fine, Daniel Wherritt, and Lloyd Sumner" "ionization=ESI" "isolation width=5" "collision gas=Nitrogen" "peak width=0.017" "date=2014-10-08 14:22:49+02:00" "column=Waters Acquity BEH C18 1.7um x 2.1 x 150 mm" "retention time=1782.6" "raw data file=C:\Data\Confirmed standards 6_Oct_2014\Arachidonic acid vial 392 MSMS_1-C,6_01_971.d" "computed mass accuracy=1.79972199638992" "computed mass error=5.457359999923028E-4" "SPLASH=splash10-0udi-0009000000-510ea33e558fa238a1d2" "submitter=Aiko Barsch (Bruker)" "MoNA Rating=4.583333333333334"
Num Peaks: 4
259.2431 8.108108
260.2460 2.102102
303.2335 100.000000
304.2365 22.122122


Name: Arachidonic acid
Synon: $:00in-source
DB#: MetaboBASE0981
InChIKey: YZXBAPSDXZZRGB-DOFZRALJSA-N
Instrument_type: LC-ESI-TOF
Instrument: impact HD
Ion_mode: N
Formula: C20H32O2
MW: 304
ExactMass: 304.240230264
Comments: "cas number=506-32-1" "SMILES=CCCCC/C=C\C/C=C\C/C=C\C/C=C\CCCC(=O)O" "InChI=InChI=1S/C20H32O2/c1-2-3-4-5-6-7-8-9-10-11-12-13-14-15-16-17-18-19-20(21)22/h6-7,9-10,12-13,15-16H,2-5,8,11,14,17-19H2,1H3,(H,21,22)/b7-6-,10-9-,13-12-,16-15-" "computed SMILES=O=C(O)CCCC=CCC=CCC=CCC=CCCCCC" "license=License CC-BY-NC-SA 4.0 International" "author=Plant Biology, The Noble Foundation, Ardmore, OK, US/Dennis Fine, Daniel Wherritt, and Lloyd Sumner" "ionization=ESI" "collision gas=Nitrogen" "peak width=0.017" "date=2014-10-08 14:22:49+02:00" "column=Waters Acquity BEH C18 1.7um x 2.1 x 150 mm" "retention time=1782.6" "raw data file=C:\Data\Confirmed standards 6_Oct_2014\Arachidonic acid vial 392 MSMS_1-C,6_01_971.d" "SPLASH=splash10-0udi-0009000000-73a6b21464acba15463c" "submitter=Aiko Barsch (Bruker)" "MoNA Rating=3.888888888888889"
Num Peaks: 4
303.2337 100.000000
304.2372 20.920921
305.2398 2.102102
629.4569 4.304304


Name: Arachidonic acid
Synon: $:00in-source
DB#: MetaboBASE0982
InChIKey: YZXBAPSDXZZRGB-DOFZRALJSA-N
Instrument_type: LC-ESI-TOF
Instrument: impact HD
Ion_mode: N
Collision_energy: 10
Formula: C20H32O2
MW: 304
ExactMass: 304.240230264
Comments: "cas number=506-32-1" "SMILES=CCCCC/C=C\C/C=C\C/C=C\C/C=C\CCCC(=O)O" "InChI=InChI=1S/C20H32O2/c1-2-3-4-5-6-7-8-9-10-11-12-13-14-15-16-17-18-19-20(21)22/h6-7,9-10,12-13,15-16H,2-5,8,11,14,17-19H2,1H3,(H,21,22)/b7-6-,10-9-,13-12-,16-15-" "computed SMILES=O=C(O)CCCC=CCC=CCC=CCC=CCCCCC" "license=License CC-BY-NC-SA 4.0 International" "author=Plant Biology, The Noble Foundation, Ardmore, OK, US/Dennis Fine, Daniel Wherritt, and Lloyd Sumner" "ionization=ESI" "collision gas=Nitrogen" "peak width=0.011" "date=2014-10-07 03:01:01+02:00" "column=Waters Acquity BEH C18 1.7um x 2.1 x 150 mm" "retention time=1782.6" "raw data file=C:\Data\Confirmed standards 6_Oct_2014\Arachidonic acid vial 392_1-C,6_01_936.d" "SPLASH=splash10-0udi-0009000000-4dd23c77f8e48c0ab9ec" "submitter=Aiko Barsch (Bruker)" "MoNA Rating=4.444444444444445"
Num Peaks: 11
259.2430 4.204204
260.2460 0.900901
303.2101 1.101101
303.2339 100.000000
303.2613 1.201201
303.7842 0.600601
304.2371 24.724725
305.2393 3.203203
371.2199 0.700701
403.1581 4.104104
404.1601 1.401401


Name: Arachidonic acid
Synon: $:00in-source
DB#: MetaboBASE0983
InChIKey: YZXBAPSDXZZRGB-DOFZRALJSA-N
Precursor_type: [M-H]-
Spectrum_type: MS2
PrecursorMZ: 303.2326
Instrument_type: LC-ESI-TOF
Instrument: impact HD
Ion_mode: N
Collision_energy: 30
Formula: C20H32O2
MW: 304
ExactMass: 304.240230264
Comments: "cas number=506-32-1" "SMILES=CCCCC/C=C\C/C=C\C/C=C\C/C=C\CCCC(=O)O" "InChI=InChI=1S/C20H32O2/c1-2-3-4-5-6-7-8-9-10-11-12-13-14-15-16-17-18-19-20(21)22/h6-7,9-10,12-13,15-16H,2-5,8,11,14,17-19H2,1H3,(H,21,22)/b7-6-,10-9-,13-12-,16-15-" "computed SMILES=O=C(O)CCCC=CCC=CCC=CCC=CCCCCC" "license=License CC-BY-NC-SA 4.0 International" "author=Plant Biology, The Noble Foundation, Ardmore, OK, US/Dennis Fine, Daniel Wherritt, and Lloyd Sumner" "ionization=ESI" "isolation width=5" "collision gas=Nitrogen" "peak width=0.017" "date=2014-10-08 14:22:49+02:00" "column=Waters Acquity BEH C18 1.7um x 2.1 x 150 mm" "retention time=1782.6" "raw data file=C:\Data\Confirmed standards 6_Oct_2014\Arachidonic acid vial 392 MSMS_1-C,6_01_971.d" "computed mass accuracy=1.1682912721427459" "computed mass error=-3.5426400000915237E-4" "SPLASH=splash10-0udi-0049000000-102d050109d3c78b1a25" "submitter=Aiko Barsch (Bruker)" "MoNA Rating=4.583333333333334"
Num Peaks: 7
177.1638 8.208208
231.2108 33.933934
232.2128 7.807808
259.2416 13.613614
285.2182 6.606607
303.2326 100.000000
304.2356 27.527528


Name: Linoelaidic acid
Synon: $:00in-source
DB#: MetaboBASE0984
InChIKey: OYHQOLUKZRVURQ-AVQMFFATSA-N
Precursor_type: [M-H]-
Spectrum_type: MS2
PrecursorMZ: 279.2333
Instrument_type: LC-ESI-TOF
Instrument: impact HD
Ion_mode: N
Collision_energy: 10
Formula: C18H32O2
MW: 280
ExactMass: 280.240230264
Comments: "cas number=506-21-8" "SMILES=CCCCC/C=C/C/C=C/CCCCCCCC(=O)O" "InChI=InChI=1S/C18H32O2/c1-2-3-4-5-6-7-8-9-10-11-12-13-14-15-16-17-18(19)20/h6-7,9-10H,2-5,8,11-17H2,1H3,(H,19,20)/b7-6+,10-9+" "computed SMILES=O=C(O)CCCCCCCC=CCC=CCCCCC" "license=License CC-BY-NC-SA 4.0 International" "author=Plant Biology, The Noble Foundation, Ardmore, OK, US/Dennis Fine, Daniel Wherritt, and Lloyd Sumner" "ionization=ESI" "isolation width=5" "collision gas=Nitrogen" "peak width=0.012" "date=2014-10-08 13:01:03+02:00" "column=Waters Acquity BEH C18 1.7um x 2.1 x 150 mm" "retention time=1841.4" "raw data file=C:\Data\Confirmed standards 6_Oct_2014\Linoelaidic acid vial 390 MSMS_1-C,4_01_969.d" "computed mass accuracy=1.2381617807964291" "computed mass error=3.457359999856635E-4" "SPLASH=splash10-004i-0090000000-dd6cf3859995c0ba8be8" "submitter=Aiko Barsch (Bruker)" "MoNA Rating=3.9285714285714284"
Num Peaks: 2
279.2333 100.000000
280.2362 14.914915


Name: Linoelaidic acid
Synon: $:00in-source
DB#: MetaboBASE0985
InChIKey: OYHQOLUKZRVURQ-AVQMFFATSA-N
Precursor_type: [M-H]-
Spectrum_type: MS2
PrecursorMZ: 279.2334
Instrument_type: LC-ESI-TOF
Instrument: impact HD
Ion_mode: N
Collision_energy: 20
Formula: C18H32O2
MW: 280
ExactMass: 280.240230264
Comments: "cas number=506-21-8" "SMILES=CCCCC/C=C/C/C=C/CCCCCCCC(=O)O" "InChI=InChI=1S/C18H32O2/c1-2-3-4-5-6-7-8-9-10-11-12-13-14-15-16-17-18(19)20/h6-7,9-10H,2-5,8,11-17H2,1H3,(H,19,20)/b7-6+,10-9+" "computed SMILES=O=C(O)CCCCCCCC=CCC=CCCCCC" "license=License CC-BY-NC-SA 4.0 International" "author=Plant Biology, The Noble Foundation, Ardmore, OK, US/Dennis Fine, Daniel Wherritt, and Lloyd Sumner" "ionization=ESI" "isolation width=5" "collision gas=Nitrogen" "peak width=0.014" "date=2014-10-08 13:01:03+02:00" "column=Waters Acquity BEH C18 1.7um x 2.1 x 150 mm" "retention time=1841.4" "raw data file=C:\Data\Confirmed standards 6_Oct_2014\Linoelaidic acid vial 390 MSMS_1-C,4_01_969.d" "computed mass accuracy=1.5962846852038648" "computed mass error=4.457360000174049E-4" "SPLASH=splash10-004i-0090000000-fdabfebc98e900a3a52b" "submitter=Aiko Barsch (Bruker)" "MoNA Rating=3.9285714285714284"
Num Peaks: 2
279.2334 100.000000
280.2359 15.915916


Name: Linoelaidic acid
Synon: $:00in-source
DB#: MetaboBASE0986
InChIKey: OYHQOLUKZRVURQ-AVQMFFATSA-N
Instrument_type: LC-ESI-TOF
Instrument: impact HD
Ion_mode: N
Collision_energy: 10
Formula: C18H32O2
MW: 280
ExactMass: 280.240230264
Comments: "cas number=506-21-8" "SMILES=CCCCC/C=C/C/C=C/CCCCCCCC(=O)O" "InChI=InChI=1S/C18H32O2/c1-2-3-4-5-6-7-8-9-10-11-12-13-14-15-16-17-18(19)20/h6-7,9-10H,2-5,8,11-17H2,1H3,(H,19,20)/b7-6+,10-9+" "computed SMILES=O=C(O)CCCCCCCC=CCC=CCCCCC" "license=License CC-BY-NC-SA 4.0 International" "author=Plant Biology, The Noble Foundation, Ardmore, OK, US/Dennis Fine, Daniel Wherritt, and Lloyd Sumner" "ionization=ESI" "collision gas=Nitrogen" "peak width=0.015" "date=2014-10-07 01:39:17+02:00" "column=Waters Acquity BEH C18 1.7um x 2.1 x 150 mm" "retention time=1841.4" "raw data file=C:\Data\Confirmed standards 6_Oct_2014\Linoelaidic acid vial 390_1-C,4_01_934.d" "SPLASH=splash10-004i-0092000000-b8aabbdc61f9b89ac359" "submitter=Aiko Barsch (Bruker)" "MoNA Rating=4.444444444444445"
Num Peaks: 13
128.0141 0.600601
279.2437 100.000000
280.2464 21.121121
281.2488 2.402402
347.2326 3.203203
348.2356 0.800801
377.1771 0.900901
379.1720 17.517518
380.1739 5.405405
381.1746 1.301301
430.2470 1.001001
556.0225 7.807808
557.0257 1.001001


Name: Linoelaidic acid
Synon: $:00in-source
DB#: MetaboBASE0987
InChIKey: OYHQOLUKZRVURQ-AVQMFFATSA-N
Instrument_type: LC-ESI-TOF
Instrument: impact HD
Ion_mode: N
Formula: C18H32O2
MW: 280
ExactMass: 280.240230264
Comments: "cas number=506-21-8" "SMILES=CCCCC/C=C/C/C=C/CCCCCCCC(=O)O" "InChI=InChI=1S/C18H32O2/c1-2-3-4-5-6-7-8-9-10-11-12-13-14-15-16-17-18(19)20/h6-7,9-10H,2-5,8,11-17H2,1H3,(H,19,20)/b7-6+,10-9+" "computed SMILES=O=C(O)CCCCCCCC=CCC=CCCCCC" "license=License CC-BY-NC-SA 4.0 International" "author=Plant Biology, The Noble Foundation, Ardmore, OK, US/Dennis Fine, Daniel Wherritt, and Lloyd Sumner" "ionization=ESI" "collision gas=Nitrogen" "peak width=0.012" "date=2014-10-08 13:01:03+02:00" "column=Waters Acquity BEH C18 1.7um x 2.1 x 150 mm" "retention time=1841.4" "raw data file=C:\Data\Confirmed standards 6_Oct_2014\Linoelaidic acid vial 390 MSMS_1-C,4_01_969.d" "SPLASH=splash10-004i-0091000000-d8e32f26b102cfd39457" "submitter=Aiko Barsch (Bruker)" "MoNA Rating=3.888888888888889"
Num Peaks: 9
279.2333 100.000000
280.2363 16.516517
347.2201 5.305305
379.1586 7.107107
380.1601 2.102102
581.4559 7.507508
582.4592 3.003003
649.4435 2.802803
883.6790 2.902903


Name: Linoelaidic acid
Synon: $:00in-source
DB#: MetaboBASE0988
InChIKey: OYHQOLUKZRVURQ-AVQMFFATSA-N
Precursor_type: [M-H]-
Spectrum_type: MS2
PrecursorMZ: 279.2326
Instrument_type: LC-ESI-TOF
Instrument: impact HD
Ion_mode: N
Collision_energy: 30
Formula: C18H32O2
MW: 280
ExactMass: 280.240230264
Comments: "cas number=506-21-8" "SMILES=CCCCC/C=C/C/C=C/CCCCCCCC(=O)O" "InChI=InChI=1S/C18H32O2/c1-2-3-4-5-6-7-8-9-10-11-12-13-14-15-16-17-18(19)20/h6-7,9-10H,2-5,8,11-17H2,1H3,(H,19,20)/b7-6+,10-9+" "computed SMILES=O=C(O)CCCCCCCC=CCC=CCCCCC" "license=License CC-BY-NC-SA 4.0 International" "author=Plant Biology, The Noble Foundation, Ardmore, OK, US/Dennis Fine, Daniel Wherritt, and Lloyd Sumner" "ionization=ESI" "isolation width=5" "collision gas=Nitrogen" "peak width=0.015" "date=2014-10-08 13:01:03+02:00" "column=Waters Acquity BEH C18 1.7um x 2.1 x 150 mm" "retention time=1841.4" "raw data file=C:\Data\Confirmed standards 6_Oct_2014\Linoelaidic acid vial 390 MSMS_1-C,4_01_969.d" "computed mass accuracy=1.2687057313836292" "computed mass error=-3.5426400000915237E-4" "SPLASH=splash10-004i-0090000000-e1aa5a6fc5d53c0d0cb6" "submitter=Aiko Barsch (Bruker)" "MoNA Rating=4.583333333333334"
Num Peaks: 3
279.2326 100.000000
280.2346 16.516517
873.0143 6.606607


Name: Oleic acid
Synon: $:00in-source
DB#: MetaboBASE0989
InChIKey: ZQPPMHVWECSIRJ-KTKRTIGZSA-N
Precursor_type: [M-H]-
Spectrum_type: MS2
PrecursorMZ: 281.2486
Instrument_type: LC-ESI-TOF
Instrument: impact HD
Ion_mode: N
Collision_energy: 10
Formula: C18H34O2
MW: 282
ExactMass: 282.255880328
Comments: "cas number=112-80-1" "SMILES=CCCCCCCC/C=C\CCCCCCCC(=O)O" "InChI=InChI=1S/C18H34O2/c1-2-3-4-5-6-7-8-9-10-11-12-13-14-15-16-17-18(19)20/h9-10H,2-8,11-17H2,1H3,(H,19,20)/b10-9-" "computed SMILES=O=C(O)CCCCCCCC=CCCCCCCCC" "license=License CC-BY-NC-SA 4.0 International" "author=Plant Biology, The Noble Foundation, Ardmore, OK, US/Dennis Fine, Daniel Wherritt, and Lloyd Sumner" "ionization=ESI" "isolation width=5" "collision gas=Nitrogen" "peak width=0.011" "date=2014-10-08 13:41:57+02:00" "column=Waters Acquity BEH C18 1.7um x 2.1 x 150 mm" "retention time=1905" "raw data file=C:\Data\Confirmed standards 6_Oct_2014\Oleic acid vial 391 MSMS_1-C,5_01_970.d" "computed mass accuracy=0.015388521004613367" "computed mass error=-4.327999988618103E-6" "SPLASH=splash10-001i-0090000000-92096c6b229762c5295f" "submitter=Aiko Barsch (Bruker)" "MoNA Rating=4.0"
Num Peaks: 2
281.2486 100.000000
282.2519 14.114114


Name: Oleic acid
Synon: $:00in-source
DB#: MetaboBASE0990
InChIKey: ZQPPMHVWECSIRJ-KTKRTIGZSA-N
Precursor_type: [M-H]-
Spectrum_type: MS2
PrecursorMZ: 281.2484
Instrument_type: LC-ESI-TOF
Instrument: impact HD
Ion_mode: N
Collision_energy: 20
Formula: C18H34O2
MW: 282
ExactMass: 282.255880328
Comments: "cas number=112-80-1" "SMILES=CCCCCCCC/C=C\CCCCCCCC(=O)O" "InChI=InChI=1S/C18H34O2/c1-2-3-4-5-6-7-8-9-10-11-12-13-14-15-16-17-18(19)20/h9-10H,2-8,11-17H2,1H3,(H,19,20)/b10-9-" "computed SMILES=O=C(O)CCCCCCCC=CCCCCCCCC" "license=License CC-BY-NC-SA 4.0 International" "author=Plant Biology, The Noble Foundation, Ardmore, OK, US/Dennis Fine, Daniel Wherritt, and Lloyd Sumner" "ionization=ESI" "isolation width=5" "collision gas=Nitrogen" "peak width=0.011" "date=2014-10-08 13:41:57+02:00" "column=Waters Acquity BEH C18 1.7um x 2.1 x 150 mm" "retention time=1905" "raw data file=C:\Data\Confirmed standards 6_Oct_2014\Oleic acid vial 391 MSMS_1-C,5_01_970.d" "computed mass accuracy=0.7265036885374545" "computed mass error=-2.0432799999525741E-4" "SPLASH=splash10-001i-0090000000-5fe8495a19b387bf702c" "submitter=Aiko Barsch (Bruker)" "MoNA Rating=4.0"
Num Peaks: 2
281.2484 100.000000
282.2516 14.914915


Name: Oleic acid
Synon: $:00in-source
DB#: MetaboBASE0991
InChIKey: ZQPPMHVWECSIRJ-KTKRTIGZSA-N
Precursor_type: [M-H]-
Spectrum_type: MS2
PrecursorMZ: 281.2474
Instrument_type: LC-ESI-TOF
Instrument: impact HD
Ion_mode: N
Collision_energy: 30
Formula: C18H34O2
MW: 282
ExactMass: 282.255880328
Comments: "cas number=112-80-1" "SMILES=CCCCCCCC/C=C\CCCCCCCC(=O)O" "InChI=InChI=1S/C18H34O2/c1-2-3-4-5-6-7-8-9-10-11-12-13-14-15-16-17-18(19)20/h9-10H,2-8,11-17H2,1H3,(H,19,20)/b10-9-" "computed SMILES=O=C(O)CCCCCCCC=CCCCCCCCC" "license=License CC-BY-NC-SA 4.0 International" "author=Plant Biology, The Noble Foundation, Ardmore, OK, US/Dennis Fine, Daniel Wherritt, and Lloyd Sumner" "ionization=ESI" "isolation width=5" "collision gas=Nitrogen" "peak width=0.018" "date=2014-10-08 13:41:57+02:00" "column=Waters Acquity BEH C18 1.7um x 2.1 x 150 mm" "retention time=1905" "raw data file=C:\Data\Confirmed standards 6_Oct_2014\Oleic acid vial 391 MSMS_1-C,5_01_970.d" "computed mass accuracy=4.282094696596698" "computed mass error=-0.0012043279999716106" "SPLASH=splash10-001i-0090000000-5d40399b1c736b476445" "submitter=Aiko Barsch (Bruker)" "MoNA Rating=3.9285714285714284"
Num Peaks: 2
281.2474 100.000000
282.2509 18.318318


Name: Oleic acid
Synon: $:00in-source
DB#: MetaboBASE0992
InChIKey: ZQPPMHVWECSIRJ-KTKRTIGZSA-N
Instrument_type: LC-ESI-TOF
Instrument: impact HD
Ion_mode: N
Formula: C18H34O2
MW: 282
ExactMass: 282.255880328
Comments: "cas number=112-80-1" "SMILES=CCCCCCCC/C=C\CCCCCCCC(=O)O" "InChI=InChI=1S/C18H34O2/c1-2-3-4-5-6-7-8-9-10-11-12-13-14-15-16-17-18(19)20/h9-10H,2-8,11-17H2,1H3,(H,19,20)/b10-9-" "computed SMILES=O=C(O)CCCCCCCC=CCCCCCCCC" "license=License CC-BY-NC-SA 4.0 International" "author=Plant Biology, The Noble Foundation, Ardmore, OK, US/Dennis Fine, Daniel Wherritt, and Lloyd Sumner" "ionization=ESI" "collision gas=Nitrogen" "peak width=0.011" "date=2014-10-08 13:41:57+02:00" "column=Waters Acquity BEH C18 1.7um x 2.1 x 150 mm" "retention time=1905" "raw data file=C:\Data\Confirmed standards 6_Oct_2014\Oleic acid vial 391 MSMS_1-C,5_01_970.d" "SPLASH=splash10-001i-0090000000-45785aeb659bd8a09240" "submitter=Aiko Barsch (Bruker)" "MoNA Rating=3.888888888888889"
Num Peaks: 5
281.2483 100.000000
282.2517 17.517518
349.2354 2.702703
381.1734 3.803804
585.4858 4.404404


Name: Oleic acid
Synon: $:00in-source
DB#: MetaboBASE0993
InChIKey: ZQPPMHVWECSIRJ-KTKRTIGZSA-N
Instrument_type: LC-ESI-TOF
Instrument: impact HD
Ion_mode: N
Collision_energy: 10
Formula: C18H34O2
MW: 282
ExactMass: 282.255880328
Comments: "cas number=112-80-1" "SMILES=CCCCCCCC/C=C\CCCCCCCC(=O)O" "InChI=InChI=1S/C18H34O2/c1-2-3-4-5-6-7-8-9-10-11-12-13-14-15-16-17-18(19)20/h9-10H,2-8,11-17H2,1H3,(H,19,20)/b10-9-" "computed SMILES=O=C(O)CCCCCCCC=CCCCCCCCC" "license=License CC-BY-NC-SA 4.0 International" "author=Plant Biology, The Noble Foundation, Ardmore, OK, US/Dennis Fine, Daniel Wherritt, and Lloyd Sumner" "ionization=ESI" "collision gas=Nitrogen" "peak width=0.012" "date=2014-10-07 02:20:09+02:00" "column=Waters Acquity BEH C18 1.7um x 2.1 x 150 mm" "retention time=1905" "raw data file=C:\Data\Confirmed standards 6_Oct_2014\Oleic acid vial 391_1-C,5_01_935.d" "SPLASH=splash10-001i-0091000000-3946ac7663105c7c2700" "submitter=Aiko Barsch (Bruker)" "MoNA Rating=4.444444444444445"
Num Peaks: 8
281.2494 100.000000
282.2524 22.422422
283.2544 2.502503
349.2350 1.301301
379.1788 0.800801
381.1739 15.015015
382.1755 4.504505
383.1753 1.201201


Name: Palmitoleic acid
Synon: $:00in-source
DB#: MetaboBASE0994
InChIKey: SECPZKHBENQXJG-FPLPWBNLSA-N
Precursor_type: [M-H]-
Spectrum_type: MS2
PrecursorMZ: 253.2179
Instrument_type: LC-ESI-TOF
Instrument: impact HD
Ion_mode: N
Collision_energy: 10
Formula: C16H30O2
MW: 254
ExactMass: 254.2245802
Comments: "cas number=373-49-9" "SMILES=CCCCCC/C=C\CCCCCCCC(=O)O" "InChI=InChI=1S/C16H30O2/c1-2-3-4-5-6-7-8-9-10-11-12-13-14-15-16(17)18/h7-8H,2-6,9-15H2,1H3,(H,17,18)/b8-7-" "computed SMILES=O=C(O)CCCCCCCC=CCCCCCC" "license=License CC-BY-NC-SA 4.0 International" "author=Plant Biology, The Noble Foundation, Ardmore, OK, US/Dennis Fine, Daniel Wherritt, and Lloyd Sumner" "ionization=ESI" "isolation width=5" "collision gas=Nitrogen" "peak width=0.015" "date=2014-10-08 10:58:21+02:00" "column=Waters Acquity BEH C18 1.7um x 2.1 x 150 mm" "retention time=1733.4" "raw data file=C:\Data\Confirmed standards 6_Oct_2014\Palmitoleic acid vial 387 MSMS_1-C,1_01_966.d" "computed mass accuracy=2.352914229148284" "computed mass error=5.957999999850472E-4" "SPLASH=splash10-0udi-0090000000-993c95f96e1ca69a41c0" "submitter=Aiko Barsch (Bruker)" "MoNA Rating=3.9285714285714284"
Num Peaks: 2
253.2179 100.000000
254.2207 11.311311


Name: Palmitoleic acid
Synon: $:00in-source
DB#: MetaboBASE0995
InChIKey: SECPZKHBENQXJG-FPLPWBNLSA-N
Precursor_type: [M-H]-
Spectrum_type: MS2
PrecursorMZ: 253.2174
Instrument_type: LC-ESI-TOF
Instrument: impact HD
Ion_mode: N
Collision_energy: 20
Formula: C16H30O2
MW: 254
ExactMass: 254.2245802
Comments: "cas number=373-49-9" "SMILES=CCCCCC/C=C\CCCCCCCC(=O)O" "InChI=InChI=1S/C16H30O2/c1-2-3-4-5-6-7-8-9-10-11-12-13-14-15-16(17)18/h7-8H,2-6,9-15H2,1H3,(H,17,18)/b8-7-" "computed SMILES=O=C(O)CCCCCCCC=CCCCCCC" "license=License CC-BY-NC-SA 4.0 International" "author=Plant Biology, The Noble Foundation, Ardmore, OK, US/Dennis Fine, Daniel Wherritt, and Lloyd Sumner" "ionization=ESI" "isolation width=5" "collision gas=Nitrogen" "peak width=0.016" "date=2014-10-08 10:58:21+02:00" "column=Waters Acquity BEH C18 1.7um x 2.1 x 150 mm" "retention time=1733.4" "raw data file=C:\Data\Confirmed standards 6_Oct_2014\Palmitoleic acid vial 387 MSMS_1-C,1_01_966.d" "computed mass accuracy=0.3783310309515484" "computed mass error=9.579999999687061E-5" "SPLASH=splash10-0udi-0090000000-e72ac58f23bacbf37344" "submitter=Aiko Barsch (Bruker)" "MoNA Rating=4.0"
Num Peaks: 2
253.2174 100.000000
254.2200 11.611612


Name: Palmitoleic acid
Synon: $:00in-source
DB#: MetaboBASE0996
InChIKey: SECPZKHBENQXJG-FPLPWBNLSA-N
Instrument_type: LC-ESI-TOF
Instrument: impact HD
Ion_mode: N
Collision_energy: 10
Formula: C16H30O2
MW: 254
ExactMass: 254.2245802
Comments: "cas number=373-49-9" "SMILES=CCCCCC/C=C\CCCCCCCC(=O)O" "InChI=InChI=1S/C16H30O2/c1-2-3-4-5-6-7-8-9-10-11-12-13-14-15-16(17)18/h7-8H,2-6,9-15H2,1H3,(H,17,18)/b8-7-" "computed SMILES=O=C(O)CCCCCCCC=CCCCCCC" "license=License CC-BY-NC-SA 4.0 International" "author=Plant Biology, The Noble Foundation, Ardmore, OK, US/Dennis Fine, Daniel Wherritt, and Lloyd Sumner" "ionization=ESI" "collision gas=Nitrogen" "peak width=0.015" "date=2014-10-06 23:36:29+02:00" "column=Waters Acquity BEH C18 1.7um x 2.1 x 150 mm" "retention time=1733.4" "raw data file=C:\Data\Confirmed standards 6_Oct_2014\Palmitoleic acid vial 387_1-C,1_01_931.d" "SPLASH=splash10-0udi-0090000000-d1585cc46cbce84a0506" "submitter=Aiko Barsch (Bruker)" "MoNA Rating=4.444444444444445"
Num Peaks: 7
116.9281 0.700701
128.0098 0.800801
253.2179 100.000000
254.2207 18.818819
255.2234 2.202202
321.2037 3.703704
322.2076 0.800801


Name: Palmitoleic acid
Synon: $:00in-source
DB#: MetaboBASE0997
InChIKey: SECPZKHBENQXJG-FPLPWBNLSA-N
Instrument_type: LC-ESI-TOF
Instrument: impact HD
Ion_mode: N
Formula: C16H30O2
MW: 254
ExactMass: 254.2245802
Comments: "cas number=373-49-9" "SMILES=CCCCCC/C=C\CCCCCCCC(=O)O" "InChI=InChI=1S/C16H30O2/c1-2-3-4-5-6-7-8-9-10-11-12-13-14-15-16(17)18/h7-8H,2-6,9-15H2,1H3,(H,17,18)/b8-7-" "computed SMILES=O=C(O)CCCCCCCC=CCCCCCC" "license=License CC-BY-NC-SA 4.0 International" "author=Plant Biology, The Noble Foundation, Ardmore, OK, US/Dennis Fine, Daniel Wherritt, and Lloyd Sumner" "ionization=ESI" "collision gas=Nitrogen" "peak width=0.014" "date=2014-10-08 10:58:21+02:00" "column=Waters Acquity BEH C18 1.7um x 2.1 x 150 mm" "retention time=1733.4" "raw data file=C:\Data\Confirmed standards 6_Oct_2014\Palmitoleic acid vial 387 MSMS_1-C,1_01_966.d" "SPLASH=splash10-0udi-0091000000-fd89101236e85a2d9154" "submitter=Aiko Barsch (Bruker)" "MoNA Rating=3.888888888888889"
Num Peaks: 6
253.2180 100.000000
254.2208 14.914915
321.2052 8.408408
353.1428 4.404404
529.4247 7.907908
597.4122 3.503504


Name: Trans-Vaccenic acid
Synon: $:00in-source
DB#: MetaboBASE0998
InChIKey: UWHZIFQPPBDJPM-BQYQJAHWSA-N
Precursor_type: [M-H]-
Spectrum_type: MS2
PrecursorMZ: 281.2493
Instrument_type: LC-ESI-TOF
Instrument: impact HD
Ion_mode: N
Collision_energy: 20
Formula: C18H34O2
MW: 282
ExactMass: 282.255880328
Comments: "cas number=693-72-1" "SMILES=CCCCCC/C=C/CCCCCCCCCC(=O)O" "InChI=InChI=1S/C18H34O2/c1-2-3-4-5-6-7-8-9-10-11-12-13-14-15-16-17-18(19)20/h7-8H,2-6,9-17H2,1H3,(H,19,20)/b8-7+" "computed SMILES=O=C(O)CCCCCCCCCC=CCCCCCC" "license=License CC-BY-NC-SA 4.0 International" "author=Plant Biology, The Noble Foundation, Ardmore, OK, US/Dennis Fine, Daniel Wherritt, and Lloyd Sumner" "ionization=ESI" "isolation width=5" "collision gas=Nitrogen" "peak width=0.017" "date=2014-10-08 15:03:41+02:00" "column=Waters Acquity BEH C18 1.7um x 2.1 x 150 mm" "retention time=1902.6" "raw data file=C:\Data\Confirmed standards 6_Oct_2014\t-Vaccenic acid vial 393 MSMS_1-C,7_01_972.d" "computed mass accuracy=2.4735066007495763" "computed mass error=6.956720000061978E-4" "SPLASH=splash10-001i-0090000000-dd6c9ec9fb483004fb56" "submitter=Aiko Barsch (Bruker)" "MoNA Rating=3.9285714285714284"
Num Peaks: 2
281.2493 100.000000
282.2523 15.215215


Name: Trans-Vaccenic acid
Synon: $:00in-source
DB#: MetaboBASE0999
InChIKey: UWHZIFQPPBDJPM-BQYQJAHWSA-N
Precursor_type: [M-H]-
Spectrum_type: MS2
PrecursorMZ: 281.2493
Instrument_type: LC-ESI-TOF
Instrument: impact HD
Ion_mode: N
Collision_energy: 10
Formula: C18H34O2
MW: 282
ExactMass: 282.255880328
Comments: "cas number=693-72-1" "SMILES=CCCCCC/C=C/CCCCCCCCCC(=O)O" "InChI=InChI=1S/C18H34O2/c1-2-3-4-5-6-7-8-9-10-11-12-13-14-15-16-17-18(19)20/h7-8H,2-6,9-17H2,1H3,(H,19,20)/b8-7+" "computed SMILES=O=C(O)CCCCCCCCCC=CCCCCCC" "license=License CC-BY-NC-SA 4.0 International" "author=Plant Biology, The Noble Foundation, Ardmore, OK, US/Dennis Fine, Daniel Wherritt, and Lloyd Sumner" "ionization=ESI" "isolation width=5" "collision gas=Nitrogen" "peak width=0.017" "date=2014-10-08 15:03:41+02:00" "column=Waters Acquity BEH C18 1.7um x 2.1 x 150 mm" "retention time=1902.6" "raw data file=C:\Data\Confirmed standards 6_Oct_2014\t-Vaccenic acid vial 393 MSMS_1-C,7_01_972.d" "computed mass accuracy=2.4735066007495763" "computed mass error=6.956720000061978E-4" "SPLASH=splash10-001i-0090000000-6d641aebf861b449bc93" "submitter=Aiko Barsch (Bruker)" "MoNA Rating=3.9285714285714284"
Num Peaks: 2
281.2493 100.000000
282.2524 15.015015


Name: Trans-Vaccenic acid
Synon: $:00in-source
DB#: MetaboBASE1000
InChIKey: UWHZIFQPPBDJPM-BQYQJAHWSA-N
Instrument_type: LC-ESI-TOF
Instrument: impact HD
Ion_mode: N
Collision_energy: 10
Formula: C18H34O2
MW: 282
ExactMass: 282.255880328
Comments: "cas number=693-72-1" "SMILES=CCCCCC/C=C/CCCCCCCCCC(=O)O" "InChI=InChI=1S/C18H34O2/c1-2-3-4-5-6-7-8-9-10-11-12-13-14-15-16-17-18(19)20/h7-8H,2-6,9-17H2,1H3,(H,19,20)/b8-7+" "computed SMILES=O=C(O)CCCCCCCCCC=CCCCCCC" "license=License CC-BY-NC-SA 4.0 International" "author=Plant Biology, The Noble Foundation, Ardmore, OK, US/Dennis Fine, Daniel Wherritt, and Lloyd Sumner" "ionization=ESI" "collision gas=Nitrogen" "peak width=0.012" "date=2014-10-07 03:41:53+02:00" "column=Waters Acquity BEH C18 1.7um x 2.1 x 150 mm" "retention time=1902.6" "raw data file=C:\Data\Confirmed standards 6_Oct_2014\t-Vaccenic acid vial 393_1-C,7_01_937.d" "SPLASH=splash10-001i-0091000000-b648c3a07717d5fb6d46" "submitter=Aiko Barsch (Bruker)" "MoNA Rating=4.444444444444445"
Num Peaks: 9
281.2587 100.000000
282.2616 21.621622
283.2638 2.502503
293.1880 0.600601
349.2473 1.401401
379.1908 0.800801
381.1868 14.014014
382.1888 4.504505
383.1895 1.101101


Name: Trans-Vaccenic acid
Synon: $:00in-source
DB#: MetaboBASE1001
InChIKey: UWHZIFQPPBDJPM-BQYQJAHWSA-N
Precursor_type: [M-H]-
Spectrum_type: MS2
PrecursorMZ: 281.2481
Instrument_type: LC-ESI-TOF
Instrument: impact HD
Ion_mode: N
Collision_energy: 30
Formula: C18H34O2
MW: 282
ExactMass: 282.255880328
Comments: "cas number=693-72-1" "SMILES=CCCCCC/C=C/CCCCCCCCCC(=O)O" "InChI=InChI=1S/C18H34O2/c1-2-3-4-5-6-7-8-9-10-11-12-13-14-15-16-17-18(19)20/h7-8H,2-6,9-17H2,1H3,(H,19,20)/b8-7+" "computed SMILES=O=C(O)CCCCCCCCCC=CCCCCCC" "license=License CC-BY-NC-SA 4.0 International" "author=Plant Biology, The Noble Foundation, Ardmore, OK, US/Dennis Fine, Daniel Wherritt, and Lloyd Sumner" "ionization=ESI" "isolation width=5" "collision gas=Nitrogen" "peak width=0.017" "date=2014-10-08 15:03:41+02:00" "column=Waters Acquity BEH C18 1.7um x 2.1 x 150 mm" "retention time=1902.6" "raw data file=C:\Data\Confirmed standards 6_Oct_2014\t-Vaccenic acid vial 393 MSMS_1-C,7_01_972.d" "computed mass accuracy=1.7931783360555844" "computed mass error=-5.043279999767947E-4" "SPLASH=splash10-001i-0090000000-2a569bab7642a2f75401" "submitter=Aiko Barsch (Bruker)" "MoNA Rating=4.583333333333334"
Num Peaks: 3
263.2361 2.302302
281.2481 100.000000
282.2520 16.616617


Name: Trans-Vaccenic acid
Synon: $:00in-source
DB#: MetaboBASE1002
InChIKey: UWHZIFQPPBDJPM-BQYQJAHWSA-N
Instrument_type: LC-ESI-TOF
Instrument: impact HD
Ion_mode: N
Formula: C18H34O2
MW: 282
ExactMass: 282.255880328
Comments: "cas number=693-72-1" "SMILES=CCCCCC/C=C/CCCCCCCCCC(=O)O" "InChI=InChI=1S/C18H34O2/c1-2-3-4-5-6-7-8-9-10-11-12-13-14-15-16-17-18(19)20/h7-8H,2-6,9-17H2,1H3,(H,19,20)/b8-7+" "computed SMILES=O=C(O)CCCCCCCCCC=CCCCCCC" "license=License CC-BY-NC-SA 4.0 International" "author=Plant Biology, The Noble Foundation, Ardmore, OK, US/Dennis Fine, Daniel Wherritt, and Lloyd Sumner" "ionization=ESI" "collision gas=Nitrogen" "peak width=0.017" "date=2014-10-08 15:03:41+02:00" "column=Waters Acquity BEH C18 1.7um x 2.1 x 150 mm" "retention time=1902.6" "raw data file=C:\Data\Confirmed standards 6_Oct_2014\t-Vaccenic acid vial 393 MSMS_1-C,7_01_972.d" "SPLASH=splash10-001i-0090000000-0011cddb04541bd8b399" "submitter=Aiko Barsch (Bruker)" "MoNA Rating=3.888888888888889"
Num Peaks: 5
281.2489 100.000000
282.2524 16.416416
349.2364 2.902903
381.1740 4.404404
585.4869 3.803804


Name: 10E, 12Z-Linoleic acid
Synon: $:00in-source
DB#: MetaboBASE1003
InChIKey: JBYXPOFIGCOSSB-UQGDGPGGSA-N
Precursor_type: [M-H]-
Spectrum_type: MS2
PrecursorMZ: 279.2338
Instrument_type: LC-ESI-TOF
Instrument: impact HD
Ion_mode: N
Collision_energy: 10
Formula: C18H32O2
MW: 280
ExactMass: 280.240230264
Comments: "cas number=2420-56-6" "SMILES=CCCCCC/C=C\C=C\CCCCCCCC(=O)O" "InChI=InChI=1S/C18H32O2/c1-2-3-4-5-6-7-8-9-10-11-12-13-14-15-16-17-18(19)20/h7-10H,2-6,11-17H2,1H3,(H,19,20)/b8-7-,10-9+" "computed SMILES=O=C(O)CCCCCCCCC=CC=CCCCCC" "computed InChI=InChI=1S/C18H32O2/c1-2-3-4-5-6-7-8-9-10-11-12-13-14-15-16-17-18(19)20/h6-9H,2-5,10-17H2,1H3,(H,19,20)/b7-6-,9-8+" "license=License CC-BY-NC-SA 4.0 International" "author=Plant Biology, The Noble Foundation, Ardmore, OK, US/Dennis Fine, Daniel Wherritt, and Lloyd Sumner" "ionization=ESI" "isolation width=5" "collision gas=Nitrogen" "peak width=0.012" "date=2014-10-08 23:25:04+02:00" "column=Waters Acquity BEH C18 1.7um x 2.1 x 150 mm" "retention time=1816.8" "raw data file=C:\Data\Confirmed standards 6_Oct_2014\10E,12Z-Linoleic acid MSMS_1-C,8_01_981.d" "computed mass accuracy=3.0287737371831067" "computed mass error=8.457359999738401E-4" "SPLASH=splash10-004i-0090000000-8c1cd1f8ffc64efeec3c" "submitter=Aiko Barsch (Bruker)" "MoNA Rating=3.666666666666667"
Num Peaks: 2
279.2338 100.000000
280.2367 15.715716


Name: 10E, 12Z-Linoleic acid
Synon: $:00in-source
DB#: MetaboBASE1004
InChIKey: JBYXPOFIGCOSSB-UQGDGPGGSA-N
Precursor_type: [M-H]-
Spectrum_type: MS2
PrecursorMZ: 279.2336
Instrument_type: LC-ESI-TOF
Instrument: impact HD
Ion_mode: N
Collision_energy: 20
Formula: C18H32O2
MW: 280
ExactMass: 280.240230264
Comments: "cas number=2420-56-6" "SMILES=CCCCCC/C=C\C=C\CCCCCCCC(=O)O" "InChI=InChI=1S/C18H32O2/c1-2-3-4-5-6-7-8-9-10-11-12-13-14-15-16-17-18(19)20/h7-10H,2-6,11-17H2,1H3,(H,19,20)/b8-7-,10-9+" "computed SMILES=O=C(O)CCCCCCCCC=CC=CCCCCC" "computed InChI=InChI=1S/C18H32O2/c1-2-3-4-5-6-7-8-9-10-11-12-13-14-15-16-17-18(19)20/h6-9H,2-5,10-17H2,1H3,(H,19,20)/b7-6-,9-8+" "license=License CC-BY-NC-SA 4.0 International" "author=Plant Biology, The Noble Foundation, Ardmore, OK, US/Dennis Fine, Daniel Wherritt, and Lloyd Sumner" "ionization=ESI" "isolation width=5" "collision gas=Nitrogen" "peak width=0.014" "date=2014-10-08 23:25:04+02:00" "column=Waters Acquity BEH C18 1.7um x 2.1 x 150 mm" "retention time=1816.8" "raw data file=C:\Data\Confirmed standards 6_Oct_2014\10E,12Z-Linoleic acid MSMS_1-C,8_01_981.d" "computed mass accuracy=2.3125297243026774" "computed mass error=6.457360000240442E-4" "SPLASH=splash10-004i-0090000000-38586249179f8a1229fc" "submitter=Aiko Barsch (Bruker)" "MoNA Rating=3.666666666666667"
Num Peaks: 2
279.2336 100.000000
280.2364 15.915916


Name: 10E, 12Z-Linoleic acid
Synon: $:00in-source
DB#: MetaboBASE1005
InChIKey: JBYXPOFIGCOSSB-UQGDGPGGSA-N
Precursor_type: [M-H]-
Spectrum_type: MS2
PrecursorMZ: 279.2336
Instrument_type: LC-ESI-TOF
Instrument: impact HD
Ion_mode: N
Collision_energy: 30
Formula: C18H32O2
MW: 280
ExactMass: 280.240230264
Comments: "cas number=2420-56-6" "SMILES=CCCCCC/C=C\C=C\CCCCCCCC(=O)O" "InChI=InChI=1S/C18H32O2/c1-2-3-4-5-6-7-8-9-10-11-12-13-14-15-16-17-18(19)20/h7-10H,2-6,11-17H2,1H3,(H,19,20)/b8-7-,10-9+" "computed SMILES=O=C(O)CCCCCCCCC=CC=CCCCCC" "computed InChI=InChI=1S/C18H32O2/c1-2-3-4-5-6-7-8-9-10-11-12-13-14-15-16-17-18(19)20/h6-9H,2-5,10-17H2,1H3,(H,19,20)/b7-6-,9-8+" "license=License CC-BY-NC-SA 4.0 International" "author=Plant Biology, The Noble Foundation, Ardmore, OK, US/Dennis Fine, Daniel Wherritt, and Lloyd Sumner" "ionization=ESI" "isolation width=5" "collision gas=Nitrogen" "peak width=0.018" "date=2014-10-08 23:25:04+02:00" "column=Waters Acquity BEH C18 1.7um x 2.1 x 150 mm" "retention time=1816.8" "raw data file=C:\Data\Confirmed standards 6_Oct_2014\10E,12Z-Linoleic acid MSMS_1-C,8_01_981.d" "computed mass accuracy=2.3125297243026774" "computed mass error=6.457360000240442E-4" "SPLASH=splash10-004i-0090000000-62a4185fa41d6545e722" "submitter=Aiko Barsch (Bruker)" "MoNA Rating=4.230769230769231"
Num Peaks: 3
279.2336 100.000000
280.2368 20.820821
894.4958 3.903904


Name: 10E, 12Z-Linoleic acid
Synon: $:00in-source
DB#: MetaboBASE1006
InChIKey: JBYXPOFIGCOSSB-UQGDGPGGSA-N
Instrument_type: LC-ESI-TOF
Instrument: impact HD
Ion_mode: N
Collision_energy: 10
Formula: C18H32O2
MW: 280
ExactMass: 280.240230264
Comments: "cas number=2420-56-6" "SMILES=CCCCCC/C=C\C=C\CCCCCCCC(=O)O" "InChI=InChI=1S/C18H32O2/c1-2-3-4-5-6-7-8-9-10-11-12-13-14-15-16-17-18(19)20/h7-10H,2-6,11-17H2,1H3,(H,19,20)/b8-7-,10-9+" "computed SMILES=O=C(O)CCCCCCCCC=CC=CCCCCC" "computed InChI=InChI=1S/C18H32O2/c1-2-3-4-5-6-7-8-9-10-11-12-13-14-15-16-17-18(19)20/h6-9H,2-5,10-17H2,1H3,(H,19,20)/b7-6-,9-8+" "license=License CC-BY-NC-SA 4.0 International" "author=Plant Biology, The Noble Foundation, Ardmore, OK, US/Dennis Fine, Daniel Wherritt, and Lloyd Sumner" "ionization=ESI" "collision gas=Nitrogen" "peak width=0.014" "date=2014-10-07 21:57:39+02:00" "column=Waters Acquity BEH C18 1.7um x 2.1 x 150 mm" "retention time=1816.8" "raw data file=C:\Data\Confirmed standards 6_Oct_2014\10E,12Z-Linoleic acid vial 394_1-C,8_01_945.d" "SPLASH=splash10-004i-0092010000-9ed35273f7b305463ab9" "submitter=Aiko Barsch (Bruker)" "MoNA Rating=4.0"
Num Peaks: 16
128.0087 0.400400
279.2349 100.000000
280.2376 22.322322
281.2400 2.602603
347.2206 3.003003
348.2241 0.600601
377.1640 1.201201
379.1587 22.622623
380.1604 7.107107
381.1612 1.801802
430.2307 0.800801
556.0020 4.204204
557.0062 0.400400
581.4553 12.212212
582.4587 4.804805
583.4623 1.101101


Name: 10E, 12Z-Linoleic acid
Synon: $:00in-source
DB#: MetaboBASE1007
InChIKey: JBYXPOFIGCOSSB-UQGDGPGGSA-N
Instrument_type: LC-ESI-TOF
Instrument: impact HD
Ion_mode: N
Formula: C18H32O2
MW: 280
ExactMass: 280.240230264
Comments: "cas number=2420-56-6" "SMILES=CCCCCC/C=C\C=C\CCCCCCCC(=O)O" "InChI=InChI=1S/C18H32O2/c1-2-3-4-5-6-7-8-9-10-11-12-13-14-15-16-17-18(19)20/h7-10H,2-6,11-17H2,1H3,(H,19,20)/b8-7-,10-9+" "computed SMILES=O=C(O)CCCCCCCCC=CC=CCCCCC" "computed InChI=InChI=1S/C18H32O2/c1-2-3-4-5-6-7-8-9-10-11-12-13-14-15-16-17-18(19)20/h6-9H,2-5,10-17H2,1H3,(H,19,20)/b7-6-,9-8+" "license=License CC-BY-NC-SA 4.0 International" "author=Plant Biology, The Noble Foundation, Ardmore, OK, US/Dennis Fine, Daniel Wherritt, and Lloyd Sumner" "ionization=ESI" "collision gas=Nitrogen" "peak width=0.016" "date=2014-10-08 23:25:04+02:00" "column=Waters Acquity BEH C18 1.7um x 2.1 x 150 mm" "retention time=1816.8" "raw data file=C:\Data\Confirmed standards 6_Oct_2014\10E,12Z-Linoleic acid MSMS_1-C,8_01_981.d" "SPLASH=splash10-004i-0091010000-dbc6f486bd4b62b79961" "submitter=Aiko Barsch (Bruker)" "MoNA Rating=3.5"
Num Peaks: 8
279.2338 100.000000
280.2369 16.716717
347.2208 4.604605
379.1592 6.506507
380.1607 2.002002
556.0032 4.104104
581.4559 7.207207
582.4592 2.802803


Name: 9E, 11E-Linoleic acid
Synon: $:00in-source
DB#: MetaboBASE1008
InChIKey: JBYXPOFIGCOSSB-XBLVEGMJSA-N
Precursor_type: [M-H]-
Spectrum_type: MS2
PrecursorMZ: 279.2344
Instrument_type: LC-ESI-TOF
Instrument: impact HD
Ion_mode: N
Collision_energy: 20
Formula: C18H32O2
MW: 280
ExactMass: 280.240230264
Comments: "cas number=1839-11-8" "SMILES=CCCCCC/C=C/C=C/CCCCCCCC(=O)O" "InChI=InChI=1S/C18H32O2/c1-2-3-4-5-6-7-8-9-10-11-12-13-14-15-16-17-18(19)20/h7-10H,2-6,11-17H2,1H3,(H,19,20)/b8-7+,10-9+" "computed SMILES=O=C(O)CCCCCCCC=CC=CCCCCCC" "license=License CC-BY-NC-SA 4.0 International" "author=Plant Biology, The Noble Foundation, Ardmore, OK, US/Dennis Fine, Daniel Wherritt, and Lloyd Sumner" "ionization=ESI" "isolation width=5" "collision gas=Nitrogen" "peak width=0.014" "date=2014-10-09 00:46:48+02:00" "column=Waters Acquity BEH C18 1.7um x 2.1 x 150 mm" "retention time=1852.8" "raw data file=C:\Data\Confirmed standards 6_Oct_2014\9E,11E-Linoleic acid MSMS_1-D,2_01_983.d" "computed mass accuracy=5.177499620368256" "computed mass error=0.001445735999993758" "SPLASH=splash10-004i-0090000000-d3517fc9c425686f3f47" "submitter=Aiko Barsch (Bruker)" "MoNA Rating=3.846153846153846"
Num Peaks: 2
279.2344 100.000000
280.2372 18.118118


Name: 9E, 11E-Linoleic acid
Synon: $:00in-source
DB#: MetaboBASE1009
InChIKey: JBYXPOFIGCOSSB-XBLVEGMJSA-N
Precursor_type: [M-H]-
Spectrum_type: MS2
PrecursorMZ: 279.2345
Instrument_type: LC-ESI-TOF
Instrument: impact HD
Ion_mode: N
Collision_energy: 10
Formula: C18H32O2
MW: 280
ExactMass: 280.240230264
Comments: "cas number=1839-11-8" "SMILES=CCCCCC/C=C/C=C/CCCCCCCC(=O)O" "InChI=InChI=1S/C18H32O2/c1-2-3-4-5-6-7-8-9-10-11-12-13-14-15-16-17-18(19)20/h7-10H,2-6,11-17H2,1H3,(H,19,20)/b8-7+,10-9+" "computed SMILES=O=C(O)CCCCCCCC=CC=CCCCCCC" "license=License CC-BY-NC-SA 4.0 International" "author=Plant Biology, The Noble Foundation, Ardmore, OK, US/Dennis Fine, Daniel Wherritt, and Lloyd Sumner" "ionization=ESI" "isolation width=5" "collision gas=Nitrogen" "peak width=0.012" "date=2014-10-09 00:46:48+02:00" "column=Waters Acquity BEH C18 1.7um x 2.1 x 150 mm" "retention time=1852.8" "raw data file=C:\Data\Confirmed standards 6_Oct_2014\9E,11E-Linoleic acid MSMS_1-D,2_01_983.d" "computed mass accuracy=5.535619703244045" "computed mass error=0.0015457360000254994" "SPLASH=splash10-004i-0090000000-dfad2b4819a8e09aeb74" "submitter=Aiko Barsch (Bruker)" "MoNA Rating=3.846153846153846"
Num Peaks: 2
279.2345 100.000000
280.2377 16.016016


Name: 9E, 11E-Linoleic acid
Synon: $:00in-source
DB#: MetaboBASE1010
InChIKey: JBYXPOFIGCOSSB-XBLVEGMJSA-N
Instrument_type: LC-ESI-TOF
Instrument: impact HD
Ion_mode: N
Collision_energy: 10
Formula: C18H32O2
MW: 280
ExactMass: 280.240230264
Comments: "cas number=1839-11-8" "SMILES=CCCCCC/C=C/C=C/CCCCCCCC(=O)O" "InChI=InChI=1S/C18H32O2/c1-2-3-4-5-6-7-8-9-10-11-12-13-14-15-16-17-18(19)20/h7-10H,2-6,11-17H2,1H3,(H,19,20)/b8-7+,10-9+" "computed SMILES=O=C(O)CCCCCCCC=CC=CCCCCCC" "license=License CC-BY-NC-SA 4.0 International" "author=Plant Biology, The Noble Foundation, Ardmore, OK, US/Dennis Fine, Daniel Wherritt, and Lloyd Sumner" "ionization=ESI" "collision gas=Nitrogen" "peak width=0.015" "date=2014-10-08 00:00:41+02:00" "column=Waters Acquity BEH C18 1.7um x 2.1 x 150 mm" "retention time=1852.8" "raw data file=C:\Data\Confirmed standards 6_Oct_2014\9E,11E-Linoleic acid vial 396_1-D,2_01_949.d" "SPLASH=splash10-004i-0093020000-3713e3e16e9fc8ff9d4e" "submitter=Aiko Barsch (Bruker)" "MoNA Rating=4.444444444444445"
Num Peaks: 18
128.0100 0.400400
279.2332 100.000000
280.2357 21.221221
281.2385 2.302302
325.1830 0.900901
347.2193 3.003003
348.2214 0.500501
377.1627 1.601602
379.1577 29.829830
380.1595 9.209209
381.1598 2.302302
430.2308 0.700701
431.1917 0.400400
556.0020 9.709710
557.0044 1.201201
581.4537 11.311311
582.4575 4.504505
583.4616 1.001001


Name: 9E, 11E-Linoleic acid
Synon: $:00in-source
DB#: MetaboBASE1011
InChIKey: JBYXPOFIGCOSSB-XBLVEGMJSA-N
Precursor_type: [M-H]-
Spectrum_type: MS2
PrecursorMZ: 279.2339
Instrument_type: LC-ESI-TOF
Instrument: impact HD
Ion_mode: N
Collision_energy: 30
Formula: C18H32O2
MW: 280
ExactMass: 280.240230264
Comments: "cas number=1839-11-8" "SMILES=CCCCCC/C=C/C=C/CCCCCCCC(=O)O" "InChI=InChI=1S/C18H32O2/c1-2-3-4-5-6-7-8-9-10-11-12-13-14-15-16-17-18(19)20/h7-10H,2-6,11-17H2,1H3,(H,19,20)/b8-7+,10-9+" "computed SMILES=O=C(O)CCCCCCCC=CC=CCCCCCC" "license=License CC-BY-NC-SA 4.0 International" "author=Plant Biology, The Noble Foundation, Ardmore, OK, US/Dennis Fine, Daniel Wherritt, and Lloyd Sumner" "ionization=ESI" "isolation width=5" "collision gas=Nitrogen" "peak width=0.019" "date=2014-10-09 00:46:48+02:00" "column=Waters Acquity BEH C18 1.7um x 2.1 x 150 mm" "retention time=1852.8" "raw data file=C:\Data\Confirmed standards 6_Oct_2014\9E,11E-Linoleic acid MSMS_1-D,2_01_983.d" "computed mass accuracy=3.386895359072023" "computed mass error=9.457360000055814E-4" "SPLASH=splash10-004i-0090000000-1ab95baf25a47f7edbbe" "submitter=Aiko Barsch (Bruker)" "MoNA Rating=3.9285714285714284"
Num Peaks: 2
279.2339 100.000000
280.2377 17.917918


Name: 9E, 11E-Linoleic acid
Synon: $:00in-source
DB#: MetaboBASE1012
InChIKey: JBYXPOFIGCOSSB-XBLVEGMJSA-N
Instrument_type: LC-ESI-TOF
Instrument: impact HD
Ion_mode: N
Formula: C18H32O2
MW: 280
ExactMass: 280.240230264
Comments: "cas number=1839-11-8" "SMILES=CCCCCC/C=C/C=C/CCCCCCCC(=O)O" "InChI=InChI=1S/C18H32O2/c1-2-3-4-5-6-7-8-9-10-11-12-13-14-15-16-17-18(19)20/h7-10H,2-6,11-17H2,1H3,(H,19,20)/b8-7+,10-9+" "computed SMILES=O=C(O)CCCCCCCC=CC=CCCCCCC" "license=License CC-BY-NC-SA 4.0 International" "author=Plant Biology, The Noble Foundation, Ardmore, OK, US/Dennis Fine, Daniel Wherritt, and Lloyd Sumner" "ionization=ESI" "collision gas=Nitrogen" "peak width=0.016" "date=2014-10-09 00:46:48+02:00" "column=Waters Acquity BEH C18 1.7um x 2.1 x 150 mm" "retention time=1852.8" "raw data file=C:\Data\Confirmed standards 6_Oct_2014\9E,11E-Linoleic acid MSMS_1-D,2_01_983.d" "SPLASH=splash10-004i-0091000000-88b67552039f5c14c7ea" "submitter=Aiko Barsch (Bruker)" "MoNA Rating=3.888888888888889"
Num Peaks: 6
279.2343 100.000000
280.2375 18.118118
347.2217 5.205205
379.1598 9.709710
581.4569 8.608609
582.4602 3.503504


Name: 9-Trans-Palmitelaidic acid
Synon: $:00in-source
DB#: MetaboBASE1013
InChIKey: SECPZKHBENQXJG-BQYQJAHWSA-N
Instrument_type: LC-ESI-TOF
Instrument: impact HD
Ion_mode: N
Formula: C16H30O2
MW: 254
ExactMass: 254.2245802
Comments: "cas number=10030-73-6" "SMILES=CCCCCC/C=C/CCCCCCCC(=O)O" "InChI=InChI=1S/C16H30O2/c1-2-3-4-5-6-7-8-9-10-11-12-13-14-15-16(17)18/h7-8H,2-6,9-15H2,1H3,(H,17,18)/b8-7+" "computed SMILES=O=C(O)CCCCCCCC=CCCCCCC" "license=License CC-BY-NC-SA 4.0 International" "author=Plant Biology, The Noble Foundation, Ardmore, OK, US/Dennis Fine, Daniel Wherritt, and Lloyd Sumner" "ionization=ESI" "collision gas=Nitrogen" "peak width=0.013" "date=2014-10-09 01:27:41+02:00" "column=Waters Acquity BEH C18 1.7um x 2.1 x 150 mm" "retention time=1761.6" "raw data file=C:\Data\Confirmed standards 6_Oct_2014\9-t-Palmitelaidic acid MSMS_1-D,3_01_984.d" "SPLASH=splash10-0udi-0090000000-15955555bad036fe5887" "submitter=Aiko Barsch (Bruker)" "MoNA Rating=3.888888888888889"
Num Peaks: 5
253.2184 100.000000
254.2215 15.015015
321.2056 6.406406
353.1449 5.705706
529.4262 6.606607


Name: 9-Trans-Palmitelaidic acid
Synon: $:00in-source
DB#: MetaboBASE1014
InChIKey: SECPZKHBENQXJG-BQYQJAHWSA-N
Instrument_type: LC-ESI-TOF
Instrument: impact HD
Ion_mode: N
Collision_energy: 10
Formula: C16H30O2
MW: 254
ExactMass: 254.2245802
Comments: "cas number=10030-73-6" "SMILES=CCCCCC/C=C/CCCCCCCC(=O)O" "InChI=InChI=1S/C16H30O2/c1-2-3-4-5-6-7-8-9-10-11-12-13-14-15-16(17)18/h7-8H,2-6,9-15H2,1H3,(H,17,18)/b8-7+" "computed SMILES=O=C(O)CCCCCCCC=CCCCCCC" "license=License CC-BY-NC-SA 4.0 International" "author=Plant Biology, The Noble Foundation, Ardmore, OK, US/Dennis Fine, Daniel Wherritt, and Lloyd Sumner" "ionization=ESI" "collision gas=Nitrogen" "peak width=0.015" "date=2014-10-08 00:41:36+02:00" "column=Waters Acquity BEH C18 1.7um x 2.1 x 150 mm" "retention time=1761.6" "raw data file=C:\Data\Confirmed standards 6_Oct_2014\9-t-Palmitelaidic acid vial397_1-D,3_01_950.d" "SPLASH=splash10-0udi-0091010000-7210516a6de9436dfaef" "submitter=Aiko Barsch (Bruker)" "MoNA Rating=4.444444444444445"
Num Peaks: 15
128.0098 0.600601
161.0241 0.700701
253.2181 100.000000
254.2208 18.318318
255.2235 2.102102
321.2043 3.403403
322.2072 0.600601
351.1486 0.700701
353.1426 15.515516
354.1444 4.604605
355.1443 1.101101
404.2157 0.800801
529.4234 9.909910
530.4266 3.603604
531.4305 0.700701


Name: 9-Trans-Palmitelaidic acid
Synon: $:00in-source
DB#: MetaboBASE1015
InChIKey: SECPZKHBENQXJG-BQYQJAHWSA-N
Precursor_type: [M-H]-
Spectrum_type: MS2
PrecursorMZ: 253.2181
Instrument_type: LC-ESI-TOF
Instrument: impact HD
Ion_mode: N
Collision_energy: 20
Formula: C16H30O2
MW: 254
ExactMass: 254.2245802
Comments: "cas number=10030-73-6" "SMILES=CCCCCC/C=C/CCCCCCCC(=O)O" "InChI=InChI=1S/C16H30O2/c1-2-3-4-5-6-7-8-9-10-11-12-13-14-15-16(17)18/h7-8H,2-6,9-15H2,1H3,(H,17,18)/b8-7+" "computed SMILES=O=C(O)CCCCCCCC=CCCCCCC" "license=License CC-BY-NC-SA 4.0 International" "author=Plant Biology, The Noble Foundation, Ardmore, OK, US/Dennis Fine, Daniel Wherritt, and Lloyd Sumner" "ionization=ESI" "isolation width=5" "collision gas=Nitrogen" "peak width=0.016" "date=2014-10-09 01:27:41+02:00" "column=Waters Acquity BEH C18 1.7um x 2.1 x 150 mm" "retention time=1761.6" "raw data file=C:\Data\Confirmed standards 6_Oct_2014\9-t-Palmitelaidic acid MSMS_1-D,3_01_984.d" "computed mass accuracy=3.1427453250446415" "computed mass error=7.957999999916865E-4" "SPLASH=splash10-0udi-0090000000-dc1afa2b2526cfadca3b" "submitter=Aiko Barsch (Bruker)" "MoNA Rating=3.9285714285714284"
Num Peaks: 2
253.2181 100.000000
254.2210 11.211211


Name: 9-Trans-Palmitelaidic acid
Synon: $:00in-source
DB#: MetaboBASE1016
InChIKey: SECPZKHBENQXJG-BQYQJAHWSA-N
Precursor_type: [M-H]-
Spectrum_type: MS2
PrecursorMZ: 253.2183
Instrument_type: LC-ESI-TOF
Instrument: impact HD
Ion_mode: N
Collision_energy: 10
Formula: C16H30O2
MW: 254
ExactMass: 254.2245802
Comments: "cas number=10030-73-6" "SMILES=CCCCCC/C=C/CCCCCCCC(=O)O" "InChI=InChI=1S/C16H30O2/c1-2-3-4-5-6-7-8-9-10-11-12-13-14-15-16(17)18/h7-8H,2-6,9-15H2,1H3,(H,17,18)/b8-7+" "computed SMILES=O=C(O)CCCCCCCC=CCCCCCC" "license=License CC-BY-NC-SA 4.0 International" "author=Plant Biology, The Noble Foundation, Ardmore, OK, US/Dennis Fine, Daniel Wherritt, and Lloyd Sumner" "ionization=ESI" "isolation width=5" "collision gas=Nitrogen" "peak width=0.013" "date=2014-10-09 01:27:41+02:00" "column=Waters Acquity BEH C18 1.7um x 2.1 x 150 mm" "retention time=1761.6" "raw data file=C:\Data\Confirmed standards 6_Oct_2014\9-t-Palmitelaidic acid MSMS_1-D,3_01_984.d" "computed mass accuracy=3.9325751732727285" "computed mass error=9.957999999983258E-4" "SPLASH=splash10-0udi-0090000000-e0fb9e9cfc066f8f8275" "submitter=Aiko Barsch (Bruker)" "MoNA Rating=3.9285714285714284"
Num Peaks: 2
253.2183 100.000000
254.2212 11.311311


Name: 9-Trans-Palmitelaidic acid
Synon: $:00in-source
DB#: MetaboBASE1017
InChIKey: SECPZKHBENQXJG-BQYQJAHWSA-N
Precursor_type: [M-H]-
Spectrum_type: MS2
PrecursorMZ: 253.2167
Instrument_type: LC-ESI-TOF
Instrument: impact HD
Ion_mode: N
Collision_energy: 30
Formula: C16H30O2
MW: 254
ExactMass: 254.2245802
Comments: "cas number=10030-73-6" "SMILES=CCCCCC/C=C/CCCCCCCC(=O)O" "InChI=InChI=1S/C16H30O2/c1-2-3-4-5-6-7-8-9-10-11-12-13-14-15-16(17)18/h7-8H,2-6,9-15H2,1H3,(H,17,18)/b8-7+" "computed SMILES=O=C(O)CCCCCCCC=CCCCCCC" "license=License CC-BY-NC-SA 4.0 International" "author=Plant Biology, The Noble Foundation, Ardmore, OK, US/Dennis Fine, Daniel Wherritt, and Lloyd Sumner" "ionization=ESI" "isolation width=5" "collision gas=Nitrogen" "peak width=0.011" "date=2014-10-09 01:27:41+02:00" "column=Waters Acquity BEH C18 1.7um x 2.1 x 150 mm" "retention time=1761.6" "raw data file=C:\Data\Confirmed standards 6_Oct_2014\9-t-Palmitelaidic acid MSMS_1-D,3_01_984.d" "computed mass accuracy=2.386098547204609" "computed mass error=-6.041999999979453E-4" "SPLASH=splash10-0udi-1590500110-437a071e7d08786be604" "submitter=Aiko Barsch (Bruker)" "MoNA Rating=4.583333333333334"
Num Peaks: 13
253.2167 100.000000
713.3187 16.116116
856.4864 15.815816
1022.3206 18.918919
1115.5720 20.620621
1119.5393 17.117117
1128.1027 16.616617
1195.5475 15.015015
1242.5970 17.617618
1450.0496 16.116116
1486.5741 16.316316
1489.7284 16.816817
1489.7843 16.816817


Name: Pinolenic acid
Synon: $:00in-source
DB#: MetaboBASE1018
InChIKey: HXQHFNIKBKZGRP-URPRIDOGSA-N
Precursor_type: [M-H]-
Spectrum_type: MS2
PrecursorMZ: 277.2183
Instrument_type: LC-ESI-TOF
Instrument: impact HD
Ion_mode: N
Collision_energy: 10
Formula: C18H30O2
MW: 278
ExactMass: 278.2245802
Comments: "cas number=16833-54-8" "SMILES=CCCCC/C=C\C/C=C\CC/C=C\CCCC(=O)O" "InChI=InChI=1S/C18H30O2/c1-2-3-4-5-6-7-8-9-10-11-12-13-14-15-16-17-18(19)20/h6-7,9-10,13-14H,2-5,8,11-12,15-17H2,1H3,(H,19,20)/b7-6-,10-9-,14-13-" "computed SMILES=O=C(O)CCCC=CCCC=CCC=CCCCCC" "license=License CC-BY-NC-SA 4.0 International" "author=Plant Biology, The Noble Foundation, Ardmore, OK, US/Dennis Fine, Daniel Wherritt, and Lloyd Sumner" "ionization=ESI" "isolation width=5" "collision gas=Nitrogen" "peak width=0.012" "date=2014-10-09 02:08:33+02:00" "column=Waters Acquity BEH C18 1.7um x 2.1 x 150 mm" "retention time=1705.8" "raw data file=C:\Data\Confirmed standards 6_Oct_2014\Pinolenic acid vial 398 MSMS_1-D,4_01_985.d" "computed mass accuracy=3.592114950558191" "computed mass error=9.957999999983258E-4" "SPLASH=splash10-004i-0090000000-bb87773b8814b8f037e4" "submitter=Aiko Barsch (Bruker)" "MoNA Rating=3.9285714285714284"
Num Peaks: 2
277.2183 100.000000
278.2213 15.215215


Name: Pinolenic acid
Synon: $:00in-source
DB#: MetaboBASE1019
InChIKey: HXQHFNIKBKZGRP-URPRIDOGSA-N
Instrument_type: LC-ESI-TOF
Instrument: impact HD
Ion_mode: N
Formula: C18H30O2
MW: 278
ExactMass: 278.2245802
Comments: "cas number=16833-54-8" "SMILES=CCCCC/C=C\C/C=C\CC/C=C\CCCC(=O)O" "InChI=InChI=1S/C18H30O2/c1-2-3-4-5-6-7-8-9-10-11-12-13-14-15-16-17-18(19)20/h6-7,9-10,13-14H,2-5,8,11-12,15-17H2,1H3,(H,19,20)/b7-6-,10-9-,14-13-" "computed SMILES=O=C(O)CCCC=CCCC=CCC=CCCCCC" "license=License CC-BY-NC-SA 4.0 International" "author=Plant Biology, The Noble Foundation, Ardmore, OK, US/Dennis Fine, Daniel Wherritt, and Lloyd Sumner" "ionization=ESI" "collision gas=Nitrogen" "peak width=0.018" "date=2014-10-09 02:08:33+02:00" "column=Waters Acquity BEH C18 1.7um x 2.1 x 150 mm" "retention time=1705.8" "raw data file=C:\Data\Confirmed standards 6_Oct_2014\Pinolenic acid vial 398 MSMS_1-D,4_01_985.d" "SPLASH=splash10-004i-0091010000-1d1cf3ff7aa9a01aff97" "submitter=Aiko Barsch (Bruker)" "MoNA Rating=3.888888888888889"
Num Peaks: 20
112.9857 3.003003
128.0103 2.202202
248.9645 4.204204
277.2182 100.000000
278.2213 18.418418
279.0087 2.502503
279.2236 2.202202
285.9671 5.905906
316.9481 2.602603
345.2055 11.611612
346.2085 2.802803
353.9554 4.904905
415.9262 2.202202
428.2184 2.102102
556.0034 9.009009
577.4260 6.606607
578.4274 3.003003
645.4141 2.502503
666.0222 3.903904
877.6328 2.202202


Name: Pinolenic acid
Synon: $:00in-source
DB#: MetaboBASE1020
InChIKey: HXQHFNIKBKZGRP-URPRIDOGSA-N
Precursor_type: [M-H]-
Spectrum_type: MS2
PrecursorMZ: 277.2181
Instrument_type: LC-ESI-TOF
Instrument: impact HD
Ion_mode: N
Collision_energy: 20
Formula: C18H30O2
MW: 278
ExactMass: 278.2245802
Comments: "cas number=16833-54-8" "SMILES=CCCCC/C=C\C/C=C\CC/C=C\CCCC(=O)O" "InChI=InChI=1S/C18H30O2/c1-2-3-4-5-6-7-8-9-10-11-12-13-14-15-16-17-18(19)20/h6-7,9-10,13-14H,2-5,8,11-12,15-17H2,1H3,(H,19,20)/b7-6-,10-9-,14-13-" "computed SMILES=O=C(O)CCCC=CCCC=CCC=CCCCCC" "license=License CC-BY-NC-SA 4.0 International" "author=Plant Biology, The Noble Foundation, Ardmore, OK, US/Dennis Fine, Daniel Wherritt, and Lloyd Sumner" "ionization=ESI" "isolation width=5" "collision gas=Nitrogen" "peak width=0.015" "date=2014-10-09 02:08:33+02:00" "column=Waters Acquity BEH C18 1.7um x 2.1 x 150 mm" "retention time=1705.8" "raw data file=C:\Data\Confirmed standards 6_Oct_2014\Pinolenic acid vial 398 MSMS_1-D,4_01_985.d" "computed mass accuracy=2.8706639284797295" "computed mass error=7.957999999916865E-4" "SPLASH=splash10-004i-0090000000-7bb2263a02896b5ac224" "submitter=Aiko Barsch (Bruker)" "MoNA Rating=4.583333333333334"
Num Peaks: 3
259.2069 2.102102
277.2181 100.000000
278.2213 16.916917


Name: Pinolenic acid
Synon: $:00in-source
DB#: MetaboBASE1021
InChIKey: HXQHFNIKBKZGRP-URPRIDOGSA-N
Precursor_type: [M-H]-
Spectrum_type: MS2
PrecursorMZ: 277.2181
Instrument_type: LC-ESI-TOF
Instrument: impact HD
Ion_mode: N
Collision_energy: 30
Formula: C18H30O2
MW: 278
ExactMass: 278.2245802
Comments: "cas number=16833-54-8" "SMILES=CCCCC/C=C\C/C=C\CC/C=C\CCCC(=O)O" "InChI=InChI=1S/C18H30O2/c1-2-3-4-5-6-7-8-9-10-11-12-13-14-15-16-17-18(19)20/h6-7,9-10,13-14H,2-5,8,11-12,15-17H2,1H3,(H,19,20)/b7-6-,10-9-,14-13-" "computed SMILES=O=C(O)CCCC=CCCC=CCC=CCCCCC" "license=License CC-BY-NC-SA 4.0 International" "author=Plant Biology, The Noble Foundation, Ardmore, OK, US/Dennis Fine, Daniel Wherritt, and Lloyd Sumner" "ionization=ESI" "isolation width=5" "collision gas=Nitrogen" "peak width=0.011" "date=2014-10-09 02:08:33+02:00" "column=Waters Acquity BEH C18 1.7um x 2.1 x 150 mm" "retention time=1705.8" "raw data file=C:\Data\Confirmed standards 6_Oct_2014\Pinolenic acid vial 398 MSMS_1-D,4_01_985.d" "computed mass accuracy=2.8706639284797295" "computed mass error=7.957999999916865E-4" "SPLASH=splash10-004i-0090100000-e59ff0ae33a87486ac32" "submitter=Aiko Barsch (Bruker)" "MoNA Rating=4.583333333333334"
Num Peaks: 3
277.2181 100.000000
278.2157 20.020020
435.3937 18.418418


Name: Pinolenic acid
Synon: $:00in-source
DB#: MetaboBASE1022
InChIKey: HXQHFNIKBKZGRP-URPRIDOGSA-N
Instrument_type: LC-ESI-TOF
Instrument: impact HD
Ion_mode: N
Collision_energy: 10
Formula: C18H30O2
MW: 278
ExactMass: 278.2245802
Comments: "cas number=16833-54-8" "SMILES=CCCCC/C=C\C/C=C\CC/C=C\CCCC(=O)O" "InChI=InChI=1S/C18H30O2/c1-2-3-4-5-6-7-8-9-10-11-12-13-14-15-16-17-18(19)20/h6-7,9-10,13-14H,2-5,8,11-12,15-17H2,1H3,(H,19,20)/b7-6-,10-9-,14-13-" "computed SMILES=O=C(O)CCCC=CCCC=CCC=CCCCCC" "license=License CC-BY-NC-SA 4.0 International" "author=Plant Biology, The Noble Foundation, Ardmore, OK, US/Dennis Fine, Daniel Wherritt, and Lloyd Sumner" "ionization=ESI" "collision gas=Nitrogen" "peak width=0.014" "date=2014-10-08 01:22:28+02:00" "column=Waters Acquity BEH C18 1.7um x 2.1 x 150 mm" "retention time=1705.8" "raw data file=C:\Data\Confirmed standards 6_Oct_2014\Pinolenic acid vial 398_1-D,4_01_951.d" "SPLASH=splash10-004i-0090000000-5f0b93604daecb0b131c" "submitter=Aiko Barsch (Bruker)" "MoNA Rating=4.444444444444445"
Num Peaks: 13
128.0097 0.600601
161.0238 0.800801
233.2269 0.400400
277.2181 100.000000
278.2208 21.921922
279.2233 2.602603
345.2041 4.804805
346.2075 1.001001
377.1419 1.901902
378.1441 0.600601
407.1734 0.400400
428.2163 1.001001
556.0020 8.808809


Name: 9Z, 11E-Linoleic acid
Synon: $:00in-source
DB#: MetaboBASE1023
InChIKey: JBYXPOFIGCOSSB-GOJKSUSPSA-N
Precursor_type: [M-H]-
Spectrum_type: MS2
PrecursorMZ: 279.2337
Instrument_type: LC-ESI-TOF
Instrument: impact HD
Ion_mode: N
Collision_energy: 10
Formula: C18H32O2
MW: 280
ExactMass: 280.240230264
Comments: "cas number=2540-56-9" "SMILES=CCCCCC/C=C/C=C\CCCCCCCC(=O)O" "InChI=InChI=1S/C18H32O2/c1-2-3-4-5-6-7-8-9-10-11-12-13-14-15-16-17-18(19)20/h7-10H,2-6,11-17H2,1H3,(H,19,20)/b8-7+,10-9-" "computed SMILES=O=C(O)CCCCCCCC=CC=CCCCCCC" "license=License CC-BY-NC-SA 4.0 International" "author=Plant Biology, The Noble Foundation, Ardmore, OK, US/Dennis Fine, Daniel Wherritt, and Lloyd Sumner" "ionization=ESI" "isolation width=5" "collision gas=Nitrogen" "peak width=0.012" "date=2014-10-09 00:05:57+02:00" "column=Waters Acquity BEH C18 1.7um x 2.1 x 150 mm" "retention time=1820.4" "raw data file=C:\Data\Confirmed standards 6_Oct_2014\9Z,11E-Linoleic acid MSMS_1-D,1_01_982.d" "computed mass accuracy=2.670651858994606" "computed mass error=7.457359999989421E-4" "SPLASH=splash10-004i-0090000000-e92f42e010cf8de7d842" "submitter=Aiko Barsch (Bruker)" "MoNA Rating=3.9285714285714284"
Num Peaks: 2
279.2337 100.000000
280.2367 16.016016


Name: 9Z, 11E-Linoleic acid
Synon: $:00in-source
DB#: MetaboBASE1024
InChIKey: JBYXPOFIGCOSSB-GOJKSUSPSA-N
Precursor_type: [M-H]-
Spectrum_type: MS2
PrecursorMZ: 279.2324
Instrument_type: LC-ESI-TOF
Instrument: impact HD
Ion_mode: N
Collision_energy: 30
Formula: C18H32O2
MW: 280
ExactMass: 280.240230264
Comments: "cas number=2540-56-9" "SMILES=CCCCCC/C=C/C=C\CCCCCCCC(=O)O" "InChI=InChI=1S/C18H32O2/c1-2-3-4-5-6-7-8-9-10-11-12-13-14-15-16-17-18(19)20/h7-10H,2-6,11-17H2,1H3,(H,19,20)/b8-7+,10-9-" "computed SMILES=O=C(O)CCCCCCCC=CC=CCCCCCC" "license=License CC-BY-NC-SA 4.0 International" "author=Plant Biology, The Noble Foundation, Ardmore, OK, US/Dennis Fine, Daniel Wherritt, and Lloyd Sumner" "ionization=ESI" "isolation width=5" "collision gas=Nitrogen" "peak width=0.018" "date=2014-10-09 00:05:57+02:00" "column=Waters Acquity BEH C18 1.7um x 2.1 x 150 mm" "retention time=1820.4" "raw data file=C:\Data\Confirmed standards 6_Oct_2014\9Z,11E-Linoleic acid MSMS_1-D,1_01_982.d" "computed mass accuracy=1.9849559005895867" "computed mass error=-5.542640000157917E-4" "SPLASH=splash10-004i-0090000000-b39dc5a43bb0b5730a2f" "submitter=Aiko Barsch (Bruker)" "MoNA Rating=3.9285714285714284"
Num Peaks: 2
279.2324 100.000000
280.2361 20.120120


Name: 9Z, 11E-Linoleic acid
Synon: $:00in-source
DB#: MetaboBASE1025
InChIKey: JBYXPOFIGCOSSB-GOJKSUSPSA-N
Precursor_type: [M-H]-
Spectrum_type: MS2
PrecursorMZ: 279.2334
Instrument_type: LC-ESI-TOF
Instrument: impact HD
Ion_mode: N
Collision_energy: 20
Formula: C18H32O2
MW: 280
ExactMass: 280.240230264
Comments: "cas number=2540-56-9" "SMILES=CCCCCC/C=C/C=C\CCCCCCCC(=O)O" "InChI=InChI=1S/C18H32O2/c1-2-3-4-5-6-7-8-9-10-11-12-13-14-15-16-17-18(19)20/h7-10H,2-6,11-17H2,1H3,(H,19,20)/b8-7+,10-9-" "computed SMILES=O=C(O)CCCCCCCC=CC=CCCCCCC" "license=License CC-BY-NC-SA 4.0 International" "author=Plant Biology, The Noble Foundation, Ardmore, OK, US/Dennis Fine, Daniel Wherritt, and Lloyd Sumner" "ionization=ESI" "isolation width=5" "collision gas=Nitrogen" "peak width=0.013" "date=2014-10-09 00:05:57+02:00" "column=Waters Acquity BEH C18 1.7um x 2.1 x 150 mm" "retention time=1820.4" "raw data file=C:\Data\Confirmed standards 6_Oct_2014\9Z,11E-Linoleic acid MSMS_1-D,1_01_982.d" "computed mass accuracy=1.5962846852038648" "computed mass error=4.457360000174049E-4" "SPLASH=splash10-004i-0090000000-5eb9e4ae49ad1fb539cd" "submitter=Aiko Barsch (Bruker)" "MoNA Rating=3.9285714285714284"
Num Peaks: 2
279.2334 100.000000
280.2364 16.616617


Name: 9Z, 11E-Linoleic acid
Synon: $:00in-source
DB#: MetaboBASE1026
InChIKey: JBYXPOFIGCOSSB-GOJKSUSPSA-N
Instrument_type: LC-ESI-TOF
Instrument: impact HD
Ion_mode: N
Formula: C18H32O2
MW: 280
ExactMass: 280.240230264
Comments: "cas number=2540-56-9" "SMILES=CCCCCC/C=C/C=C\CCCCCCCC(=O)O" "InChI=InChI=1S/C18H32O2/c1-2-3-4-5-6-7-8-9-10-11-12-13-14-15-16-17-18(19)20/h7-10H,2-6,11-17H2,1H3,(H,19,20)/b8-7+,10-9-" "computed SMILES=O=C(O)CCCCCCCC=CC=CCCCCCC" "license=License CC-BY-NC-SA 4.0 International" "author=Plant Biology, The Noble Foundation, Ardmore, OK, US/Dennis Fine, Daniel Wherritt, and Lloyd Sumner" "ionization=ESI" "collision gas=Nitrogen" "peak width=0.012" "date=2014-10-09 00:05:57+02:00" "column=Waters Acquity BEH C18 1.7um x 2.1 x 150 mm" "retention time=1820.4" "raw data file=C:\Data\Confirmed standards 6_Oct_2014\9Z,11E-Linoleic acid MSMS_1-D,1_01_982.d" "SPLASH=splash10-004i-0091010000-52cb4af6370469644ffa" "submitter=Aiko Barsch (Bruker)" "MoNA Rating=3.888888888888889"
Num Peaks: 18
279.2336 100.000000
280.2365 21.521522
281.2388 2.602603
347.2203 7.207207
348.2232 1.601602
379.1573 4.504505
380.1601 1.501502
415.2074 0.500501
430.2306 1.501502
556.0021 5.405405
557.0041 0.700701
581.4556 10.510511
582.4590 4.304304
583.4594 1.001001
611.5073 0.600601
649.4429 3.503504
650.4456 1.401401
666.0216 2.302302


Name: 3-GluA-28-Xyl(1-4)Rha(1-2)Ara Medicagenic acid
Synon: $:00in-source
DB#: MetaboBASE1027
InChIKey: RPWKGRUCXRZSSG-YJCAFWCGSA-N
Precursor_type: [M-H]-
Spectrum_type: MS2
PrecursorMZ: 1087.51
Instrument_type: LC-ESI-TOF
Instrument: impact HD
Ion_mode: N
Collision_energy: 59.5317
Formula: C52H80O24
MW: 1088
ExactMass: 1088.50395344
Comments: "SMILES=[C@H]1([C@@H]([C@@](C2[C@](C1)(C1[C@@](CC2)([C@]2(C(=CC1)[C@H]1[C@@](CC2)(CCC(C1)(C)C)C(=O)O[C@H]1[C@@H]([C@H]([C@H](CO1)O)O)O[C@H]1[C@@H]([C@@H]([C@H]([C@@H](O1)C)O[C@H]1[C@@H]([C@H]([C@@H](CO1)O)O)O)O)O)C)C)C)(C)C(=O)O)O[C@@H]1O[C@@H]([C@H]([C@@H]([C@H]1O)O)O)C(=O)O)O" "InChI=InChI=1S/C52H80O24/c1-20-36(72-41-33(61)28(56)24(54)18-69-41)32(60)35(63)42(71-20)74-38-29(57)25(55)19-70-44(38)76-46(68)52-14-12-47(2,3)16-22(52)21-8-9-26-48(4)17-23(53)39(75-43-34(62)30(58)31(59)37(73-43)40(64)65)51(7,45(66)67)27(48)10-11-50(26,6)49(21,5)13-15-52/h8,20,22-39,41-44,53-63H,9-19H2,1-7H3,(H,64,65)(H,66,67)/t20-,22-,23-,24+,25-,26?,27?,28-,29-,30-,31-,32-,33+,34+,35+,36-,37-,38+,39-,41-,42-,43-,44-,48+,49+,50+,51-,52-/m0/s1" "computed SMILES=O=C(O)C1OC(OC2C(O)CC3(C)C(CCC4(C)C3CC=C5C6CC(C)(C)CCC6(C(=O)OC7OCC(O)C(O)C7OC8OC(C)C(OC9OCC(O)C(O)C9O)C(O)C8O)CCC54C)C2(C(=O)O)C)C(O)C(O)C1O" "license=License CC-BY-NC-SA 4.0 International" "author=Plant Biology, The Noble Foundation, Ardmore, OK, US/Dennis Fine, Daniel Wherritt, and Lloyd Sumner" "ionization=ESI" "isolation width=10.8751" "collision energy 2=99.2195" "peak width=0.014" "date=2014-02-20 15:54:38+01:00" "column=Waters Acquity BEH C18 1.7um x 2.1 x 150 mm" "retention time=797.4" "raw data file=C:\Data\2014Feb20 Lignin extr LCMSMS\CCR1 20634 leaf WT-1 MSMS.d" "computed mass accuracy=12.250517236628609" "computed mass error=0.013322560000005979" "SPLASH=splash10-000i-9500000000-263451b79d0d0aa81b82" "submitter=Aiko Barsch (Bruker)" "MoNA Rating=4.545454545454546"
Num Peaks: 52
95.0136 1.101101
99.0092 0.200200
101.0235 4.304304
102.0279 0.300300
103.0030 4.804805
104.0064 0.200200
113.0239 18.418418
114.0270 1.201201
115.0025 0.300300
119.0343 0.300300
129.0190 0.700701
131.0342 5.605606
132.0394 0.300300
133.0134 3.503504
134.0161 0.200200
149.0450 0.300300
157.0147 1.201201
163.0240 0.900901
164.0303 0.200200
175.0238 2.102102
193.0349 66.566567
194.0394 4.404404
195.0393 0.700701
196.0378 0.100100
207.9388 0.100100
439.3202 0.700701
440.3145 0.200200
483.3083 0.300300
484.3114 0.200200
501.3216 3.303303
502.3179 1.101101
503.3250 0.300300
596.4092 0.100100
677.3464 0.600601
678.3329 0.300300
798.3434 0.100100
911.4673 2.702703
912.4700 0.900901
913.4653 0.400400
1084.8300 0.100100
1087.2574 0.300300
1087.2975 0.200200
1087.4956 100.000000
1088.1450 0.200200
1088.3356 0.200200
1088.4976 55.255255
1088.9694 0.100100
1089.5009 19.919920
1089.6501 0.100100
1090.5021 2.702703
1091.5120 0.800801
1519.0994 0.100100


Name: 3-GluA-28-Xyl(1-4)Rha(1-2)Ara Medicagenic acid
Synon: $:00in-source
DB#: MetaboBASE1028
InChIKey: RPWKGRUCXRZSSG-YJCAFWCGSA-N
Instrument_type: LC-ESI-TOF
Instrument: impact HD
Ion_mode: N
Formula: C52H80O24
MW: 1088
ExactMass: 1088.50395344
Comments: "SMILES=[C@H]1([C@@H]([C@@](C2[C@](C1)(C1[C@@](CC2)([C@]2(C(=CC1)[C@H]1[C@@](CC2)(CCC(C1)(C)C)C(=O)O[C@H]1[C@@H]([C@H]([C@H](CO1)O)O)O[C@H]1[C@@H]([C@@H]([C@H]([C@@H](O1)C)O[C@H]1[C@@H]([C@H]([C@@H](CO1)O)O)O)O)O)C)C)C)(C)C(=O)O)O[C@@H]1O[C@@H]([C@H]([C@@H]([C@H]1O)O)O)C(=O)O)O" "InChI=InChI=1S/C52H80O24/c1-20-36(72-41-33(61)28(56)24(54)18-69-41)32(60)35(63)42(71-20)74-38-29(57)25(55)19-70-44(38)76-46(68)52-14-12-47(2,3)16-22(52)21-8-9-26-48(4)17-23(53)39(75-43-34(62)30(58)31(59)37(73-43)40(64)65)51(7,45(66)67)27(48)10-11-50(26,6)49(21,5)13-15-52/h8,20,22-39,41-44,53-63H,9-19H2,1-7H3,(H,64,65)(H,66,67)/t20-,22-,23-,24+,25-,26?,27?,28-,29-,30-,31-,32-,33+,34+,35+,36-,37-,38+,39-,41-,42-,43-,44-,48+,49+,50+,51-,52-/m0/s1" "computed SMILES=O=C(O)C1OC(OC2C(O)CC3(C)C(CCC4(C)C3CC=C5C6CC(C)(C)CCC6(C(=O)OC7OCC(O)C(O)C7OC8OC(C)C(OC9OCC(O)C(O)C9O)C(O)C8O)CCC54C)C2(C(=O)O)C)C(O)C(O)C1O" "license=License CC-BY-NC-SA 4.0 International" "author=Plant Biology, The Noble Foundation, Ardmore, OK, US/Dennis Fine, Daniel Wherritt, and Lloyd Sumner" "ionization=ESI" "peak width=0.011" "date=2014-02-20 15:54:38+01:00" "column=Waters Acquity BEH C18 1.7um x 2.1 x 150 mm" "retention time=797.4" "raw data file=C:\Data\2014Feb20 Lignin extr LCMSMS\CCR1 20634 leaf WT-1 MSMS.d" "annotformula=1087.4971;         C52H79O24" "annotformula=1632.2510;         C50H72O60" "annotformula=1632.7539;         C25H21O82" "SPLASH=splash10-000i-9000002000-64f4f85fe21ec2499f7d" "submitter=Aiko Barsch (Bruker)" "MoNA Rating=3.888888888888889"
Num Peaks: 95
477.2230 0.200200
477.7259 0.100100
543.2460 0.500501
543.7452 0.200200
955.4553 1.101101
956.4597 0.500501
1021.4763 0.400400
1021.9760 0.500501
1022.4711 0.300300
1087.1680 0.200200
1087.2733 0.100100
1087.3528 0.100100
1087.4971 100.000000
1087.7209 0.100100
1088.1654 0.100100
1088.3711 0.100100
1088.5000 57.157157
1089.5020 19.219219
1090.5056 4.004004
1091.5093 0.600601
1106.4646 0.200200
1106.9725 0.200200
1107.4740 0.200200
1109.4821 1.101101
1109.9706 0.100100
1110.4813 0.600601
1111.4828 0.200200
1113.9531 0.200200
1114.4442 0.300300
1114.9393 0.100100
1114.9760 0.100100
1186.4230 0.200200
1187.4188 0.800801
1188.4243 0.500501
1189.4247 0.200200
1235.5734 0.100100
1565.7244 0.500501
1566.2301 0.900901
1566.7283 0.800801
1567.2341 0.500501
1567.7292 0.300300
1631.7489 7.307307
1632.2510 13.713714
1632.4974 0.100100
1632.7539 12.912913
1633.2551 7.907908
1633.7552 3.803804
1634.2593 1.201201
1634.7587 0.500501
1635.2465 0.300300
1642.7346 0.300300
1643.2434 0.500501
1643.7002 0.100100
1643.7511 0.500501
1644.2482 0.300300
1644.7268 0.100100
1644.7693 0.100100
1645.2491 0.100100
1658.7063 0.200200
1659.2072 0.200200
1682.2009 0.200200
1705.7717 0.100100
1706.2827 0.300300
1706.8060 0.200200
1707.2919 0.300300
1769.4879 0.400400
1769.8168 0.400400
1770.1537 0.400400
1770.4895 0.400400
1770.8184 0.200200
1813.1658 0.600601
1813.4980 1.901902
1813.8368 3.203203
1814.1697 3.203203
1814.5049 2.602603
1814.8392 1.701702
1815.1632 1.001001
1815.4974 0.400400
1815.8383 0.300300
1816.1825 0.100100
1820.8477 0.100100
1821.1512 0.200200
1821.5016 0.200200
1821.8174 0.100100
1822.1498 0.100100
1863.1790 0.100100
1863.5181 0.100100
1863.8676 0.100100
1864.2026 0.100100
1904.3746 0.200200
1904.6244 0.300300
1904.8711 0.400400
1905.1327 0.400400
1905.3783 0.300300
1905.6097 0.200200


Name: 3-Glu(1-3)GluA-28-Xyl(1-4)[Api(1-3)]Rha(1-2)Ara Medicagenic acid
Synon: $:00in-source
DB#: MetaboBASE1029
InChIKey: TXOSKRBRXVSPJN-WTWXDXNZSA-N
Precursor_type: [M-H]-
Spectrum_type: MS2
PrecursorMZ: 1381.61
Instrument_type: LC-ESI-TOF
Instrument: impact HD
Ion_mode: N
Collision_energy: 70.5601
Formula: C63H98O33
MW: 1382
ExactMass: 1382.599035596
Comments: "SMILES=[C@H]1([C@@H]([C@@](C2[C@](C1)(C1[C@@](CC2)([C@]2(C(=CC1)[C@H]1[C@@](CC2)(CCC(C1)(C)C)C(=O)O[C@H]1[C@@H]([C@H]([C@H](CO1)O)O)O[C@H]1[C@@H]([C@@H]([C@H]([C@@H](O1)C)O[C@H]1[C@@H]([C@H]([C@@H](CO1)O)O)O)O[C@@H]1OC[C@]([C@H]1O)(O)CO)O)C)C)C)(C)C(=O)O)O[C@@H]1O[C@@H]([C@H]([C@@H]([C@H]1O)O[C@@H]1O[C@@H]([C@H]([C@@H]([C@H]1O)O)O)CO)O)C(=O)O)O" "InChI=InChI=1S/C63H98O33/c1-23-41(90-49-36(73)32(69)27(67)19-85-49)43(92-54-46(78)63(84,21-65)22-87-54)40(77)51(88-23)94-45-33(70)28(68)20-86-53(45)96-56(83)62-14-12-57(2,3)16-25(62)24-8-9-30-58(4)17-26(66)47(61(7,55(81)82)31(58)10-11-60(30,6)59(24,5)13-15-62)95-52-39(76)42(38(75)44(93-52)48(79)80)91-50-37(74)35(72)34(71)29(18-64)89-50/h8,23,25-47,49-54,64-78,84H,9-22H2,1-7H3,(H,79,80)(H,81,82)/t23-,25-,26-,27+,28-,29+,30?,31?,32-,33-,34+,35-,36+,37+,38-,39+,40+,41-,42-,43-,44-,45+,46-,47-,49-,50-,51-,52-,53-,54-,58+,59+,60+,61-,62-,63+/m0/s1" "computed SMILES=O=C(O)C1OC(OC2C(O)CC3(C)C(CCC4(C)C3CC=C5C6CC(C)(C)CCC6(C(=O)OC7OCC(O)C(O)C7OC8OC(C)C(OC9OCC(O)C(O)C9O)C(OC%10OCC(O)(CO)C%10O)C8O)CCC54C)C2(C(=O)O)C)C(O)C(OC%11OC(CO)C(O)C(O)C%11O)C1O" "license=License CC-BY-NC-SA 4.0 International" "author=Plant Biology, The Noble Foundation, Ardmore, OK, US/Dennis Fine, Daniel Wherritt, and Lloyd Sumner" "ionization=ESI" "collision energy 2=117.6" "peak width=0.015" "date=2014-02-20 15:13:46+01:00" "column=Waters Acquity BEH C18 1.7um x 2.1 x 150 mm" "retention time=768" "raw data file=C:\Data\2014Feb20 Lignin extr LCMSMS\CCR1 20634 leaf Homo-1 MSMS.d" "computed mass accuracy=13.202281396288061" "computed mass error=0.018240403999925547" "SPLASH=splash10-001i-0209000000-1b9143a091ed9b1985d5" "submitter=Aiko Barsch (Bruker)" "MoNA Rating=4.545454545454546"
Num Peaks: 76
99.0060 0.100100
101.0251 0.500501
103.0032 0.900901
113.0246 40.640641
114.0281 2.302302
115.0290 0.100100
115.0328 0.100100
119.0368 0.200200
131.0350 0.100100
149.0482 0.100100
161.0461 0.100100
175.0204 0.100100
175.0252 15.615616
176.0274 1.001001
176.0337 0.300300
177.0310 0.100100
179.0583 0.800801
180.0567 0.100100
293.0815 0.100100
293.0997 0.100100
337.1155 0.900901
338.1136 0.100100
355.0892 4.204204
356.0891 0.500501
357.1021 0.100100
425.3072 0.100100
437.3058 0.100100
439.3241 0.700701
440.3256 0.100100
469.1679 0.100100
483.3079 0.100100
484.3138 0.100100
501.3235 2.102102
502.3205 0.600601
502.3346 0.200200
503.3130 0.100100
503.3274 0.100100
579.4593 0.100100
733.5758 0.100100
839.4034 0.600601
840.4072 0.400400
1043.5007 2.302302
1044.4641 0.100100
1044.5128 1.101101
1045.5079 0.400400
1046.5332 0.100100
1380.6312 0.100100
1380.6890 0.100100
1381.0343 0.100100
1381.1906 0.100100
1381.4611 0.300300
1381.5510 0.100100
1381.5936 100.000000
1381.7183 0.200200
1381.9164 0.100100
1382.2831 0.100100
1382.3225 0.100100
1382.4642 0.200200
1382.5974 65.765766
1382.6648 0.100100
1382.8695 0.100100
1383.1705 0.100100
1383.3698 0.100100
1383.4958 0.100100
1383.5990 23.823824
1383.6926 0.300300
1384.1508 0.100100
1384.6005 6.806807
1384.7216 0.100100
1384.7894 0.100100
1385.5596 0.400400
1385.6039 1.401401
1386.6050 0.100100
1386.6765 0.100100
1389.6239 0.100100
1405.6001 0.100100


Name: 3-Glu(1-3)GluA-28-Xyl(1-4)[Api(1-3)]Rha(1-2)Ara Medicagenic acid
Synon: $:00in-source
DB#: MetaboBASE1030
InChIKey: TXOSKRBRXVSPJN-WTWXDXNZSA-N
Instrument_type: LC-ESI-TOF
Instrument: impact HD
Ion_mode: N
Collision_energy: 10
Formula: C63H98O33
MW: 1382
ExactMass: 1382.599035596
Comments: "SMILES=[C@H]1([C@@H]([C@@](C2[C@](C1)(C1[C@@](CC2)([C@]2(C(=CC1)[C@H]1[C@@](CC2)(CCC(C1)(C)C)C(=O)O[C@H]1[C@@H]([C@H]([C@H](CO1)O)O)O[C@H]1[C@@H]([C@@H]([C@H]([C@@H](O1)C)O[C@H]1[C@@H]([C@H]([C@@H](CO1)O)O)O)O[C@@H]1OC[C@]([C@H]1O)(O)CO)O)C)C)C)(C)C(=O)O)O[C@@H]1O[C@@H]([C@H]([C@@H]([C@H]1O)O[C@@H]1O[C@@H]([C@H]([C@@H]([C@H]1O)O)O)CO)O)C(=O)O)O" "InChI=InChI=1S/C63H98O33/c1-23-41(90-49-36(73)32(69)27(67)19-85-49)43(92-54-46(78)63(84,21-65)22-87-54)40(77)51(88-23)94-45-33(70)28(68)20-86-53(45)96-56(83)62-14-12-57(2,3)16-25(62)24-8-9-30-58(4)17-26(66)47(61(7,55(81)82)31(58)10-11-60(30,6)59(24,5)13-15-62)95-52-39(76)42(38(75)44(93-52)48(79)80)91-50-37(74)35(72)34(71)29(18-64)89-50/h8,23,25-47,49-54,64-78,84H,9-22H2,1-7H3,(H,79,80)(H,81,82)/t23-,25-,26-,27+,28-,29+,30?,31?,32-,33-,34+,35-,36+,37+,38-,39+,40+,41-,42-,43-,44-,45+,46-,47-,49-,50-,51-,52-,53-,54-,58+,59+,60+,61-,62-,63+/m0/s1" "computed SMILES=O=C(O)C1OC(OC2C(O)CC3(C)C(CCC4(C)C3CC=C5C6CC(C)(C)CCC6(C(=O)OC7OCC(O)C(O)C7OC8OC(C)C(OC9OCC(O)C(O)C9O)C(OC%10OCC(O)(CO)C%10O)C8O)CCC54C)C2(C(=O)O)C)C(O)C(OC%11OC(CO)C(O)C(O)C%11O)C1O" "license=License CC-BY-NC-SA 4.0 International" "author=Plant Biology, The Noble Foundation, Ardmore, OK, US/Dennis Fine, Daniel Wherritt, and Lloyd Sumner" "ionization=ESI" "peak width=0.022" "date=2015-02-04 01:41:50+01:00" "column=Waters Acquity BEH C18 1.7um x 2.1 x 150 mm" "retention time=768.6" "raw data file=G:\Sumner Lab Data Management Workspace Jun2013\Projects\NSF-JST Metabolomics Nov2011-Sep2014\UPLC-MS-MSMS\2015Mar17 R108 A17 root aerial for poster\A17 aerial" "SPLASH=splash10-001l-0009105100-34186431559925ace281" "submitter=Aiko Barsch (Bruker)" "MoNA Rating=4.444444444444445"
Num Peaks: 26
327.2166 4.104104
574.2796 3.203203
574.7764 1.001001
666.0184 3.503504
690.2932 68.768769
690.7947 47.447447
691.2959 21.921922
691.7958 6.706707
701.2802 2.502503
713.2949 18.018018
713.7966 13.313313
714.2964 6.106106
714.7960 0.600601
1149.5643 10.910911
1150.5717 5.105105
1381.5886 100.000000
1382.0913 9.509510
1382.5912 73.173173
1383.1011 2.202202
1383.5931 32.132132
1384.5908 9.309309
1397.6195 1.201201
1403.5743 10.810811
1404.5714 8.008008
1437.5804 7.007007
1438.5806 4.704705


Name: 3-Glu(1-3)GluA-28-Xyl(1-4)[Api(1-3)]Rha(1-2)Ara Medicagenic acid
Synon: $:00in-source
DB#: MetaboBASE1031
InChIKey: TXOSKRBRXVSPJN-WTWXDXNZSA-N
Instrument_type: LC-ESI-TOF
Instrument: impact HD
Ion_mode: N
Formula: C63H98O33
MW: 1382
ExactMass: 1382.599035596
Comments: "SMILES=[C@H]1([C@@H]([C@@](C2[C@](C1)(C1[C@@](CC2)([C@]2(C(=CC1)[C@H]1[C@@](CC2)(CCC(C1)(C)C)C(=O)O[C@H]1[C@@H]([C@H]([C@H](CO1)O)O)O[C@H]1[C@@H]([C@@H]([C@H]([C@@H](O1)C)O[C@H]1[C@@H]([C@H]([C@@H](CO1)O)O)O)O[C@@H]1OC[C@]([C@H]1O)(O)CO)O)C)C)C)(C)C(=O)O)O[C@@H]1O[C@@H]([C@H]([C@@H]([C@H]1O)O[C@@H]1O[C@@H]([C@H]([C@@H]([C@H]1O)O)O)CO)O)C(=O)O)O" "InChI=InChI=1S/C63H98O33/c1-23-41(90-49-36(73)32(69)27(67)19-85-49)43(92-54-46(78)63(84,21-65)22-87-54)40(77)51(88-23)94-45-33(70)28(68)20-86-53(45)96-56(83)62-14-12-57(2,3)16-25(62)24-8-9-30-58(4)17-26(66)47(61(7,55(81)82)31(58)10-11-60(30,6)59(24,5)13-15-62)95-52-39(76)42(38(75)44(93-52)48(79)80)91-50-37(74)35(72)34(71)29(18-64)89-50/h8,23,25-47,49-54,64-78,84H,9-22H2,1-7H3,(H,79,80)(H,81,82)/t23-,25-,26-,27+,28-,29+,30?,31?,32-,33-,34+,35-,36+,37+,38-,39+,40+,41-,42-,43-,44-,45+,46-,47-,49-,50-,51-,52-,53-,54-,58+,59+,60+,61-,62-,63+/m0/s1" "computed SMILES=O=C(O)C1OC(OC2C(O)CC3(C)C(CCC4(C)C3CC=C5C6CC(C)(C)CCC6(C(=O)OC7OCC(O)C(O)C7OC8OC(C)C(OC9OCC(O)C(O)C9O)C(OC%10OCC(O)(CO)C%10O)C8O)CCC54C)C2(C(=O)O)C)C(O)C(OC%11OC(CO)C(O)C(O)C%11O)C1O" "license=License CC-BY-NC-SA 4.0 International" "author=Plant Biology, The Noble Foundation, Ardmore, OK, US/Dennis Fine, Daniel Wherritt, and Lloyd Sumner" "ionization=ESI" "peak width=0.013" "date=2014-02-20 15:13:46+01:00" "column=Waters Acquity BEH C18 1.7um x 2.1 x 150 mm" "retention time=768.6" "raw data file=C:\Data\2014Feb20 Lignin extr LCMSMS\CCR1 20634 leaf Homo-1 MSMS.d" "SPLASH=splash10-001i-0009001000-7e696fd590fea5472ac7" "submitter=Aiko Barsch (Bruker)" "MoNA Rating=3.888888888888889"
Num Peaks: 220
690.1807 0.100100
690.2938 29.529530
690.3961 0.100100
690.7955 20.520521
691.2452 0.100100
691.2969 8.608609
691.8005 2.502503
692.2817 0.100100
692.3007 0.600601
692.8004 0.200200
701.2629 0.200200
701.2871 0.300300
701.7743 0.200200
701.7927 0.200200
708.2852 0.300300
708.7789 0.200200
709.2805 0.200200
709.7767 0.100100
713.2960 5.405405
713.7969 4.104104
714.3015 1.501502
714.8001 0.700701
1242.5559 0.100100
1243.0604 0.200200
1380.3093 0.100100
1380.3636 0.200200
1380.4993 0.200200
1380.5552 0.100100
1380.6261 0.300300
1380.7163 0.100100
1380.8098 0.200200
1380.9138 0.200200
1380.9592 0.100100
1381.0183 0.300300
1381.0562 0.100100
1381.1213 0.300300
1381.1710 0.100100
1381.2275 0.200200
1381.2777 0.300300
1381.3337 0.100100
1381.3685 0.100100
1381.4082 0.200200
1381.4612 0.100100
1381.5940 100.000000
1381.8026 0.200200
1381.8719 0.200200
1381.9221 0.300300
1381.9694 0.100100
1382.0958 50.650651
1382.1995 0.100100
1382.2432 0.200200
1382.3092 0.100100
1382.3707 0.300300
1382.4237 0.200200
1382.5974 84.384384
1382.7555 0.200200
1382.8229 0.300300
1382.8912 0.200200
1382.9619 0.100100
1383.0994 21.321321
1383.3031 0.300300
1383.3615 0.200200
1383.4342 0.200200
1383.4829 0.100100
1383.6003 26.626627
1383.8137 0.100100
1383.8634 0.200200
1383.9857 0.100100
1384.1014 2.902903
1384.3032 0.100100
1384.6066 4.704705
1384.8289 0.100100
1385.0007 0.100100
1385.0402 0.100100
1385.0936 0.500501
1385.2380 0.100100
1385.5093 0.100100
1385.5958 0.900901
1385.6412 0.300300
1386.0914 0.100100
1392.2703 0.100100
1392.5460 0.100100
1392.5902 1.701702
1392.9761 0.100100
1393.0831 2.902903
1393.5858 2.002002
1393.6707 0.100100
1394.0798 1.301301
1394.2334 0.100100
1394.5798 0.600601
1394.6287 0.100100
1394.9073 0.100100
1395.0863 0.200200
1395.2338 0.100100
1399.2006 0.200200
1399.5708 0.200200
1399.8434 0.100100
1399.9055 0.300300
1400.2367 0.300300
1400.5615 0.600601
1400.8406 0.100100
1400.8959 0.200200
1401.0564 0.600601
1401.2382 0.100100
1401.5614 0.500501
1401.8928 0.200200
1402.0673 0.200200
1402.2141 0.100100
1402.2511 0.100100
1402.5530 0.300300
1402.6045 0.100100
1402.8920 0.100100
1403.5785 1.601602
1403.8745 0.100100
1404.0605 0.400400
1404.2155 0.100100
1404.5724 1.201201
1404.6538 0.100100
1404.9106 0.100100
1405.0292 0.100100
1405.0762 0.300300
1405.5730 0.500501
1405.6300 0.100100
1407.2241 0.100100
1407.5708 0.200200
1407.8798 0.100100
1408.0393 0.400400
1408.2433 0.100100
1408.5527 0.600601
1408.8907 0.100100
1409.0492 0.500501
1409.2020 0.100100
1409.5516 0.500501
1410.0509 0.300300
1410.5509 0.100100
1419.5438 0.300300
1420.0405 0.200200
1420.5327 0.100100
1431.5590 0.900901
1431.8809 0.100100
1432.0615 1.401401
1432.1390 0.100100
1432.5618 1.101101
1433.0427 0.600601
1433.0859 0.200200
1433.5610 0.400400
1434.0641 0.100100
1434.4817 0.100100
1434.5376 0.300300
1435.0599 0.100100
1435.4865 0.200200
1435.5446 0.200200
1436.5461 0.100100
1442.4869 0.100100
1442.5437 0.100100
1442.5862 0.100100
1443.0403 0.300300
1443.5258 0.100100
1449.5493 0.200200
1449.6395 0.100100
1481.5167 1.001001
1481.6091 0.100100
1482.0353 0.100100
1482.5199 0.800801
1483.4592 0.100100
1483.5175 0.400400
1483.5586 0.100100
1484.5203 0.100100
1727.4906 0.200200
1727.7531 0.300300
1727.9886 0.300300
1728.1842 0.100100
1728.2518 0.500501
1728.4503 0.100100
1728.5061 0.300300
1728.7482 0.300300
1729.0022 0.100100
1729.0458 0.100100
1729.2157 0.100100
1729.2626 0.100100
1842.2958 0.100100
1842.4563 1.201201
1842.6379 0.100100
1842.7933 3.003003
1842.9916 0.100100
1843.1312 5.005005
1843.2958 0.100100
1843.4612 4.704705
1843.6761 0.100100
1843.8032 3.603604
1844.0856 0.100100
1844.1390 2.502503
1844.4628 1.401401
1844.7195 0.100100
1844.7994 0.800801
1845.1442 0.300300
1845.2024 0.100100
1845.4205 0.100100
1845.4713 0.100100
1849.7499 0.100100
1850.1007 0.300300
1850.1577 0.100100
1850.4409 0.400400
1850.4894 0.200200
1850.7988 0.600601
1851.1144 0.400400
1851.1835 0.100100
1851.3842 0.100100
1851.4708 0.400400
1851.7765 0.300300
1851.8464 0.100100
1852.1371 0.100100
1852.4578 0.100100
1882.0723 0.200200
1882.1450 0.100100
1882.4174 0.300300
1882.5148 0.100100
1882.7715 0.300300
1883.1208 0.200200
1883.4304 0.200200


Name: 3-GluA-28-Xyl(1-4)[Api(1-3)]Rha(1-2)Ara Medicagenic acid
Synon: $:00in-source
DB#: MetaboBASE1032
InChIKey: MOBNVBHCGSZLDY-VBYBTYMUSA-N
Precursor_type: [M-2H]-
Spectrum_type: MS2
PrecursorMZ: 609.2654
Instrument_type: LC-ESI-TOF
Instrument: impact HD
Ion_mode: N
Collision_energy: 41.5979
Formula: C57H88O28
MW: 1220
ExactMass: 1220.546212176
Comments: "SMILES=[C@H]1([C@@H]([C@@](C2[C@](C1)(C1[C@@](CC2)([C@]2(C(=CC1)[C@H]1[C@@](CC2)(CCC(C1)(C)C)C(=O)O[C@H]1[C@@H]([C@H]([C@H](CO1)O)O)O[C@H]1[C@@H]([C@@H]([C@H]([C@@H](O1)C)O[C@H]1[C@@H]([C@H]([C@@H](CO1)O)O)O)O[C@@H]1OC[C@]([C@H]1O)(O)CO)O)C)C)C)(C)C(=O)O)O[C@@H]1O[C@@H]([C@H]([C@@H]([C@H]1O)O)O)C(=O)O)O" "InChI=InChI=1S/C57H88O28/c1-22-37(80-44-34(66)30(62)26(60)18-76-44)38(81-48-41(69)57(75,20-58)21-78-48)36(68)46(79-22)83-40-31(63)27(61)19-77-47(40)85-50(74)56-14-12-51(2,3)16-24(56)23-8-9-28-52(4)17-25(59)42(84-45-35(67)32(64)33(65)39(82-45)43(70)71)55(7,49(72)73)29(52)10-11-54(28,6)53(23,5)13-15-56/h8,22,24-42,44-48,58-69,75H,9-21H2,1-7H3,(H,70,71)(H,72,73)/t22-,24-,25-,26+,27-,28?,29?,30-,31-,32-,33-,34+,35+,36+,37-,38-,39-,40+,41-,42-,44-,45-,46-,47-,48-,52+,53+,54+,55-,56-,57+/m0/s1" "computed SMILES=O=C(O)C1OC(OC2C(O)CC3(C)C4CC=C5C6CC(C)(C)CCC6(C(=O)OC7OCC(O)C(O)C7OC8OC(C)C(OC9OCC(O)C(O)C9O)C(OC%10OCC(O)(CO)C%10O)C8O)CCC5(C)C4(C)CCC3C2(C(=O)O)C)C(O)C(O)C1O" "license=License CC-BY-NC-SA 4.0 International" "author=Plant Biology, The Noble Foundation, Ardmore, OK, US/Dennis Fine, Daniel Wherritt, and Lloyd Sumner" "ionization=ESI" "collision energy 2=69.3298" "peak width=0.015" "date=2014-12-12 20:57:07+01:00" "column=Waters Acquity BEH C18 1.7um x 2.1 x 150 mm" "retention time=786.6" "raw data file=C:\Data\Noble-Bruker MS libr eval complex mix\2014Dec_A17 aer rt mix MSMS_1-A,2_01_1447.d" "computed mass accuracy=0.7059123986302116" "computed mass error=-4.3008799991639535E-4" "SPLASH=splash10-000i-0202900000-ccbbdd747fd7da58167f" "submitter=Aiko Barsch (Bruker)" "MoNA Rating=4.615384615384616"
Num Peaks: 18
101.0251 4.404404
103.0022 1.901902
103.0053 2.102102
113.0243 12.712713
131.0334 6.306306
133.0121 2.602603
143.0332 1.401401
193.0346 15.315315
233.0673 5.005005
277.0922 6.006006
337.1137 39.439439
338.1146 2.102102
338.1238 2.702703
338.1758 6.206206
409.1310 2.502503
439.3220 100.000000
440.3254 30.930931
469.1531 18.918919


Name: 3-GluA-28-Xyl(1-4)[Api(1-3)]Rha(1-2)Ara Medicagenic acid
Synon: $:00in-source
DB#: MetaboBASE1033
InChIKey: MOBNVBHCGSZLDY-VBYBTYMUSA-N
Precursor_type: [M-H]-
Spectrum_type: MS2
PrecursorMZ: 1219.533
Instrument_type: LC-ESI-TOF
Instrument: impact HD
Ion_mode: N
Collision_energy: 64.4835
Formula: C57H88O28
MW: 1220
ExactMass: 1220.546212176
Comments: "SMILES=[C@H]1([C@@H]([C@@](C2[C@](C1)(C1[C@@](CC2)([C@]2(C(=CC1)[C@H]1[C@@](CC2)(CCC(C1)(C)C)C(=O)O[C@H]1[C@@H]([C@H]([C@H](CO1)O)O)O[C@H]1[C@@H]([C@@H]([C@H]([C@@H](O1)C)O[C@H]1[C@@H]([C@H]([C@@H](CO1)O)O)O)O[C@@H]1OC[C@]([C@H]1O)(O)CO)O)C)C)C)(C)C(=O)O)O[C@@H]1O[C@@H]([C@H]([C@@H]([C@H]1O)O)O)C(=O)O)O" "InChI=InChI=1S/C57H88O28/c1-22-37(80-44-34(66)30(62)26(60)18-76-44)38(81-48-41(69)57(75,20-58)21-78-48)36(68)46(79-22)83-40-31(63)27(61)19-77-47(40)85-50(74)56-14-12-51(2,3)16-24(56)23-8-9-28-52(4)17-25(59)42(84-45-35(67)32(64)33(65)39(82-45)43(70)71)55(7,49(72)73)29(52)10-11-54(28,6)53(23,5)13-15-56/h8,22,24-42,44-48,58-69,75H,9-21H2,1-7H3,(H,70,71)(H,72,73)/t22-,24-,25-,26+,27-,28?,29?,30-,31-,32-,33-,34+,35+,36+,37-,38-,39-,40+,41-,42-,44-,45-,46-,47-,48-,52+,53+,54+,55-,56-,57+/m0/s1" "computed SMILES=O=C(O)C1OC(OC2C(O)CC3(C)C4CC=C5C6CC(C)(C)CCC6(C(=O)OC7OCC(O)C(O)C7OC8OC(C)C(OC9OCC(O)C(O)C9O)C(OC%10OCC(O)(CO)C%10O)C8O)CCC5(C)C4(C)CCC3C2(C(=O)O)C)C(O)C(O)C1O" "license=License CC-BY-NC-SA 4.0 International" "author=Plant Biology, The Noble Foundation, Ardmore, OK, US/Dennis Fine, Daniel Wherritt, and Lloyd Sumner" "ionization=ESI" "collision energy 2=107.472" "peak width=0.015" "date=2014-12-12 20:57:07+01:00" "column=Waters Acquity BEH C18 1.7um x 2.1 x 150 mm" "retention time=786.6" "raw data file=C:\Data\Noble-Bruker MS libr eval complex mix\2014Dec_A17 aer rt mix MSMS_1-A,2_01_1447.d" "computed mass accuracy=4.867581279044866" "computed mass error=-0.005936175999977422" "SPLASH=splash10-01b9-0390000000-d10e07b12f8da142b7ee" "submitter=Aiko Barsch (Bruker)" "MoNA Rating=4.583333333333334"
Num Peaks: 48
101.0238 2.402402
103.0033 3.703704
104.0067 0.200200
113.0243 10.510511
114.0278 0.400400
116.9276 0.600601
129.0164 0.100100
129.0209 0.100100
131.0348 4.004004
133.0141 1.401401
149.0445 0.100100
157.0146 0.900901
163.0229 0.700701
175.0248 1.101101
193.0355 34.134134
194.0341 0.100100
194.0391 2.002002
195.0387 0.200200
337.1146 0.300300
345.1684 0.100100
346.6764 0.100100
350.2529 0.100100
351.5470 0.100100
351.9761 0.100100
362.9399 0.100100
364.4401 0.100100
439.3226 0.500501
501.3212 2.702703
502.3219 0.600601
677.3555 1.401401
678.3622 0.200200
1043.5060 3.303303
1044.4873 0.200200
1044.5164 1.501502
1045.4874 0.100100
1219.3149 0.100100
1219.3793 0.300300
1219.5376 100.000000
1219.7495 0.300300
1219.7806 0.100100
1219.8730 0.100100
1220.4016 0.100100
1220.5409 57.757758
1221.5439 22.122122
1221.7155 0.200200
1222.5093 0.100100
1222.5421 5.805806
1223.5559 0.600601


Name: 3-GluA-28-Xyl(1-4)[Api(1-3)]Rha(1-2)Ara Medicagenic acid
Synon: $:00in-source
DB#: MetaboBASE1034
InChIKey: MOBNVBHCGSZLDY-VBYBTYMUSA-N
Instrument_type: LC-ESI-TOF
Instrument: impact HD
Ion_mode: N
Formula: C57H88O28
MW: 1220
ExactMass: 1220.546212176
Comments: "SMILES=[C@H]1([C@@H]([C@@](C2[C@](C1)(C1[C@@](CC2)([C@]2(C(=CC1)[C@H]1[C@@](CC2)(CCC(C1)(C)C)C(=O)O[C@H]1[C@@H]([C@H]([C@H](CO1)O)O)O[C@H]1[C@@H]([C@@H]([C@H]([C@@H](O1)C)O[C@H]1[C@@H]([C@H]([C@@H](CO1)O)O)O)O[C@@H]1OC[C@]([C@H]1O)(O)CO)O)C)C)C)(C)C(=O)O)O[C@@H]1O[C@@H]([C@H]([C@@H]([C@H]1O)O)O)C(=O)O)O" "InChI=InChI=1S/C57H88O28/c1-22-37(80-44-34(66)30(62)26(60)18-76-44)38(81-48-41(69)57(75,20-58)21-78-48)36(68)46(79-22)83-40-31(63)27(61)19-77-47(40)85-50(74)56-14-12-51(2,3)16-24(56)23-8-9-28-52(4)17-25(59)42(84-45-35(67)32(64)33(65)39(82-45)43(70)71)55(7,49(72)73)29(52)10-11-54(28,6)53(23,5)13-15-56/h8,22,24-42,44-48,58-69,75H,9-21H2,1-7H3,(H,70,71)(H,72,73)/t22-,24-,25-,26+,27-,28?,29?,30-,31-,32-,33-,34+,35+,36+,37-,38-,39-,40+,41-,42-,44-,45-,46-,47-,48-,52+,53+,54+,55-,56-,57+/m0/s1" "computed SMILES=O=C(O)C1OC(OC2C(O)CC3(C)C4CC=C5C6CC(C)(C)CCC6(C(=O)OC7OCC(O)C(O)C7OC8OC(C)C(OC9OCC(O)C(O)C9O)C(OC%10OCC(O)(CO)C%10O)C8O)CCC5(C)C4(C)CCC3C2(C(=O)O)C)C(O)C(O)C1O" "license=License CC-BY-NC-SA 4.0 International" "author=Plant Biology, The Noble Foundation, Ardmore, OK, US/Dennis Fine, Daniel Wherritt, and Lloyd Sumner" "ionization=ESI" "peak width=0.047" "date=2014-12-12 20:57:07+01:00" "column=Waters Acquity BEH C18 1.7um x 2.1 x 150 mm" "retention time=786.6" "raw data file=C:\Data\Noble-Bruker MS libr eval complex mix\2014Dec_A17 aer rt mix MSMS_1-A,2_01_1447.d" "SPLASH=splash10-00xr-0090002010-09961b8b4d96b21e1ba6" "submitter=Aiko Barsch (Bruker)" "MoNA Rating=3.888888888888889"
Num Peaks: 113
609.268 25.325325
609.770 15.415415
610.271 5.905906
610.772 1.701702
611.275 0.500501
632.271 0.700701
632.771 0.500501
1219.157 0.200200
1219.266 0.200200
1219.348 0.300300
1219.417 0.100100
1219.543 100.000000
1219.760 0.100100
1219.793 0.100100
1219.863 0.200200
1220.046 21.021021
1220.181 0.200200
1220.222 0.100100
1220.255 0.100100
1220.304 0.100100
1220.365 0.100100
1220.546 68.568569
1220.699 0.100100
1220.762 0.100100
1220.882 0.100100
1221.049 7.607608
1221.308 0.100100
1221.436 0.200200
1221.550 22.922923
1221.985 0.100100
1222.038 1.001001
1222.553 4.604605
1223.052 0.200200
1223.557 0.700701
1230.537 1.701702
1231.036 2.002002
1231.535 1.401401
1232.039 0.700701
1232.516 0.300300
1232.555 0.300300
1233.048 0.200200
1238.483 0.200200
1238.524 0.500501
1239.010 0.300300
1239.043 0.200200
1239.519 0.400400
1240.021 0.100100
1241.524 1.901902
1242.015 0.600601
1242.526 1.301301
1243.037 0.100100
1243.537 0.400400
1245.501 0.100100
1245.993 0.400400
1246.499 0.700701
1247.011 0.500501
1269.505 0.300300
1270.014 0.400400
1270.499 0.100100
1272.422 0.100100
1272.463 0.400400
1273.463 0.400400
1293.575 0.700701
1294.076 1.101101
1294.585 0.700701
1295.077 0.400400
1304.498 0.200200
1305.054 0.200200
1319.469 1.201201
1320.465 0.700701
1320.514 0.100100
1321.464 0.100100
1367.612 0.400400
1368.618 0.400400
1626.368 0.300300
1626.427 0.200200
1626.727 1.101101
1627.066 1.501502
1627.402 1.601602
1627.740 0.800801
1628.059 0.300300
1628.365 0.300300
1628.421 0.300300
1628.741 0.200200
1629.065 0.100100
1633.727 0.100100
1634.041 0.100100
1634.087 0.200200
1634.381 0.500501
1634.431 0.100100
1829.815 2.902903
1830.322 7.007007
1830.578 0.300300
1830.702 0.100100
1830.821 7.307307
1831.068 0.200200
1831.328 5.505506
1831.763 0.100100
1831.824 2.502503
1832.328 1.201201
1832.825 0.400400
1840.822 0.200200
1841.308 0.500501
1841.821 0.500501
1842.255 0.100100
1842.325 0.400400
1880.761 0.300300
1881.312 0.300300
1903.868 0.100100
1904.291 0.100100
1904.349 0.200200
1904.847 0.300300
1905.355 0.200200


Name: 3-Glu-28-Xyl(1-4)[Api(1-3)]Rha(1-2)Ara Medicagenic acid
Synon: $:00in-source
DB#: MetaboBASE1035
InChIKey: ADIBRWUTYMYVDH-DUIVSVLLSA-N
Instrument_type: LC-ESI-TOF
Instrument: impact HD
Ion_mode: N
Formula: C57H90O27
MW: 1206
ExactMass: 1206.56694762
Comments: "SMILES=[C@H]1([C@@H]([C@@](C2[C@](C1)(C1[C@@](CC2)([C@]2(C(=CC1)[C@H]1[C@@](CC2)(CCC(C1)(C)C)C(=O)O[C@H]1[C@@H]([C@H]([C@H](CO1)O)O)O[C@H]1[C@@H]([C@@H]([C@H]([C@@H](O1)C)O[C@H]1[C@@H]([C@H]([C@@H](CO1)O)O)O)O[C@@H]1OC[C@]([C@H]1O)(O)CO)O)C)C)C)(C)C(=O)O)O[C@@H]1O[C@@H]([C@H]([C@@H]([C@H]1O)O)O)CO)O" "InChI=InChI=1S/C57H90O27/c1-23-39(80-44-36(67)32(63)27(61)19-75-44)40(81-48-42(70)57(74,21-59)22-77-48)38(69)46(78-23)82-41-33(64)28(62)20-76-47(41)84-50(73)56-14-12-51(2,3)16-25(56)24-8-9-30-52(4)17-26(60)43(83-45-37(68)35(66)34(65)29(18-58)79-45)55(7,49(71)72)31(52)10-11-54(30,6)53(24,5)13-15-56/h8,23,25-48,58-70,74H,9-22H2,1-7H3,(H,71,72)/t23-,25-,26-,27+,28-,29+,30?,31?,32-,33-,34+,35-,36+,37+,38+,39-,40-,41+,42-,43-,44-,45-,46-,47-,48-,52+,53+,54+,55-,56-,57+/m0/s1" "computed SMILES=O=C(O)C1(C)C(OC2OC(CO)C(O)C(O)C2O)C(O)CC3(C)C1CCC4(C)C3CC=C5C6CC(C)(C)CCC6(C(=O)OC7OCC(O)C(O)C7OC8OC(C)C(OC9OCC(O)C(O)C9O)C(OC%10OCC(O)(CO)C%10O)C8O)CCC54C" "license=License CC-BY-NC-SA 4.0 International" "author=Plant Biology, The Noble Foundation, Ardmore, OK, US/Dennis Fine, Daniel Wherritt, and Lloyd Sumner" "ionization=ESI" "peak width=0.015" "date=2014-02-20 15:54:38+01:00" "column=Waters Acquity BEH C18 1.7um x 2.1 x 150 mm" "retention time=808.2" "raw data file=C:\Data\2014Feb20 Lignin extr LCMSMS\CCR1 20634 leaf WT-1 MSMS.d" "annotformula=1184.0494;         C26H40O52" "annotformula=1205.5621;         C50H93O32" "SPLASH=splash10-0a4i-0190000000-2040b7d3bcb2f931cd4b" "submitter=Aiko Barsch (Bruker)" "MoNA Rating=3.888888888888889"
Num Peaks: 62
556.0020 2.902903
557.0008 0.200200
580.2635 9.109109
580.7661 5.605606
581.2648 2.802803
581.7670 0.900901
602.2769 2.602603
602.7811 1.401401
603.2668 2.602603
603.7663 1.201201
604.2634 1.301301
604.7709 0.300300
614.2584 1.201201
614.7571 0.800801
629.7186 0.900901
630.2155 0.100100
841.4193 1.001001
841.4495 0.300300
1087.4210 0.100100
1087.4983 4.004004
1088.4658 0.700701
1088.5024 3.003003
1183.5474 9.309309
1183.6478 0.200200
1183.8032 0.200200
1184.0494 11.311311
1184.3383 0.100100
1184.4972 0.200200
1184.5520 8.308308
1185.0486 3.703704
1185.5419 2.002002
1186.0677 0.200200
1205.5621 100.000000
1206.0579 4.204204
1206.1560 0.400400
1206.3529 0.200200
1206.5647 57.057057
1206.9910 0.300300
1207.0647 1.901902
1207.1521 0.300300
1207.4077 0.200200
1207.4502 0.200200
1207.5699 17.517518
1207.7426 0.200200
1208.4077 0.200200
1208.5699 4.504505
1229.4819 0.100100
1229.5254 1.301301
1230.5109 0.100100
1273.5437 4.704705
1274.4304 0.100100
1274.4781 0.100100
1274.5399 2.702703
1275.0400 0.200200
1275.5317 0.100100
1305.4052 0.400400
1305.4764 2.302302
1306.4530 1.401401
1306.4897 2.302302
1306.9346 0.200200
1307.4021 0.100100
1307.4766 0.400400


Name: 3-Glu-28-Xyl(1-4)[Api(1-3)]Rha(1-2)Ara Medicagenic acid
Synon: $:00in-source
DB#: MetaboBASE1036
InChIKey: ADIBRWUTYMYVDH-DUIVSVLLSA-N
Precursor_type: [M-H]-
Spectrum_type: MS2
PrecursorMZ: 1205.562
Instrument_type: LC-ESI-TOF
Instrument: impact HD
Ion_mode: N
Collision_energy: 63.9592
Formula: C57H90O27
MW: 1206
ExactMass: 1206.56694762
Comments: "SMILES=[C@H]1([C@@H]([C@@](C2[C@](C1)(C1[C@@](CC2)([C@]2(C(=CC1)[C@H]1[C@@](CC2)(CCC(C1)(C)C)C(=O)O[C@H]1[C@@H]([C@H]([C@H](CO1)O)O)O[C@H]1[C@@H]([C@@H]([C@H]([C@@H](O1)C)O[C@H]1[C@@H]([C@H]([C@@H](CO1)O)O)O)O[C@@H]1OC[C@]([C@H]1O)(O)CO)O)C)C)C)(C)C(=O)O)O[C@@H]1O[C@@H]([C@H]([C@@H]([C@H]1O)O)O)CO)O" "InChI=InChI=1S/C57H90O27/c1-23-39(80-44-36(67)32(63)27(61)19-75-44)40(81-48-42(70)57(74,21-59)22-77-48)38(69)46(78-23)82-41-33(64)28(62)20-76-47(41)84-50(73)56-14-12-51(2,3)16-25(56)24-8-9-30-52(4)17-26(60)43(83-45-37(68)35(66)34(65)29(18-58)79-45)55(7,49(71)72)31(52)10-11-54(30,6)53(24,5)13-15-56/h8,23,25-48,58-70,74H,9-22H2,1-7H3,(H,71,72)/t23-,25-,26-,27+,28-,29+,30?,31?,32-,33-,34+,35-,36+,37+,38+,39-,40-,41+,42-,43-,44-,45-,46-,47-,48-,52+,53+,54+,55-,56-,57+/m0/s1" "computed SMILES=O=C(O)C1(C)C(OC2OC(CO)C(O)C(O)C2O)C(O)CC3(C)C1CCC4(C)C3CC=C5C6CC(C)(C)CCC6(C(=O)OC7OCC(O)C(O)C7OC8OC(C)C(OC9OCC(O)C(O)C9O)C(OC%10OCC(O)(CO)C%10O)C8O)CCC54C" "license=License CC-BY-NC-SA 4.0 International" "author=Plant Biology, The Noble Foundation, Ardmore, OK, US/Dennis Fine, Daniel Wherritt, and Lloyd Sumner" "ionization=ESI" "collision energy 2=106.599" "peak width=0.0098" "date=2014-02-20 15:54:38+01:00" "column=Waters Acquity BEH C18 1.7um x 2.1 x 150 mm" "retention time=808.2" "raw data file=C:\Data\2014Feb20 Lignin extr LCMSMS\CCR1 20634 leaf WT-1 MSMS.d" "annotformula=337.1135;         C13H21O10" "annotformula=439.3217;         C29H43O3" "annotformula=1205.5627;         C75H81O14" "annotformula=1206.5558;         C71H82O17" "computed mass accuracy=1.931364790762135" "computed mass error=0.002328379999880781" "SPLASH=splash10-0a4i-0091300000-739af1432647e6bc2263" "submitter=Aiko Barsch (Bruker)" "MoNA Rating=4.583333333333334"
Num Peaks: 39
113.0240 1.601602
205.0709 1.101101
233.0693 2.802803
277.0879 4.604605
285.0841 1.101101
337.1135 23.623624
409.1273 3.403403
409.1486 2.302302
439.3217 35.835836
440.3109 1.801802
440.3291 6.006006
441.3257 1.701702
469.1533 17.317317
469.1729 1.101101
485.3335 1.501502
541.1953 2.002002
643.3370 1.101101
731.3908 5.305305
733.4228 1.101101
793.4128 2.402402
981.4893 4.704705
981.5215 3.403403
981.5681 1.301301
982.5126 2.002002
983.5052 1.701702
1203.5337 7.307307
1203.5803 4.504505
1204.0769 1.001001
1204.5160 1.601602
1204.5549 2.502503
1205.5071 1.801802
1205.5627 100.000000
1205.7332 1.101101
1206.5558 56.556557
1207.5701 18.718719
1208.5377 1.301301
1208.5845 2.302302
1209.5436 1.401401
1209.6198 1.801802


Name: Oct-1-en-3-yl Ara (1-6)Glu
Synon: $:00in-source
DB#: MetaboBASE1037
InChIKey: VXNMHZVTDWLWRX-GNRUMFBNSA-N
Precursor_type: [M-H]-
Spectrum_type: MS2
PrecursorMZ: 421.2081
Instrument_type: LC-ESI-TOF
Instrument: impact HD
Ion_mode: N
Collision_energy: 33.0683
Formula: C19H34O10
MW: 422
ExactMass: 422.215197288
Comments: "SMILES=CCCCC[C@@H](O[C@@H]1O[C@@H]([C@H]([C@@H]([C@H]1O)O)O)CO[C@H]1[C@@H]([C@H]([C@H](CO1)O)O)O)C=C" "InChI=InChI=1S/C19H34O10/c1-3-5-6-7-10(4-2)28-19-17(25)15(23)14(22)12(29-19)9-27-18-16(24)13(21)11(20)8-26-18/h4,10-25H,2-3,5-9H2,1H3/t10-,11-,12+,13-,14+,15-,16+,17+,18-,19+/m0/s1" "computed SMILES=OC1COC(OCC2OC(OC(C=C)CCCCC)C(O)C(O)C2O)C(O)C1O" "synonym=Oct-1-en-3-yl Ara-(1-6)-Glu (NMR)" "license=License CC-BY-NC-SA 4.0 International" "author=Plant Biology, The Noble Foundation, Ardmore, OK, US/Dennis Fine, Daniel Wherritt, and Lloyd Sumner" "ionization=ESI" "collision energy 2=55.1139" "peak width=0.018" "date=2014-02-20 15:54:38+01:00" "column=Waters Acquity BEH C18 1.7um x 2.1 x 150 mm" "retention time=524.4" "raw data file=C:\Data\2014Feb20 Lignin extr LCMSMS\CCR1 20634 leaf WT-1 MSMS.d" "annotformula=101.0239;         C4H5O3" "annotformula=113.0239;         C5H5O3" "computed mass accuracy=0.42428433826174416" "computed mass error=1.7871199997898657E-4" "SPLASH=splash10-0w29-0900000000-9339713d153fe94ea5a4" "submitter=Aiko Barsch (Bruker)" "MoNA Rating=4.615384615384616"
Num Peaks: 6
101.0239 100.000000
113.0239 54.854855
116.0097 5.305305
131.0353 6.406406
161.0461 8.808809
255.7987 5.105105


Name: Oct-1-en-3-yl Ara (1-6)Glu
Synon: $:00in-source
DB#: MetaboBASE1038
InChIKey: VXNMHZVTDWLWRX-GNRUMFBNSA-N
Instrument_type: LC-ESI-TOF
Instrument: impact HD
Ion_mode: N
Collision_energy: 10
Formula: C19H34O10
MW: 422
ExactMass: 422.215197288
Comments: "SMILES=CCCCC[C@@H](O[C@@H]1O[C@@H]([C@H]([C@@H]([C@H]1O)O)O)CO[C@H]1[C@@H]([C@H]([C@H](CO1)O)O)O)C=C" "InChI=InChI=1S/C19H34O10/c1-3-5-6-7-10(4-2)28-19-17(25)15(23)14(22)12(29-19)9-27-18-16(24)13(21)11(20)8-26-18/h4,10-25H,2-3,5-9H2,1H3/t10-,11-,12+,13-,14+,15-,16+,17+,18-,19+/m0/s1" "computed SMILES=OC1COC(OCC2OC(OC(C=C)CCCCC)C(O)C(O)C2O)C(O)C1O" "synonym=Oct-1-en-3-yl Ara-(1-6)-Glu (NMR)" "license=License CC-BY-NC-SA 4.0 International" "author=Plant Biology, The Noble Foundation, Ardmore, OK, US/Dennis Fine, Daniel Wherritt, and Lloyd Sumner" "ionization=ESI" "peak width=0.012" "date=2014-01-24 01:42:38+01:00" "column=Waters Acquity BEH C18 1.7um x 2.1 x 150 mm" "retention time=524.4" "raw data file=C:\Data\2014Jan16 Lignin extr LCMS\CCR1 20634\CCR1 20634 leaf WT-1.d" "annotformula=116.9293;         C19H31O7" "annotformula=149.0462;         C21H33O8" "annotformula=763.3586;         C36H33O18" "annotformula=964.3154;         C37H31O21" "SPLASH=splash10-00di-0000900000-fc1d05b1fe4520f9cebc" "submitter=Aiko Barsch (Bruker)" "MoNA Rating=4.444444444444445"
Num Peaks: 48
112.9865 1.201201
116.9293 0.300300
130.9674 0.200200
149.0462 0.200200
174.9572 0.400400
180.9735 0.600601
242.9447 0.300300
248.9624 0.300300
289.1676 1.601602
290.1696 0.200200
293.0890 0.500501
421.2105 100.000000
422.2139 18.618619
423.2155 3.303303
424.2186 0.500501
457.1858 1.901902
458.1900 0.400400
459.1860 0.700701
467.2159 36.836837
468.2190 7.107107
469.2217 1.501502
470.2260 0.200200
489.1989 0.200200
505.1612 0.200200
519.1865 0.500501
520.1277 1.201201
521.1322 0.500501
523.1356 0.200200
535.2027 0.600601
551.1703 0.200200
566.1314 0.400400
603.1918 0.200200
691.3360 1.101101
692.3382 0.500501
711.2908 0.200200
741.2835 0.200200
763.3586 0.200200
821.2134 0.200200
843.4238 1.001001
844.4308 0.400400
896.3365 0.700701
897.3416 0.300300
911.4137 0.200200
964.3154 0.200200
964.3401 0.200200
1113.5497 0.300300
1114.5560 0.200200
1318.5525 0.200200


Name: 6'-Malonyl Ononin
Synon: $:00in-source
DB#: MetaboBASE1039
InChIKey: RDTAGQKYPGLCBK-GOZZSVHWSA-N
Spectrum_type: MS2
PrecursorMZ: 267.0664
Instrument_type: LC-ESI-TOF
Instrument: impact HD
Ion_mode: N
Collision_energy: 22.8316
Formula: C25H24O12
MW: 516
ExactMass: 516.1267762079999
Comments: "SMILES=c1(ccc2c(c1)occ(c2=O)c1ccc(cc1)OC)O[C@@H]1O[C@@H]([C@H]([C@@H]([C@H]1O)O)O)COC(=O)CC(=O)O" "InChI=InChI=1S/C25H24O12/c1-33-13-4-2-12(3-5-13)16-10-34-17-8-14(6-7-15(17)21(16)29)36-25-24(32)23(31)22(30)18(37-25)11-35-20(28)9-19(26)27/h2-8,10,18,22-25,30-32H,9,11H2,1H3,(H,26,27)/t18-,22-,23+,24-,25-/m1/s1" "computed SMILES=O=C(O)CC(=O)OCC1OC(OC2=CC=C3C(=O)C(=COC3=C2)C=4C=CC(OC)=CC4)C(O)C(O)C1O" "license=License CC-BY-NC-SA 4.0 International" "author=Plant Biology, The Noble Foundation, Ardmore, OK, US/Dennis Fine, Daniel Wherritt, and Lloyd Sumner" "ionization=ESI" "collision energy 2=38.0527" "peak width=0.0063" "date=2013-02-26 03:27:52+01:00" "column=Waters Acquity BEH C18 1.7um x 2.1 x 150 mm" "retention time=575.4" "raw data file=C:\Data\A-17 MSMS aerial root\A-17 root aerial MM Std\A-17_root_extr_MSMS1.d" "SPLASH=splash10-0udi-0090000000-7015fd6b25903aa9a6be" "submitter=Aiko Barsch (Bruker)" "MoNA Rating=3.125"
Num Peaks: 17
132.0198 2.602603
132.0239 1.101101
135.0054 1.401401
135.0114 1.001001
194.9015 0.900901
195.0446 3.603604
223.0396 53.653654
224.0453 10.410410
225.0539 1.501502
251.0352 23.823824
252.0430 100.000000
253.0448 15.915916
254.0454 0.900901
267.0661 21.121121
267.0758 2.002002
268.0704 1.701702
306.6172 1.001001


Name: 6'-Malonyl Ononin
Synon: $:00in-source
DB#: MetaboBASE1040
InChIKey: RDTAGQKYPGLCBK-GOZZSVHWSA-N
Spectrum_type: MS2
PrecursorMZ: 267.0304
Instrument_type: LC-ESI-TOF
Instrument: impact HD
Ion_mode: N
Collision_energy: 30.4398
Formula: C25H24O12
MW: 516
ExactMass: 516.126776208
Comments: "SMILES=c1(ccc2c(c1)occ(c2=O)c1ccc(cc1)OC)O[C@@H]1O[C@@H]([C@H]([C@@H]([C@H]1O)O)O)COC(=O)CC(=O)O" "InChI=InChI=1S/C25H24O12/c1-33-13-4-2-12(3-5-13)16-10-34-17-8-14(6-7-15(17)21(16)29)36-25-24(32)23(31)22(30)18(37-25)11-35-20(28)9-19(26)27/h2-8,10,18,22-25,30-32H,9,11H2,1H3,(H,26,27)/t18-,22-,23+,24-,25-/m1/s1" "computed SMILES=O=C(O)CC(=O)OCC1OC(OC2=CC=C3C(=O)C(=COC3=C2)C=4C=CC(OC)=CC4)C(O)C(O)C1O" "license=License CC-BY-NC-SA 4.0 International" "author=Plant Biology, The Noble Foundation, Ardmore, OK, US/Dennis Fine, Daniel Wherritt, and Lloyd Sumner" "ionization=ESI" "isolation width=4.46158" "peak width=0.0048" "date=2013-02-26 01:25:21+01:00" "column=Waters Acquity BEH C18 1.7um x 2.1 x 150 mm" "retention time=575.4" "raw data file=C:\Data\A-17 aerial root MSMS\A-17_aerial_extr_MSMS1.d" "annotformula=266.0216;         C15H6O5" "annotformula=267.0306;         C15H7O5" "SPLASH=splash10-014i-0090000000-e9350a811c53fadbdcb8" "submitter=Aiko Barsch (Bruker)" "MoNA Rating=3.125"
Num Peaks: 10
167.0515 9.109109
195.0523 7.307307
196.0532 6.506507
211.0431 6.906907
238.0891 6.306306
251.0369 5.905906
266.0216 72.772773
267.0306 100.000000
268.0295 12.312312
269.0492 14.114114


Name: 6'-Malonyl Ononin
Synon: $:00in-source
DB#: MetaboBASE1041
InChIKey: RDTAGQKYPGLCBK-GOZZSVHWSA-N
Instrument_type: LC-ESI-TOF
Instrument: impact HD
Ion_mode: N
Formula: C25H24O12
MW: 516
ExactMass: 516.1267762079999
Comments: "SMILES=c1(ccc2c(c1)occ(c2=O)c1ccc(cc1)OC)O[C@@H]1O[C@@H]([C@H]([C@@H]([C@H]1O)O)O)COC(=O)CC(=O)O" "InChI=InChI=1S/C25H24O12/c1-33-13-4-2-12(3-5-13)16-10-34-17-8-14(6-7-15(17)21(16)29)36-25-24(32)23(31)22(30)18(37-25)11-35-20(28)9-19(26)27/h2-8,10,18,22-25,30-32H,9,11H2,1H3,(H,26,27)/t18-,22-,23+,24-,25-/m1/s1" "computed SMILES=O=C(O)CC(=O)OCC1OC(OC2=CC=C3C(=O)C(=COC3=C2)C=4C=CC(OC)=CC4)C(O)C(O)C1O" "license=License CC-BY-NC-SA 4.0 International" "author=Plant Biology, The Noble Foundation, Ardmore, OK, US/Dennis Fine, Daniel Wherritt, and Lloyd Sumner" "ionization=ESI" "peak width=0.016" "date=2014-06-03 20:53:11+02:00" "column=Waters Acquity BEH C18 1.7um x 2.1 x 150 mm" "retention time=575.4" "raw data file=C:\Data\BWatson\14Jun03_BW_HR1-D_MSMS_2-A,1_01_198.d" "SPLASH=splash10-014i-1090000000-e4fec7bd73ea02046a8e" "submitter=Aiko Barsch (Bruker)" "MoNA Rating=3.888888888888889"
Num Peaks: 15
128.0101 1.201201
245.0471 1.001001
252.0434 15.315315
253.0466 2.202202
267.0678 100.000000
268.0710 15.815816
269.0738 2.102102
335.0523 1.101101
614.0406 1.301301
615.0464 3.203203
616.0488 1.401401
1031.2479 11.811812
1032.2544 6.006006
1033.2531 2.502503
1053.2301 1.901902


Name: 6'-Malonyl Ononin
Synon: $:00in-source
DB#: MetaboBASE1042
InChIKey: RDTAGQKYPGLCBK-GOZZSVHWSA-N
Precursor_type: [2M-H]-
Spectrum_type: MS2
PrecursorMZ: 1031.264
Instrument_type: LC-ESI-TOF
Instrument: impact HD
Ion_mode: N
Collision_energy: 57.4223
Formula: C25H24O12
MW: 516
ExactMass: 516.126776208
Comments: "SMILES=c1(ccc2c(c1)occ(c2=O)c1ccc(cc1)OC)O[C@@H]1O[C@@H]([C@H]([C@@H]([C@H]1O)O)O)COC(=O)CC(=O)O" "InChI=InChI=1S/C25H24O12/c1-33-13-4-2-12(3-5-13)16-10-34-17-8-14(6-7-15(17)21(16)29)36-25-24(32)23(31)22(30)18(37-25)11-35-20(28)9-19(26)27/h2-8,10,18,22-25,30-32H,9,11H2,1H3,(H,26,27)/t18-,22-,23+,24-,25-/m1/s1" "computed SMILES=O=C(O)CC(=O)OCC1OC(OC2=CC=C3C(=O)C(=COC3=C2)C=4C=CC(OC)=CC4)C(O)C(O)C1O" "license=License CC-BY-NC-SA 4.0 International" "author=Plant Biology, The Noble Foundation, Ardmore, OK, US/Dennis Fine, Daniel Wherritt, and Lloyd Sumner" "comment=Dimer of m/z 516 + 515" "ionization=ESI" "collision energy 2=95.7038" "peak width=0.014" "date=2014-12-12 20:57:07+01:00" "column=Waters Acquity BEH C18 1.7um x 2.1 x 150 mm" "retention time=575.4" "raw data file=C:\Data\Noble-Bruker MS libr eval complex mix\2014Dec_A17 aer rt mix MSMS_1-A,2_01_1447.d" "computed mass accuracy=17.186272380201103" "computed mass error=0.01772358399989571" "SPLASH=splash10-014i-0090000000-741798454fb01192e7e4" "submitter=Aiko Barsch (Bruker)" "MoNA Rating=4.545454545454546"
Num Peaks: 20
223.0390 2.302302
224.0435 0.600601
236.0460 0.200200
251.0336 1.801802
251.0699 1.001001
252.0428 32.732733
253.0455 4.804805
254.0466 0.500501
267.0668 100.000000
268.0692 17.217217
269.0718 2.302302
270.0678 0.100100
280.0727 0.200200
281.0801 0.600601
282.0874 0.100100
289.0847 0.200200
295.0591 0.100100
309.0742 0.600601
1049.8890 0.100100
1289.9930 0.100100


Name: 3-(6'-O-Malonyl)-Glu-28-Glu Medicagenic acid
Synon: $:00in-source
DB#: MetaboBASE1043
InChIKey: YOXRCWBQUFOFDB-DELBEMASSA-N
Instrument_type: LC-ESI-TOF
Instrument: impact HD
Ion_mode: N
Formula: C45H68O19
MW: 912
ExactMass: 912.435479956
Comments: "SMILES=[C@H]1([C@@H]([C@@](C2[C@](C1)(C1[C@@](CC2)([C@]2(C(=CC1)[C@H]1[C@@](CC2)(CCC(C1)(C)C)C(=O)O[C@@H]1O[C@@H]([C@H]([C@@H]([C@H]1O)O)O)CO)C)C)C)(C)C(=O)O)O[C@@H]1O[C@@H]([C@H]([C@@H]([C@H]1O)O)O)COC(=O)CC(=O)O)O" "InChI=InChI=1S/C45H68O19/c1-40(2)11-13-45(39(59)64-37-34(56)31(53)29(51)23(18-46)61-37)14-12-42(4)20(21(45)16-40)7-8-25-41(3)17-22(47)35(44(6,38(57)58)26(41)9-10-43(25,42)5)63-36-33(55)32(54)30(52)24(62-36)19-60-28(50)15-27(48)49/h7,21-26,29-37,46-47,51-56H,8-19H2,1-6H3,(H,48,49)(H,57,58)/t21-,22-,23+,24+,25?,26?,29+,30+,31-,32-,33+,34+,35-,36-,37-,41+,42+,43+,44-,45-/m0/s1" "computed SMILES=O=C(O)CC(=O)OCC1OC(OC2C(O)CC3(C)C4CC=C5C6CC(C)(C)CCC6(C(=O)OC7OC(CO)C(O)C(O)C7O)CCC5(C)C4(C)CCC3C2(C(=O)O)C)C(O)C(O)C1O" "license=License CC-BY-NC-SA 4.0 International" "author=Plant Biology, The Noble Foundation, Ardmore, OK, US/Dennis Fine, Daniel Wherritt, and Lloyd Sumner" "ionization=ESI" "peak width=0.0037" "date=2013-02-26 03:27:52+01:00" "column=Waters Acquity BEH C18 1.7um x 2.1 x 150 mm" "retention time=808.8" "raw data file=C:\Data\A-17 MSMS aerial root\A-17 root aerial MM Std\A-17_root_extr_MSMS1.d" "SPLASH=splash10-03di-0000000009-79b07e425a2c588e75a2" "submitter=Aiko Barsch (Bruker)" "MoNA Rating=3.888888888888889"
Num Peaks: 32
478.2492 0.400400
478.7532 0.200200
623.3001 0.800801
623.8016 0.500501
867.4366 1.501502
867.9249 0.200200
868.4385 0.700701
882.4440 0.600601
882.9453 0.600601
883.4482 0.400400
883.9462 0.100100
889.4202 1.001001
911.4294 100.000000
911.6052 0.100100
911.9343 0.600601
912.4327 46.746747
912.9394 0.200200
913.4341 11.611612
914.4340 1.901902
922.4177 0.600601
922.9167 0.600601
933.4099 6.506507
933.9044 0.400400
934.4137 2.802803
935.4170 0.800801
1001.3901 1.401401
1002.4073 0.800801
1011.3567 0.900901
1012.3519 0.700701
1012.3934 0.100100
1013.3603 0.100100
1069.3883 0.600601


Name: 3-(6'-O-Malonyl)-Glu-28-Glu Medicagenic acid
Synon: $:00in-source
DB#: MetaboBASE1044
InChIKey: YOXRCWBQUFOFDB-DELBEMASSA-N
Spectrum_type: MS2
PrecursorMZ: 1368.232
Instrument_type: LC-ESI-TOF
Instrument: impact HD
Ion_mode: N
Collision_energy: 70.0587
Formula: C45H68O19
MW: 912
ExactMass: 912.4354799559999
Comments: "SMILES=[C@H]1([C@@H]([C@@](C2[C@](C1)(C1[C@@](CC2)([C@]2(C(=CC1)[C@H]1[C@@](CC2)(CCC(C1)(C)C)C(=O)O[C@@H]1O[C@@H]([C@H]([C@@H]([C@H]1O)O)O)CO)C)C)C)(C)C(=O)O)O[C@@H]1O[C@@H]([C@H]([C@@H]([C@H]1O)O)O)COC(=O)CC(=O)O)O" "InChI=InChI=1S/C45H68O19/c1-40(2)11-13-45(39(59)64-37-34(56)31(53)29(51)23(18-46)61-37)14-12-42(4)20(21(45)16-40)7-8-25-41(3)17-22(47)35(44(6,38(57)58)26(41)9-10-43(25,42)5)63-36-33(55)32(54)30(52)24(62-36)19-60-28(50)15-27(48)49/h7,21-26,29-37,46-47,51-56H,8-19H2,1-6H3,(H,48,49)(H,57,58)/t21-,22-,23+,24+,25?,26?,29+,30+,31-,32-,33+,34+,35-,36-,37-,41+,42+,43+,44-,45-/m0/s1" "computed SMILES=O=C(O)CC(=O)OCC1OC(OC2C(O)CC3(C)C4CC=C5C6CC(C)(C)CCC6(C(=O)OC7OC(CO)C(O)C(O)C7O)CCC5(C)C4(C)CCC3C2(C(=O)O)C)C(O)C(O)C1O" "license=License CC-BY-NC-SA 4.0 International" "author=Plant Biology, The Noble Foundation, Ardmore, OK, US/Dennis Fine, Daniel Wherritt, and Lloyd Sumner" "ionization=ESI" "isolation width=13.6823" "collision energy 2=116.764" "peak width=0.018" "date=2014-06-03 20:53:11+02:00" "column=Waters Acquity BEH C18 1.7um x 2.1 x 150 mm" "retention time=808.8" "raw data file=C:\Data\BWatson\14Jun03_BW_HR1-D_MSMS_2-A,1_01_198.d" "SPLASH=splash10-014r-0600900070-47a26d4f706324ee7c36" "submitter=Aiko Barsch (Bruker)" "MoNA Rating=3.125"
Num Peaks: 6
101.0239 45.845846
161.0448 51.751752
439.3204 100.000000
440.3271 29.229229
867.4362 77.377377
868.4384 36.636637


Name: 3-(6'-O-Malonyl)-Glu-28-Glu Medicagenic acid
Synon: $:00in-source
DB#: MetaboBASE1045
InChIKey: YOXRCWBQUFOFDB-DELBEMASSA-N
Precursor_type: [M-H]-
Spectrum_type: MS2
PrecursorMZ: 911.4889
Instrument_type: LC-ESI-TOF
Instrument: impact HD
Ion_mode: N
Collision_energy: 52.9308
Formula: C45H68O19
MW: 912
ExactMass: 912.435479956
Comments: "SMILES=[C@H]1([C@@H]([C@@](C2[C@](C1)(C1[C@@](CC2)([C@]2(C(=CC1)[C@H]1[C@@](CC2)(CCC(C1)(C)C)C(=O)O[C@@H]1O[C@@H]([C@H]([C@@H]([C@H]1O)O)O)CO)C)C)C)(C)C(=O)O)O[C@@H]1O[C@@H]([C@H]([C@@H]([C@H]1O)O)O)COC(=O)CC(=O)O)O" "InChI=InChI=1S/C45H68O19/c1-40(2)11-13-45(39(59)64-37-34(56)31(53)29(51)23(18-46)61-37)14-12-42(4)20(21(45)16-40)7-8-25-41(3)17-22(47)35(44(6,38(57)58)26(41)9-10-43(25,42)5)63-36-33(55)32(54)30(52)24(62-36)19-60-28(50)15-27(48)49/h7,21-26,29-37,46-47,51-56H,8-19H2,1-6H3,(H,48,49)(H,57,58)/t21-,22-,23+,24+,25?,26?,29+,30+,31-,32-,33+,34+,35-,36-,37-,41+,42+,43+,44-,45-/m0/s1" "computed SMILES=O=C(O)CC(=O)OCC1OC(OC2C(O)CC3(C)C4CC=C5C6CC(C)(C)CCC6(C(=O)OC7OC(CO)C(O)C(O)C7O)CCC5(C)C4(C)CCC3C2(C(=O)O)C)C(O)C(O)C1O" "license=License CC-BY-NC-SA 4.0 International" "author=Plant Biology, The Noble Foundation, Ardmore, OK, US/Dennis Fine, Daniel Wherritt, and Lloyd Sumner" "ionization=ESI" "isolation width=9.64596" "collision energy 2=88.2181" "peak width=0.018" "date=2014-06-03 20:53:11+02:00" "column=Waters Acquity BEH C18 1.7um x 2.1 x 150 mm" "retention time=808.8" "raw data file=C:\Data\BWatson\14Jun03_BW_HR1-D_MSMS_2-A,1_01_198.d" "computed mass accuracy=66.58999796925296" "computed mass error=0.06069604399999662" "SPLASH=splash10-0gw0-0900500000-777a9fc1f481f3c123fc" "submitter=Aiko Barsch (Bruker)" "MoNA Rating=4.545454545454546"
Num Peaks: 15
101.0245 75.775776
113.0244 13.913914
119.0350 11.611612
125.0236 4.804805
131.0344 13.913914
143.0345 9.509510
149.0455 14.714715
155.0338 7.307307
161.0454 60.760761
221.0666 7.007007
439.3217 100.000000
440.3229 29.829830
441.3292 5.405405
705.3843 6.306306
867.4314 6.306306


Name: 3-Rha(1-2)Gal(1-2)GluA-Soyasaponenol B
Synon: $:00in-source
DB#: MetaboBASE1046
InChIKey: PTDAHAWQAGSZDD-VJQGOKKYSA-N
Precursor_type: [M-H]-
Spectrum_type: MS2
PrecursorMZ: 941.5121
Instrument_type: LC-ESI-TOF
Instrument: impact HD
Ion_mode: N
Collision_energy: 52.5
Formula: C48H78O18
MW: 942
ExactMass: 942.518815656
Comments: "SMILES=C1[C@@H]([C@@](C2[C@](C1)(C1[C@@](CC2)([C@]2(C(=CC1)[C@H]1[C@@](CC2)([C@@H](CC(C1)(C)C)O)C)C)C)C)(CO)C)O[C@@H]1O[C@@H]([C@H]([C@@H]([C@H]1O[C@@H]1O[C@@H]([C@@H]([C@@H]([C@H]1O[C@@H]1O[C@H]([C@@H]([C@H]([C@H]1O)O)O)C)O)O)CO)O)O)C(=O)O" "InChI=InChI=1S/C48H78O18/c1-21-29(52)31(54)35(58)40(61-21)65-37-32(55)30(53)24(19-49)62-41(37)66-38-34(57)33(56)36(39(59)60)64-42(38)63-28-12-13-45(5)25(46(28,6)20-50)11-14-48(8)26(45)10-9-22-23-17-43(2,3)18-27(51)44(23,4)15-16-47(22,48)7/h9,21,23-38,40-42,49-58H,10-20H2,1-8H3,(H,59,60)/t21-,23-,24+,25?,26?,27+,28-,29-,30-,31+,32-,33-,34-,35+,36-,37+,38+,40-,41-,42+,44+,45-,46+,47+,48+/m0/s1" "computed SMILES=O=C(O)C1OC(OC2CCC3(C)C(CCC4(C)C3CC=C5C6CC(C)(C)CC(O)C6(C)CCC54C)C2(C)CO)C(OC7OC(CO)C(O)C(O)C7OC8OC(C)C(O)C(O)C8O)C(O)C1O" "license=License CC-BY-NC-SA 4.0 International" "author=Plant Biology, The Noble Foundation, Ardmore, OK, US/Dennis Fine, Daniel Wherritt, and Lloyd Sumner" "ionization=ESI" "isolation width=10" "collision energy 2=87.5" "peak width=0.0034" "date=2013-02-26 03:27:52+01:00" "column=Waters Acquity BEH C18 1.7um x 2.1 x 150 mm" "retention time=1044.6" "raw data file=C:\Data\A-17 MSMS aerial root\A-17 root aerial MM Std\A-17_root_extr_MSMS1.d" "computed mass accuracy=0.5951532646942146" "computed mass error=5.603440000641058E-4" "SPLASH=splash10-0006-0000000009-89ce6e8d581fae9fb198" "submitter=Aiko Barsch (Bruker)" "MoNA Rating=4.615384615384616"
Num Peaks: 26
99.0097 1.601602
100.0144 0.900901
101.0244 1.301301
112.9870 0.900901
113.0228 1.301301
113.0273 1.101101
119.0362 1.001001
143.0373 1.501502
163.0653 2.602603
180.2809 0.900901
205.0772 1.301301
247.0880 3.003003
256.2332 0.800801
265.0853 0.800801
457.3761 0.800801
462.2136 1.101101
604.7017 1.001001
879.5164 0.900901
923.4426 0.700701
923.4679 1.501502
934.4483 0.900901
941.5116 100.000000
942.5151 59.159159
943.5192 22.022022
944.4987 1.801802
1042.8663 0.700701


Name: 3-Rha(1-2)Gal(1-2)GluA-Soyasaponenol B
Synon: $:00in-source
DB#: MetaboBASE1047
InChIKey: PTDAHAWQAGSZDD-VJQGOKKYSA-N
Instrument_type: LC-ESI-TOF
Instrument: impact HD
Ion_mode: N
Formula: C48H78O18
MW: 942
ExactMass: 942.518815656
Comments: "SMILES=C1[C@@H]([C@@](C2[C@](C1)(C1[C@@](CC2)([C@]2(C(=CC1)[C@H]1[C@@](CC2)([C@@H](CC(C1)(C)C)O)C)C)C)C)(CO)C)O[C@@H]1O[C@@H]([C@H]([C@@H]([C@H]1O[C@@H]1O[C@@H]([C@@H]([C@@H]([C@H]1O[C@@H]1O[C@H]([C@@H]([C@H]([C@H]1O)O)O)C)O)O)CO)O)O)C(=O)O" "InChI=InChI=1S/C48H78O18/c1-21-29(52)31(54)35(58)40(61-21)65-37-32(55)30(53)24(19-49)62-41(37)66-38-34(57)33(56)36(39(59)60)64-42(38)63-28-12-13-45(5)25(46(28,6)20-50)11-14-48(8)26(45)10-9-22-23-17-43(2,3)18-27(51)44(23,4)15-16-47(22,48)7/h9,21,23-38,40-42,49-58H,10-20H2,1-8H3,(H,59,60)/t21-,23-,24+,25?,26?,27+,28-,29-,30-,31+,32-,33-,34-,35+,36-,37+,38+,40-,41-,42+,44+,45-,46+,47+,48+/m0/s1" "computed SMILES=O=C(O)C1OC(OC2CCC3(C)C(CCC4(C)C3CC=C5C6CC(C)(C)CC(O)C6(C)CCC54C)C2(C)CO)C(OC7OC(CO)C(O)C(O)C7OC8OC(C)C(O)C(O)C8O)C(O)C1O" "license=License CC-BY-NC-SA 4.0 International" "author=Plant Biology, The Noble Foundation, Ardmore, OK, US/Dennis Fine, Daniel Wherritt, and Lloyd Sumner" "ionization=ESI" "peak width=0.0029" "date=2013-02-26 03:27:52+01:00" "column=Waters Acquity BEH C18 1.7um x 2.1 x 150 mm" "retention time=1044.6" "raw data file=C:\Data\A-17 MSMS aerial root\A-17 root aerial MM Std\A-17_root_extr_MSMS1.d" "SPLASH=splash10-0006-0000000009-46223b7c0f3998d24a41" "submitter=Aiko Barsch (Bruker)" "MoNA Rating=3.888888888888889"
Num Peaks: 25
691.4054 0.500501
749.3767 3.903904
750.3799 1.401401
941.3198 0.100100
941.3849 0.100100
941.5121 100.000000
942.5156 47.547548
942.6530 0.100100
943.5184 11.911912
944.5184 2.302302
977.4877 0.900901
987.5169 14.414414
988.5209 7.007007
989.5200 1.801802
1009.4989 8.308308
1010.5024 3.803804
1011.5009 1.101101
1059.4440 1.301301
1060.4493 0.900901
1061.0641 0.100100
1077.4836 1.401401
1078.4880 0.800801
1413.2722 0.900901
1413.7700 0.800801
1414.2689 0.300300


Name: 6'-Malonyl-3-Glu Medicarpin
Synon: $:00in-source
DB#: MetaboBASE1048
InChIKey: BQAJKXKYTQTBDK-PCHDOLKHSA-N
Spectrum_type: MS2
PrecursorMZ: 254.0582
Instrument_type: LC-ESI-TOF
Instrument: impact HD
Ion_mode: N
Collision_energy: 22.2218
Formula: C25H26O12
MW: 518
ExactMass: 518.142426272
Comments: "SMILES=c1(ccc2c(c1)OC[C@@H]1[C@H]2Oc2c1ccc(c2)OC)O[C@@H]1O[C@@H]([C@H]([C@@H]([C@H]1O)O)O)COC(=O)CC(=O)O" "InChI=InChI=1S/C25H26O12/c1-32-11-2-4-13-15-9-33-16-7-12(3-5-14(16)24(15)36-17(13)6-11)35-25-23(31)22(30)21(29)18(37-25)10-34-20(28)8-19(26)27/h2-7,15,18,21-25,29-31H,8-10H2,1H3,(H,26,27)/t15-,18+,21+,22-,23+,24-,25+/m0/s1" "computed SMILES=O=C(O)CC(=O)OCC1OC(OC2=CC=C3C(OCC4C5=CC=C(OC)C=C5OC34)=C2)C(O)C(O)C1O" "license=License CC-BY-NC-SA 4.0 International" "author=Plant Biology, The Noble Foundation, Ardmore, OK, US/Dennis Fine, Daniel Wherritt, and Lloyd Sumner" "ionization=ESI" "collision energy 2=37.0364" "peak width=0.0029" "date=2013-02-26 03:27:52+01:00" "column=Waters Acquity BEH C18 1.7um x 2.1 x 150 mm" "retention time=652.8" "raw data file=C:\Data\A-17 MSMS aerial root\A-17 root aerial MM Std\A-17_root_extr_MSMS1.d" "SPLASH=splash10-0ufr-0190000000-dda4cc0b38be04f2fbea" "submitter=Aiko Barsch (Bruker)" "MoNA Rating=3.125"
Num Peaks: 9
108.0201 16.116116
185.0597 16.916917
191.8639 18.118118
212.0448 17.317317
225.0507 30.030030
225.0580 43.443443
237.0556 18.118118
253.0477 35.035035
254.0608 100.000000


Name: 6'-Malonyl-3-Glu Medicarpin
Synon: $:00in-source
DB#: MetaboBASE1049
InChIKey: BQAJKXKYTQTBDK-PCHDOLKHSA-N
Spectrum_type: MS2
PrecursorMZ: 269.0821
Instrument_type: LC-ESI-TOF
Instrument: impact HD
Ion_mode: N
Collision_energy: 22.9261
Formula: C25H26O12
MW: 518
ExactMass: 518.142426272
Comments: "SMILES=c1(ccc2c(c1)OC[C@@H]1[C@H]2Oc2c1ccc(c2)OC)O[C@@H]1O[C@@H]([C@H]([C@@H]([C@H]1O)O)O)COC(=O)CC(=O)O" "InChI=InChI=1S/C25H26O12/c1-32-11-2-4-13-15-9-33-16-7-12(3-5-14(16)24(15)36-17(13)6-11)35-25-23(31)22(30)21(29)18(37-25)10-34-20(28)8-19(26)27/h2-7,15,18,21-25,29-31H,8-10H2,1H3,(H,26,27)/t15-,18+,21+,22-,23+,24-,25+/m0/s1" "computed SMILES=O=C(O)CC(=O)OCC1OC(OC2=CC=C3C(OCC4C5=CC=C(OC)C=C5OC34)=C2)C(O)C(O)C1O" "license=License CC-BY-NC-SA 4.0 International" "author=Plant Biology, The Noble Foundation, Ardmore, OK, US/Dennis Fine, Daniel Wherritt, and Lloyd Sumner" "ionization=ESI" "collision energy 2=38.2102" "peak width=0.0058" "date=2013-02-26 03:27:52+01:00" "column=Waters Acquity BEH C18 1.7um x 2.1 x 150 mm" "retention time=652.8" "raw data file=C:\Data\A-17 MSMS aerial root\A-17 root aerial MM Std\A-17_root_extr_MSMS1.d" "SPLASH=splash10-0udi-0090000000-271e4469de18dab49e1a" "submitter=Aiko Barsch (Bruker)" "MoNA Rating=3.125"
Num Peaks: 33
108.0197 1.701702
132.0234 0.500501
133.0282 0.700701
142.4566 0.400400
165.0708 0.500501
183.0427 0.500501
185.0620 2.202202
186.0710 1.301301
197.0598 0.400400
207.0492 0.500501
208.0559 0.400400
209.0596 3.203203
210.0678 1.301301
210.0737 0.800801
211.0421 3.903904
211.0703 0.900901
212.0448 0.400400
223.0435 0.500501
224.0508 0.700701
225.0556 12.012012
226.0623 5.605606
227.0670 0.900901
235.0359 1.201201
237.0566 3.203203
239.0353 6.006006
240.0350 0.500501
253.0524 12.612613
254.0581 100.000000
255.0623 9.909910
256.0671 1.501502
269.0841 4.004004
270.0854 0.800801
1080.1587 0.400400


Name: 6'-Malonyl-3-Glu Medicarpin
Synon: $:00in-source
DB#: MetaboBASE1050
InChIKey: BQAJKXKYTQTBDK-PCHDOLKHSA-N
Instrument_type: LC-ESI-TOF
Instrument: impact HD
Ion_mode: N
Formula: C25H26O12
MW: 518
ExactMass: 518.142426272
Comments: "SMILES=c1(ccc2c(c1)OC[C@@H]1[C@H]2Oc2c1ccc(c2)OC)O[C@@H]1O[C@@H]([C@H]([C@@H]([C@H]1O)O)O)COC(=O)CC(=O)O" "InChI=InChI=1S/C25H26O12/c1-32-11-2-4-13-15-9-33-16-7-12(3-5-14(16)24(15)36-17(13)6-11)35-25-23(31)22(30)21(29)18(37-25)10-34-20(28)8-19(26)27/h2-7,15,18,21-25,29-31H,8-10H2,1H3,(H,26,27)/t15-,18+,21+,22-,23+,24-,25+/m0/s1" "computed SMILES=O=C(O)CC(=O)OCC1OC(OC2=CC=C3C(OCC4C5=CC=C(OC)C=C5OC34)=C2)C(O)C(O)C1O" "license=License CC-BY-NC-SA 4.0 International" "author=Plant Biology, The Noble Foundation, Ardmore, OK, US/Dennis Fine, Daniel Wherritt, and Lloyd Sumner" "ionization=ESI" "peak width=0.0066" "date=2013-02-26 03:27:52+01:00" "column=Waters Acquity BEH C18 1.7um x 2.1 x 150 mm" "retention time=652.8" "raw data file=C:\Data\A-17 MSMS aerial root\A-17 root aerial MM Std\A-17_root_extr_MSMS1.d" "SPLASH=splash10-014i-0090000000-9b991abe010808a60a5a" "submitter=Aiko Barsch (Bruker)" "MoNA Rating=3.888888888888889"
Num Peaks: 25
254.0582 35.335335
255.0613 5.105105
268.8665 0.300300
268.9837 0.200200
269.0821 100.000000
270.0852 15.415415
271.0881 2.002002
291.0629 2.702703
337.0690 5.805806
338.0730 0.900901
405.0559 0.700701
515.0864 0.700701
541.1326 1.501502
542.1367 0.100100
609.1202 0.900901
617.0585 2.802803
618.0609 0.900901
619.0634 0.200200
1035.2743 5.105105
1036.2017 0.100100
1036.2732 2.502503
1037.2786 0.900901
1057.2578 1.001001
1058.2631 0.700701
1059.2684 0.100100


Name: 3-Rha-7-Rha Kaempferol
Synon: $:00in-source
DB#: MetaboBASE1051
InChIKey: PUPKKEQDLNREIM-QNSQPKOQSA-N
Instrument_type: LC-ESI-TOF
Instrument: impact HD
Ion_mode: N
Formula: C27H30O14
MW: 578
ExactMass: 578.1635556399999
Comments: "SMILES=O=c1c2c(oc(c1O[C@@H]1O[C@H]([C@@H]([C@H]([C@H]1O)O)O)C)c1ccc(cc1)O)cc(cc2O)O[C@@H]1O[C@H]([C@@H]([C@H]([C@H]1O)O)O)C" "InChI=InChI=1S/C27H30O14/c1-9-17(30)20(33)22(35)26(37-9)39-13-7-14(29)16-15(8-13)40-24(11-3-5-12(28)6-4-11)25(19(16)32)41-27-23(36)21(34)18(31)10(2)38-27/h3-10,17-18,20-23,26-31,33-36H,1-2H3/t9-,10-,17-,18-,20+,21+,22+,23+,26-,27-/m0/s1" "computed SMILES=O=C1C(OC2OC(C)C(O)C(O)C2O)=C(OC3=CC(OC4OC(C)C(O)C(O)C4O)=CC(O)=C13)C=5C=CC(O)=CC5" "license=License CC-BY-NC-SA 4.0 International" "author=Plant Biology, The Noble Foundation, Ardmore, OK, US/Dennis Fine, Daniel Wherritt, and Lloyd Sumner" "ionization=ESI" "peak width=0.011" "date=2013-12-09 22:32:55+01:00" "column=Waters Acquity BEH C18 1.7um x 2.1 x 150 mm" "retention time=208.8" "raw data file=C:\Data\AtW_4_1p13_9Dec_13msms.d" "SPLASH=splash10-0a4i-0000020900-c0b427176429de0e1049" "submitter=Aiko Barsch (Bruker)" "MoNA Rating=3.888888888888889"
Num Peaks: 171
387.1873 0.400400
388.1914 0.100100
607.1637 2.402402
608.1670 0.700701
609.1696 0.200200
727.2488 0.300300
728.2521 0.100100
753.1553 0.100100
753.2286 5.505506
754.0960 0.100100
754.1332 0.100100
754.2316 1.701702
754.8798 0.100100
755.0073 0.100100
755.0640 0.100100
755.1390 0.100100
755.2448 100.000000
755.4274 0.100100
755.6497 0.100100
755.7614 0.100100
756.1390 0.100100
756.2480 35.935936
756.3735 0.100100
757.2510 9.709710
758.2538 1.601602
759.2543 0.300300
781.7028 0.300300
782.2078 0.200200
782.7065 0.100100
783.2054 0.100100
789.2023 0.100100
791.2236 0.200200
792.2220 0.100100
792.6967 0.100100
793.2136 0.100100
799.2324 0.800801
800.2329 0.200200
801.2463 0.100100
807.2515 0.100100
808.1569 0.100100
816.1952 0.100100
817.2457 0.100100
821.2158 0.300300
822.2037 0.100100
823.2352 2.002002
824.2362 0.600601
825.2442 0.200200
839.1980 0.100100
839.2197 0.100100
845.2135 0.100100
853.1566 0.100100
853.2239 0.200200
854.1661 0.600601
855.1710 0.400400
856.1742 0.100100
857.1639 0.100100
871.1769 0.200200
872.1763 0.100100
873.1872 1.601602
874.1887 0.600601
875.1910 0.300300
876.1492 0.100100
876.1857 0.100100
885.2090 0.200200
886.2108 0.100100
891.2247 0.100100
1013.3252 0.100100
1143.4341 0.200200
1144.3600 0.200200
1144.4197 0.100100
1144.8702 0.200200
1145.3595 0.100100
1152.3358 0.200200
1152.8468 0.100100
1153.3496 0.100100
1155.3616 0.100100
1155.8490 0.100100
1156.3574 0.100100
1156.8497 0.100100
1158.8188 0.100100
1159.3127 0.100100
1159.8251 0.500501
1160.3210 0.500501
1160.8331 0.300300
1161.3407 0.200200
1161.8213 0.100100
1163.3303 0.100100
1170.8186 0.100100
1171.3176 0.200200
1171.8168 0.100100
1509.4821 1.801802
1509.9742 0.400400
1510.4844 2.702703
1510.9950 1.701702
1511.3362 0.100100
1511.4980 11.911912
1511.6528 0.100100
1512.0024 1.801802
1512.5034 7.407407
1513.0005 0.600601
1513.5065 2.602603
1513.9882 0.100100
1514.0360 0.100100
1514.5099 0.800801
1515.0215 0.100100
1515.4386 0.100100
1515.5077 0.200200
1521.4702 0.100100
1521.9856 0.200200
1522.4969 0.500501
1522.9919 0.500501
1523.4880 0.400400
1523.9924 0.200200
1524.4930 0.100100
1524.9767 0.100100
1530.4760 0.200200
1530.9724 0.100100
1531.4622 0.200200
1531.9855 0.100100
1532.4694 0.100100
1533.4830 0.300300
1533.9659 0.100100
1534.0269 0.100100
1534.4734 0.200200
1535.4510 0.100100
1535.4954 0.100100
1535.9374 0.100100
1536.4338 0.100100
1536.4812 0.100100
1536.9363 0.100100
1537.4447 0.200200
1537.9526 0.300300
1538.4650 0.300300
1538.9570 0.200200
1539.4622 0.200200
1539.9535 0.100100
1548.4501 0.100100
1548.9092 0.100100
1548.9614 0.100100
1762.5809 0.100100
1762.9044 0.200200
1763.2401 0.400400
1763.5863 0.300300
1763.9113 0.200200
1764.2571 0.400400
1764.5798 0.300300
1764.9150 0.400400
1765.2418 0.100100
1770.5035 0.100100
1770.5770 0.100100
1770.9181 0.100100
1771.2271 0.100100
1771.5775 0.100100
1771.9071 0.100100
1772.2312 0.100100
1781.5825 0.100100
1781.8782 0.100100
1782.2397 0.100100
1887.6031 0.100100
1888.1226 0.100100
1888.6019 0.500501
1889.1143 0.200200
1889.6145 0.700701
1890.1180 0.600601
1890.6263 0.500501
1891.1254 0.400400
1891.6367 0.200200
1892.1429 0.100100
1900.6045 0.100100
1901.1230 0.200200
1901.6494 0.100100


Name: 3-Rha-7-Rha Kaempferol
Synon: $:00in-source
DB#: MetaboBASE1052
InChIKey: PUPKKEQDLNREIM-QNSQPKOQSA-N
Spectrum_type: MS2
PrecursorMZ: 755.1657
Instrument_type: LC-ESI-TOF
Instrument: impact HD
Ion_mode: N
Collision_energy: 45.7128
Formula: C27H30O14
MW: 578
ExactMass: 578.1635556399999
Comments: "SMILES=O=c1c2c(oc(c1O[C@@H]1O[C@H]([C@@H]([C@H]([C@H]1O)O)O)C)c1ccc(cc1)O)cc(cc2O)O[C@@H]1O[C@H]([C@@H]([C@H]([C@H]1O)O)O)C" "InChI=InChI=1S/C27H30O14/c1-9-17(30)20(33)22(35)26(37-9)39-13-7-14(29)16-15(8-13)40-24(11-3-5-12(28)6-4-11)25(19(16)32)41-27-23(36)21(34)18(31)10(2)38-27/h3-10,17-18,20-23,26-31,33-36H,1-2H3/t9-,10-,17-,18-,20+,21+,22+,23+,26-,27-/m0/s1" "computed SMILES=O=C1C(OC2OC(C)C(O)C(O)C2O)=C(OC3=CC(OC4OC(C)C(O)C(O)C4O)=CC(O)=C13)C=5C=CC(O)=CC5" "license=License CC-BY-NC-SA 4.0 International" "author=Plant Biology, The Noble Foundation, Ardmore, OK, US/Dennis Fine, Daniel Wherritt, and Lloyd Sumner" "ionization=ESI" "collision energy 2=76.188" "peak width=0.014" "date=2013-12-09 22:32:55+01:00" "column=Waters Acquity BEH C18 1.7um x 2.1 x 150 mm" "retention time=208.8" "raw data file=C:\Data\AtW_4_1p13_9Dec_13msms.d" "SPLASH=splash10-0002-0092400100-ebbbe04721d3116536ec" "submitter=Aiko Barsch (Bruker)" "MoNA Rating=3.125"
Num Peaks: 67
107.0193 0.100100
151.0117 0.500501
179.0080 0.300300
199.0488 0.100100
214.0375 0.100100
215.0449 0.100100
226.0412 0.200200
227.0474 0.700701
228.0505 0.100100
229.0262 0.100100
229.0640 0.100100
241.0279 0.500501
242.0343 1.201201
243.0422 1.801802
244.0456 0.300300
245.0220 0.400400
253.0269 0.100100
254.0350 0.400400
255.0426 1.301301
256.0467 0.300300
257.0706 0.100100
270.0306 1.701702
271.0392 27.627628
272.0426 4.204204
273.0463 0.700701
282.0307 0.200200
283.0396 0.200200
284.0483 0.100100
295.0391 0.100100
297.0196 0.100100
297.0553 0.100100
297.0788 0.200200
298.0277 1.101101
299.0356 100.000000
300.0404 24.424424
301.0473 6.706707
302.0526 0.900901
303.0547 0.100100
313.0510 0.100100
314.0561 0.100100
325.0735 0.500501
326.0723 0.100100
343.0652 0.100100
355.0620 0.100100
401.1081 0.100100
417.1056 0.100100
418.1144 0.100100
445.0995 2.102102
446.1097 57.457457
447.1138 13.713714
448.1161 2.502503
449.1215 0.400400
450.1257 0.100100
463.1126 0.100100
489.1279 0.200200
490.1374 0.100100
607.1638 1.001001
608.1647 0.400400
609.1800 9.809810
610.1830 2.802803
611.1833 0.600601
612.1854 0.100100
635.2028 0.100100
755.2452 14.414414
756.2476 4.604605
757.2505 1.201201
758.2543 0.200200


Name: 3-Rha-7-Rha Quercetin
Synon: $:00in-source
DB#: MetaboBASE1053
InChIKey: GXLQUHPXGLZNGE-BJBZVNFPSA-N
Precursor_type: [M-H]-
Spectrum_type: MS2
PrecursorMZ: 593.1225
Instrument_type: LC-ESI-TOF
Instrument: impact HD
Ion_mode: N
Collision_energy: 38.1163
Formula: C27H30O15
MW: 594
ExactMass: 594.1584702600001
Comments: "SMILES=O=c1c2c(oc(c1O[C@@H]1O[C@H]([C@@H]([C@H]([C@H]1O)O)O)C)c1cc(c(cc1)O)O)cc(cc2O)O[C@@H]1O[C@H]([C@@H]([C@H]([C@H]1O)O)O)C" "InChI=InChI=1S/C27H30O15/c1-8-17(31)20(34)22(36)26(38-8)40-11-6-14(30)16-15(7-11)41-24(10-3-4-12(28)13(29)5-10)25(19(16)33)42-27-23(37)21(35)18(32)9(2)39-27/h3-9,17-18,20-23,26-32,34-37H,1-2H3/t8-,9-,17-,18-,20+,21+,22+,23+,26-,27-/m0/s1" "computed SMILES=O=C1C(OC2OC(C)C(O)C(O)C2O)=C(OC3=CC(OC4OC(C)C(O)C(O)C4O)=CC(O)=C13)C=5C=CC(O)=C(O)C5" "license=License CC-BY-NC-SA 4.0 International" "author=Plant Biology, The Noble Foundation, Ardmore, OK, US/Dennis Fine, Daniel Wherritt, and Lloyd Sumner" "ionization=ESI" "collision energy 2=63.5272" "peak width=0.016" "date=2013-12-09 22:32:55+01:00" "column=Waters Acquity BEH C18 1.7um x 2.1 x 150 mm" "retention time=304.2" "raw data file=C:\Data\AtW_4_1p13_9Dec_13msms.d" "computed mass accuracy=48.37830296450682" "computed mass error=-0.028694260000065697" "SPLASH=splash10-001i-0090300000-f39688208b05cbe511b4" "submitter=Aiko Barsch (Bruker)" "MoNA Rating=4.545454545454546"
Num Peaks: 64
151.0107 0.400400
152.0134 0.100100
154.0457 0.100100
163.0104 0.100100
165.0244 0.100100
167.0579 0.100100
169.0706 0.100100
169.0757 0.100100
173.0276 0.100100
183.0506 0.100100
185.0672 0.100100
187.0499 0.100100
189.0645 0.100100
199.0484 0.100100
211.0491 0.200200
212.0567 0.100100
213.0647 0.300300
214.0359 0.100100
215.0447 0.100100
226.0378 0.100100
227.0448 3.303303
228.0485 0.600601
229.0605 0.800801
230.0623 0.100100
239.0456 0.500501
240.0499 0.100100
241.0616 0.500501
242.0649 0.100100
243.0397 0.600601
244.0428 0.100100
255.0408 32.332332
256.0452 5.705706
257.0546 2.002002
258.0557 0.300300
258.0630 0.100100
267.0391 0.100100
269.0568 0.100100
282.0281 0.100100
282.9819 0.100100
283.0370 100.000000
284.0414 19.719720
285.0526 47.647648
286.0560 6.906907
287.0559 0.900901
288.0586 0.100100
297.0531 0.100100
315.0884 0.100100
327.0646 0.400400
328.0687 0.100100
357.0736 0.100100
429.1021 0.100100
429.9866 0.100100
430.1101 40.240240
431.1164 23.723724
432.1193 4.304304
433.1196 0.700701
434.1259 0.100100
447.1135 10.710711
448.1157 2.402402
449.1178 0.500501
450.1216 0.100100
593.1776 4.704705
594.1827 1.401401
595.1807 0.400400


Name: 3-Rha-7-Rha Quercetin
Synon: $:00in-source
DB#: MetaboBASE1054
InChIKey: GXLQUHPXGLZNGE-BJBZVNFPSA-N
Instrument_type: LC-ESI-TOF
Instrument: impact HD
Ion_mode: N
Formula: C27H30O15
MW: 594
ExactMass: 594.15847026
Comments: "SMILES=O=c1c2c(oc(c1O[C@@H]1O[C@H]([C@@H]([C@H]([C@H]1O)O)O)C)c1cc(c(cc1)O)O)cc(cc2O)O[C@@H]1O[C@H]([C@@H]([C@H]([C@H]1O)O)O)C" "InChI=InChI=1S/C27H30O15/c1-8-17(31)20(34)22(36)26(38-8)40-11-6-14(30)16-15(7-11)41-24(10-3-4-12(28)13(29)5-10)25(19(16)33)42-27-23(37)21(35)18(32)9(2)39-27/h3-9,17-18,20-23,26-32,34-37H,1-2H3/t8-,9-,17-,18-,20+,21+,22+,23+,26-,27-/m0/s1" "computed SMILES=O=C1C(OC2OC(C)C(O)C(O)C2O)=C(OC3=CC(OC4OC(C)C(O)C(O)C4O)=CC(O)=C13)C=5C=CC(O)=C(O)C5" "license=License CC-BY-NC-SA 4.0 International" "author=Plant Biology, The Noble Foundation, Ardmore, OK, US/Dennis Fine, Daniel Wherritt, and Lloyd Sumner" "ionization=ESI" "peak width=0.011" "date=2013-12-09 22:32:55+01:00" "column=Waters Acquity BEH C18 1.7um x 2.1 x 150 mm" "retention time=304.2" "raw data file=C:\Data\AtW_4_1p13_9Dec_13msms.d" "SPLASH=splash10-0006-0200090000-11e7be53d324bc421299" "submitter=Aiko Barsch (Bruker)" "MoNA Rating=3.888888888888889"
Num Peaks: 125
116.9340 0.300300
447.1109 0.200200
463.1091 0.300300
557.0295 0.100100
593.0469 0.100100
593.0771 0.100100
593.1783 100.000000
593.2987 0.100100
593.3394 0.100100
594.1819 31.331331
595.1199 0.100100
595.1839 6.706707
596.1855 1.101101
597.1842 0.200200
619.6337 0.300300
641.1928 0.100100
645.1945 0.200200
661.1663 2.202202
662.1729 0.500501
663.1096 0.100100
663.1689 0.100100
691.1545 0.100100
692.0960 0.200200
692.1976 0.100100
693.1054 0.100100
693.1514 0.100100
711.1194 0.200200
712.1223 0.100100
723.1367 0.200200
723.1595 0.100100
723.2092 0.100100
729.1539 0.200200
739.2414 2.602603
740.2436 0.800801
741.2499 0.200200
755.2260 0.300300
916.7341 0.300300
917.2386 0.300300
917.7291 0.200200
977.2188 0.100100
977.3007 0.300300
978.2354 0.100100
978.2962 0.100100
1057.2823 0.100100
1057.3440 0.100100
1187.3641 15.415415
1187.8666 2.902903
1188.3684 9.509510
1188.8654 0.900901
1189.3678 2.602603
1189.8402 0.100100
1189.8835 0.200200
1190.3689 0.800801
1190.8656 0.100100
1191.3733 0.200200
1198.3530 0.600601
1198.8599 0.700701
1199.3683 0.400400
1199.8500 0.300300
1200.3440 0.100100
1209.3418 0.400400
1209.8336 0.200200
1210.3470 0.300300
1210.8591 0.100100
1211.3638 0.100100
1213.8289 0.100100
1214.3253 0.300300
1214.8193 0.200200
1215.3162 0.100100
1229.3541 0.200200
1229.8579 0.200200
1230.3621 0.300300
1230.8643 0.100100
1231.3512 0.100100
1260.3665 0.100100
1260.3982 0.100100
1260.8845 0.100100
1261.3539 0.100100
1261.3867 0.100100
1261.8979 0.100100
1333.3865 0.100100
1333.4384 0.100100
1357.4022 0.100100
1357.9119 0.200200
1358.4044 0.200200
1358.8744 0.100100
1358.9160 0.100100
1484.3723 0.100100
1484.4569 1.801802
1484.6847 0.100100
1484.8192 0.100100
1484.9585 3.003003
1485.4622 2.302302
1485.9600 1.401401
1486.4630 0.600601
1486.9554 0.100100
1487.4482 0.100100
1487.9620 0.100100
1495.4518 0.200200
1495.9396 0.300300
1496.4525 0.200200
1496.9360 0.200200
1497.4524 0.100100
1511.4231 0.200200
1511.9061 0.100100
1512.4139 0.100100
1557.9856 0.100100
1558.4878 0.100100
1583.4812 0.100100
1583.8298 0.100100
1584.1478 0.200200
1584.4495 0.100100
1584.4943 0.100100
1781.5436 0.300300
1781.8148 0.100100
1781.8778 0.100100
1782.0431 0.300300
1782.2134 0.100100
1782.5470 0.700701
1782.8927 0.100100
1783.0367 0.300300
1783.2174 0.100100
1783.5706 0.300300
1784.0665 0.200200
1784.5516 0.100100


Name: 3-O-Neohesperidoside Kaempferol
Synon: $:00in-source
DB#: MetaboBASE1055
InChIKey: OHOBPOYHROOXEI-JWMUNMLDSA-N
Spectrum_type: MS2
PrecursorMZ: 933.1848
Instrument_type: LC-ESI-TOF
Instrument: impact HD
Ion_mode: N
Collision_energy: 52.5
Formula: C27H30O15
MW: 594
ExactMass: 594.15847026
Comments: "SMILES=c1(cc(c2c(c1)oc(c(c2=O)O[C@@H]1O[C@@H]([C@H]([C@@H]([C@H]1O[C@@H]1O[C@H]([C@@H]([C@H]([C@H]1O)O)O)C)O)O)CO)c1ccc(cc1)O)O)O" "InChI=InChI=1S/C27H30O15/c1-9-17(32)20(35)22(37)26(38-9)42-25-21(36)18(33)15(8-28)40-27(25)41-24-19(34)16-13(31)6-12(30)7-14(16)39-23(24)10-2-4-11(29)5-3-10/h2-7,9,15,17-18,20-22,25-33,35-37H,8H2,1H3/t9-,15+,17-,18+,20+,21-,22+,25+,26-,27-/m0/s1" "computed SMILES=O=C1C(OC2OC(CO)C(O)C(O)C2OC3OC(C)C(O)C(O)C3O)=C(OC=4C=C(O)C=C(O)C14)C=5C=CC(O)=CC5" "synonym=3-O-Neohesperidoside Kaempferol (NMR)" "license=License CC-BY-NC-SA 4.0 International" "author=Plant Biology, The Noble Foundation, Ardmore, OK, US/Dennis Fine, Daniel Wherritt, and Lloyd Sumner" "ionization=ESI" "isolation width=10" "collision energy 2=87.5" "peak width=0.02" "date=2013-12-09 22:32:55+01:00" "column=Waters Acquity BEH C18 1.7um x 2.1 x 150 mm" "retention time=313.2" "raw data file=C:\Data\AtW_4_1p13_9Dec_13msms.d" "SPLASH=splash10-0089-0960000000-65aec61d1613ab0b9f0f" "submitter=Aiko Barsch (Bruker)" "MoNA Rating=3.125"
Num Peaks: 98
115.0084 22.422422
116.0132 1.201201
117.0141 0.200200
117.0175 0.100100
121.0348 0.900901
121.4650 0.100100
132.0287 0.100100
132.7420 0.100100
133.0201 100.000000
134.0238 4.204204
135.0251 1.301301
135.0492 0.100100
135.0669 0.300300
135.1533 0.100100
136.2343 0.100100
147.0501 1.901902
149.0306 6.806807
150.0359 0.800801
151.0125 0.200200
151.0467 0.300300
158.8743 0.100100
163.0392 0.100100
164.0551 27.927928
165.0579 2.602603
166.0601 0.100100
166.4449 0.100100
167.0416 0.200200
169.0612 0.100100
178.9989 0.100100
179.0788 4.304304
180.0765 0.100100
180.0834 0.300300
182.0879 0.100100
193.0244 0.700701
208.0480 0.800801
209.0556 0.100100
222.0609 0.400400
222.4129 0.100100
222.4563 0.100100
222.6381 0.100100
223.0708 91.091091
224.0748 9.209209
225.0376 0.100100
225.0502 0.500501
225.0771 1.301301
226.0729 0.100100
226.0825 0.100100
227.0467 0.600601
229.0604 0.100100
255.0414 0.600601
260.2622 0.100100
267.7820 0.100100
271.0363 1.501502
272.0433 0.100100
284.0446 2.202202
285.0538 0.600601
299.0326 12.512513
300.0368 3.203203
301.0483 7.607608
302.0482 0.900901
302.0593 0.200200
303.0603 0.100100
305.0062 0.100100
325.0570 0.100100
339.0817 1.401401
340.0977 0.500501
341.0825 0.100100
341.1210 0.100100
344.0769 0.100100
367.6747 0.100100
397.4407 0.100100
446.1024 3.703704
447.1136 3.503504
448.1108 0.800801
449.1064 0.200200
449.3011 0.100100
505.1657 0.100100
593.1356 0.200200
593.1619 0.200200
593.1780 8.108108
593.3547 0.100100
594.1814 2.602603
595.1806 0.500501
679.0294 0.100100
680.8839 0.100100
759.1732 0.100100
759.6179 0.100100
766.3688 0.100100
907.1270 0.100100
1178.2006 0.100100
1182.7329 0.100100
1395.9965 0.200200
1427.9023 0.100100
1489.9961 0.100100
1634.9204 0.100100
1667.8585 0.300300
1793.9398 0.100100
1863.6442 0.100100


Name: 3-O-Neohesperidoside Kaempferol
Synon: $:00in-source
DB#: MetaboBASE1056
InChIKey: OHOBPOYHROOXEI-JWMUNMLDSA-N
Precursor_type: [M-H]-
Spectrum_type: MS2
PrecursorMZ: 593.1218
Instrument_type: LC-ESI-TOF
Instrument: impact HD
Ion_mode: N
Collision_energy: 38.1163
Formula: C27H30O15
MW: 594
ExactMass: 594.15847026
Comments: "SMILES=c1(cc(c2c(c1)oc(c(c2=O)O[C@@H]1O[C@@H]([C@H]([C@@H]([C@H]1O[C@@H]1O[C@H]([C@@H]([C@H]([C@H]1O)O)O)C)O)O)CO)c1ccc(cc1)O)O)O" "InChI=InChI=1S/C27H30O15/c1-9-17(32)20(35)22(37)26(38-9)42-25-21(36)18(33)15(8-28)40-27(25)41-24-19(34)16-13(31)6-12(30)7-14(16)39-23(24)10-2-4-11(29)5-3-10/h2-7,9,15,17-18,20-22,25-33,35-37H,8H2,1H3/t9-,15+,17-,18+,20+,21-,22+,25+,26-,27-/m0/s1" "computed SMILES=O=C1C(OC2OC(CO)C(O)C(O)C2OC3OC(C)C(O)C(O)C3O)=C(OC=4C=C(O)C=C(O)C14)C=5C=CC(O)=CC5" "synonym=3-O-Neohesperidoside Kaempferol (NMR)" "license=License CC-BY-NC-SA 4.0 International" "author=Plant Biology, The Noble Foundation, Ardmore, OK, US/Dennis Fine, Daniel Wherritt, and Lloyd Sumner" "ionization=ESI" "collision energy 2=63.5272" "peak width=0.017" "date=2013-12-09 22:32:55+01:00" "column=Waters Acquity BEH C18 1.7um x 2.1 x 150 mm" "retention time=313.2" "raw data file=C:\Data\AtW_4_1p13_9Dec_13msms.d" "computed mass accuracy=49.5585561007705" "computed mass error=-0.029394259999889982" "SPLASH=splash10-053s-0091100000-6b198aa482b1d9e3dee8" "submitter=Aiko Barsch (Bruker)" "MoNA Rating=4.545454545454546"
Num Peaks: 92
107.0165 0.100100
107.0196 0.100100
132.0275 0.100100
135.0143 0.100100
151.0104 0.900901
152.0166 0.100100
159.0522 0.100100
163.0099 0.100100
164.0204 0.100100
179.0066 0.600601
180.0123 0.100100
185.0700 0.100100
200.0557 0.100100
211.0506 0.200200
215.0431 0.100100
226.0366 0.500501
227.0449 26.826827
228.0479 3.903904
229.0274 0.100100
229.0586 1.901902
230.0342 0.100100
230.0623 0.300300
231.0395 0.100100
239.0454 0.700701
240.0511 0.200200
241.0244 0.100100
241.0603 0.200200
242.0325 0.300300
243.0403 1.401401
244.0445 0.300300
245.0558 0.300300
254.0336 0.500501
254.6613 0.100100
255.0065 0.100100
255.0408 52.652653
256.0453 10.410410
257.0531 2.402402
258.0555 0.300300
259.0334 0.100100
267.0415 0.100100
270.0259 0.200200
271.0365 19.319319
272.0398 3.103103
273.0445 0.800801
274.0551 0.100100
281.0556 0.100100
282.0287 0.100100
282.0601 0.100100
283.0365 2.702703
283.8749 0.100100
284.0450 100.000000
284.6041 0.100100
285.0498 25.025025
286.0520 3.303303
287.0555 0.300300
287.0663 0.100100
288.0404 0.100100
298.0245 0.100100
299.0328 41.541542
300.0375 9.309309
301.0475 24.024024
302.0517 3.503504
303.0522 0.600601
309.0535 0.200200
310.0527 0.100100
311.0721 0.100100
325.0726 0.100100
326.0566 0.200200
327.0650 0.500501
328.0652 0.100100
339.0704 0.100100
363.1202 0.100100
369.0718 0.100100
393.0812 0.100100
401.1053 0.100100
411.0873 0.100100
429.1004 1.201201
430.1079 0.500501
431.1127 0.200200
431.1241 0.100100
445.0968 0.600601
446.0390 0.100100
446.1058 20.020020
447.1118 17.517518
448.1141 3.403403
449.1171 0.500501
450.1277 0.100100
473.1311 0.300300
593.1782 14.614615
594.1813 3.603604
595.1815 0.900901
596.1843 0.200200


Name: 3-O-Neohesperidoside Kaempferol
Synon: $:00in-source
DB#: MetaboBASE1057
InChIKey: OHOBPOYHROOXEI-JWMUNMLDSA-N
Instrument_type: LC-ESI-TOF
Instrument: impact HD
Ion_mode: N
Formula: C27H30O15
MW: 594
ExactMass: 594.1584702600001
Comments: "SMILES=c1(cc(c2c(c1)oc(c(c2=O)O[C@@H]1O[C@@H]([C@H]([C@@H]([C@H]1O[C@@H]1O[C@H]([C@@H]([C@H]([C@H]1O)O)O)C)O)O)CO)c1ccc(cc1)O)O)O" "InChI=InChI=1S/C27H30O15/c1-9-17(32)20(35)22(37)26(38-9)42-25-21(36)18(33)15(8-28)40-27(25)41-24-19(34)16-13(31)6-12(30)7-14(16)39-23(24)10-2-4-11(29)5-3-10/h2-7,9,15,17-18,20-22,25-33,35-37H,8H2,1H3/t9-,15+,17-,18+,20+,21-,22+,25+,26-,27-/m0/s1" "computed SMILES=O=C1C(OC2OC(CO)C(O)C(O)C2OC3OC(C)C(O)C(O)C3O)=C(OC=4C=C(O)C=C(O)C14)C=5C=CC(O)=CC5" "synonym=3-O-Neohesperidoside Kaempferol (NMR)" "license=License CC-BY-NC-SA 4.0 International" "author=Plant Biology, The Noble Foundation, Ardmore, OK, US/Dennis Fine, Daniel Wherritt, and Lloyd Sumner" "ionization=ESI" "peak width=0.013" "date=2013-12-09 22:32:55+01:00" "column=Waters Acquity BEH C18 1.7um x 2.1 x 150 mm" "retention time=313.2" "raw data file=C:\Data\AtW_4_1p13_9Dec_13msms.d" "SPLASH=splash10-000x-0211091005-d2312cd0796a577984f1" "submitter=Aiko Barsch (Bruker)" "MoNA Rating=3.888888888888889"
Num Peaks: 178
115.0086 1.401401
121.0350 0.300300
133.0202 7.807808
134.0231 0.300300
134.0438 0.200200
135.0249 0.100100
135.0503 0.300300
147.0519 0.300300
149.0308 1.601602
163.0473 0.500501
164.0552 6.506507
165.0589 0.600601
179.0421 0.100100
179.0793 0.900901
207.0395 1.101101
208.0456 0.300300
222.0630 0.500501
223.0709 18.218218
224.0741 2.202202
225.0504 0.200200
225.0768 0.300300
323.0535 1.401401
324.0564 0.200200
329.1531 0.100100
338.0798 0.300300
339.0869 16.016016
340.0902 2.302302
341.0643 0.300300
341.0917 0.400400
341.1175 0.100100
342.0693 0.100100
342.0961 0.100100
342.1245 0.100100
357.1490 0.400400
384.0783 0.100100
401.1407 0.400400
402.1446 0.100100
421.0037 0.100100
427.1224 0.600601
428.1271 0.200200
439.0148 0.300300
445.0977 1.401401
445.1329 0.300300
446.1015 0.300300
517.1573 0.800801
518.1603 0.200200
521.2289 0.200200
537.1476 0.100100
546.1346 0.100100
561.1475 0.500501
591.1596 0.500501
592.1580 0.200200
592.9946 0.100100
593.0217 0.100100
593.0801 0.100100
593.1782 100.000000
593.3040 0.100100
593.3568 0.100100
594.1819 29.729730
595.1839 6.806807
596.1886 1.101101
597.1757 0.100100
597.1924 0.100100
597.6028 0.100100
597.6849 0.100100
619.6344 0.100100
661.1655 0.800801
662.1715 0.300300
663.1072 0.100100
663.1456 0.100100
663.1694 0.100100
677.1665 15.015015
678.1702 4.304304
679.1727 1.501502
680.1793 0.400400
686.2842 0.200200
691.1492 0.200200
692.0990 0.200200
693.1018 0.100100
693.1598 0.100100
695.1772 0.400400
696.1812 0.100100
701.1604 0.500501
702.1653 0.200200
702.2723 0.100100
711.1207 0.400400
712.1197 0.200200
723.1549 0.100100
886.2327 0.200200
917.2428 0.700701
918.2396 0.300300
931.2556 1.101101
932.2582 0.700701
932.7661 0.100100
933.2733 52.952953
933.5291 0.100100
934.2772 24.224224
935.2797 6.406406
936.2762 1.301301
937.2800 0.300300
949.2698 0.200200
955.2540 0.600601
956.2571 0.200200
965.2651 0.100100
986.1852 0.100100
1185.3424 0.700701
1186.3550 0.400400
1186.4014 0.100100
1187.3632 14.414414
1187.8699 0.100100
1188.2231 0.100100
1188.3677 7.907908
1189.3704 2.502503
1190.3719 0.600601
1191.3757 0.100100
1209.3322 0.100100
1229.3627 0.700701
1229.8527 0.800801
1230.3707 0.500501
1230.8625 0.300300
1231.3605 0.200200
1231.8593 0.100100
1240.2625 0.100100
1271.3481 1.101101
1272.3525 0.700701
1273.3416 0.300300
1273.3754 0.200200
1274.3220 0.100100
1293.3209 0.100100
1294.3527 0.100100
1368.3882 0.100100
1368.8906 0.100100
1484.4581 0.400400
1484.9565 0.500501
1485.4641 0.500501
1485.9659 0.300300
1486.4535 0.100100
1525.4369 0.200200
1525.4828 0.100100
1525.9307 0.100100
1526.4437 0.600601
1526.9541 0.700701
1527.4585 3.103103
1527.9720 0.500501
1528.4644 2.202202
1528.9664 0.300300
1529.4674 0.800801
1529.9594 0.100100
1530.4460 0.200200
1530.4843 0.100100
1531.4329 0.100100
1531.4839 0.100100
1654.5144 0.300300
1655.0067 0.300300
1655.5033 0.300300
1656.0046 0.200200
1656.4746 0.100100
1697.5009 0.100100
1697.9703 0.100100
1698.0150 0.100100
1698.5219 0.100100
1779.5336 0.100100
1780.5109 0.100100
1781.0460 0.100100
1781.5372 0.700701
1782.0341 0.200200
1782.0826 0.100100
1782.5579 0.900901
1783.5450 0.300300
1784.5521 0.100100
1823.5443 0.100100
1824.0302 0.100100
1824.5319 0.400400
1824.6211 0.100100
1825.0642 0.400400
1825.5485 0.400400
1826.0314 0.200200
1826.5479 0.100100


Name: 3-O-Neohesperidoside Quercetin
Synon: $:00in-source
DB#: MetaboBASE1058
InChIKey: FYBMGZSDYDNBFX-GXPPAHCZSA-N
Precursor_type: [2M-H]-
Spectrum_type: MS2
PrecursorMZ: 1219.242
Instrument_type: LC-ESI-TOF
Instrument: impact HD
Ion_mode: N
Collision_energy: 52.5
Formula: C27H30O16
MW: 610
ExactMass: 610.15338488
Comments: "SMILES=c1(cc(c2c(c1)oc(c(c2=O)O[C@@H]1O[C@@H]([C@H]([C@@H]([C@H]1O[C@@H]1O[C@H]([C@@H]([C@H]([C@H]1O)O)O)C)O)O)CO)c1ccc(c(c1)O)O)O)O" "InChI=InChI=1S/C27H30O16/c1-8-17(33)20(36)22(38)26(39-8)43-25-21(37)18(34)15(7-28)41-27(25)42-24-19(35)16-13(32)5-10(29)6-14(16)40-23(24)9-2-3-11(30)12(31)4-9/h2-6,8,15,17-18,20-22,25-34,36-38H,7H2,1H3/t8-,15+,17-,18+,20+,21-,22+,25+,26-,27-/m0/s1" "computed SMILES=O=C1C(OC2OC(CO)C(O)C(O)C2OC3OC(C)C(O)C(O)C3O)=C(OC=4C=C(O)C=C(O)C14)C=5C=CC(O)=C(O)C5" "license=License CC-BY-NC-SA 4.0 International" "author=Plant Biology, The Noble Foundation, Ardmore, OK, US/Dennis Fine, Daniel Wherritt, and Lloyd Sumner" "ionization=ESI" "isolation width=10" "collision energy 2=87.5" "peak width=0.015" "date=2013-12-09 22:32:55+01:00" "column=Waters Acquity BEH C18 1.7um x 2.1 x 150 mm" "retention time=259.2" "raw data file=C:\Data\AtW_4_1p13_9Dec_13msms.d" "computed mass accuracy=47.155330935075234" "computed mass error=-0.057493759999942995" "SPLASH=splash10-0a4j-0011609000-8392aeb738fdfdb790a0" "submitter=Aiko Barsch (Bruker)" "MoNA Rating=4.545454545454546"
Num Peaks: 85
125.0313 0.100100
151.0106 0.300300
227.0400 0.100100
227.0512 0.100100
229.0583 0.100100
255.0384 0.200200
271.0364 1.301301
272.0432 0.100100
273.0558 0.100100
297.0567 0.100100
297.0771 0.400400
298.0217 0.100100
299.0335 15.915916
300.0393 3.803804
300.5077 0.100100
301.0495 14.414414
302.0529 2.402402
303.0544 0.400400
315.0292 0.100100
315.0878 0.100100
316.0363 0.100100
317.0464 0.200200
318.0457 0.200200
325.0704 0.300300
329.0406 0.100100
343.0618 0.300300
405.1002 0.100100
418.1089 0.100100
441.0974 0.100100
444.8274 0.100100
445.0983 1.301301
445.2258 0.100100
445.6113 0.100100
446.1071 56.056056
446.7385 0.100100
447.0552 0.100100
447.1133 32.732733
448.0687 0.100100
448.1165 6.406406
449.1198 1.101101
450.1118 0.200200
460.0780 0.100100
460.0910 0.100100
461.0955 1.201201
462.1060 0.400400
463.1101 10.310310
464.1148 1.901902
465.1192 0.400400
466.1158 0.100100
479.1104 0.100100
489.1346 0.100100
574.1192 0.100100
606.2408 0.100100
606.7532 0.100100
607.1409 0.100100
607.1609 18.718719
607.2419 0.100100
607.8054 0.100100
608.1041 0.100100
608.1635 5.505506
608.3059 0.100100
608.3745 0.100100
608.4421 0.100100
608.6838 0.100100
608.8672 0.100100
608.8965 0.100100
608.9496 0.100100
609.1763 100.000000
609.2708 0.100100
609.3167 0.100100
609.3536 0.100100
609.3887 0.100100
609.4539 0.100100
610.1138 0.200200
610.1793 28.728729
611.0898 0.100100
611.1817 6.006006
612.1860 0.800801
613.1897 0.200200
613.6876 0.100100
613.8470 0.100100
949.8274 0.100100
1217.3684 0.100100
1620.2305 0.100100
1736.6554 0.100100


Name: 3-O-Neohesperidoside Quercetin
Synon: $:00in-source
DB#: MetaboBASE1059
InChIKey: FYBMGZSDYDNBFX-GXPPAHCZSA-N
Precursor_type: [M-H]-
Spectrum_type: MS2
PrecursorMZ: 609.1166
Instrument_type: LC-ESI-TOF
Instrument: impact HD
Ion_mode: N
Collision_energy: 38.8662
Formula: C27H30O16
MW: 610
ExactMass: 610.1533848800001
Comments: "SMILES=c1(cc(c2c(c1)oc(c(c2=O)O[C@@H]1O[C@@H]([C@H]([C@@H]([C@H]1O[C@@H]1O[C@H]([C@@H]([C@H]([C@H]1O)O)O)C)O)O)CO)c1ccc(c(c1)O)O)O)O" "InChI=InChI=1S/C27H30O16/c1-8-17(33)20(36)22(38)26(39-8)43-25-21(37)18(34)15(7-28)41-27(25)42-24-19(35)16-13(32)5-10(29)6-14(16)40-23(24)9-2-3-11(30)12(31)4-9/h2-6,8,15,17-18,20-22,25-34,36-38H,7H2,1H3/t8-,15+,17-,18+,20+,21-,22+,25+,26-,27-/m0/s1" "computed SMILES=O=C1C(OC2OC(CO)C(O)C(O)C2OC3OC(C)C(O)C(O)C3O)=C(OC=4C=C(O)C=C(O)C14)C=5C=CC(O)=C(O)C5" "license=License CC-BY-NC-SA 4.0 International" "author=Plant Biology, The Noble Foundation, Ardmore, OK, US/Dennis Fine, Daniel Wherritt, and Lloyd Sumner" "ionization=ESI" "collision energy 2=64.777" "peak width=0.016" "date=2013-12-09 22:32:55+01:00" "column=Waters Acquity BEH C18 1.7um x 2.1 x 150 mm" "retention time=259.2" "raw data file=C:\Data\AtW_4_1p13_9Dec_13msms.d" "computed mass accuracy=48.445371543139686" "computed mass error=-0.029508880000093995" "SPLASH=splash10-0002-0092500000-d5f78f2fcce630d194ac" "submitter=Aiko Barsch (Bruker)" "MoNA Rating=4.545454545454546"
Num Peaks: 115
107.0190 0.200200
109.0349 0.100100
133.0291 0.100100
151.0110 1.301301
152.0136 0.100100
153.0258 0.100100
159.0517 0.100100
161.0307 0.100100
163.0123 0.200200
165.0289 0.200200
175.0156 0.100100
175.0480 0.100100
179.0058 0.300300
185.0760 0.100100
187.0504 0.100100
190.0334 0.100100
191.0052 0.100100
199.0483 0.200200
201.0270 0.100100
201.0668 0.100100
211.0514 0.100100
214.0380 0.100100
215.0463 0.200200
216.0495 0.100100
225.0268 0.100100
226.0376 0.600601
227.0454 1.801802
228.0476 0.300300
229.0275 0.200200
229.0614 0.900901
230.0319 0.100100
231.0408 0.300300
239.0462 0.100100
241.0244 0.900901
241.0632 0.100100
242.0331 1.801802
243.0410 3.703704
244.0450 0.500501
245.0217 0.600601
245.0558 0.300300
246.0242 0.100100
253.0215 0.100100
253.0618 0.100100
254.0337 1.001001
255.0428 3.603604
256.0456 0.800801
257.0572 0.500501
259.0391 0.100100
267.0406 0.100100
270.0307 2.102102
271.0253 0.100100
271.0377 42.742743
272.0411 6.306306
273.0486 1.401401
274.0489 0.100100
281.0240 0.100100
282.0302 0.300300
283.0367 0.400400
284.0456 0.200200
285.0528 0.200200
286.0576 0.100100
287.0341 0.100100
294.0346 0.100100
295.0385 0.100100
296.0439 0.100100
297.0199 0.200200
297.0531 0.100100
297.0794 0.200200
298.0251 0.900901
298.9898 0.100100
299.0341 100.000000
300.0386 20.520521
301.0492 29.229229
302.0523 4.304304
303.0531 0.800801
311.0364 0.100100
312.0444 0.100100
313.0510 0.200200
314.0558 0.100100
315.0781 0.100100
325.0726 0.200200
341.0462 0.200200
342.0512 0.100100
343.0644 0.300300
373.0714 0.100100
389.1040 0.100100
401.1074 0.100100
402.1113 0.100100
417.0981 0.300300
417.1086 0.100100
418.1008 0.100100
444.0885 0.100100
445.0992 6.006006
446.1072 51.051051
447.1137 25.125125
447.1806 0.100100
448.1154 4.604605
449.1178 0.700701
450.1189 0.100100
459.1152 0.200200
461.0932 0.300300
462.0985 0.200200
463.1106 6.706707
464.1152 1.301301
465.1006 0.100100
465.1157 0.200200
487.1102 0.300300
488.1139 0.100100
489.1271 0.100100
607.1548 0.300300
609.1760 10.410410
610.1639 0.100100
610.1797 2.402402
611.1844 0.700701
612.1844 0.100100


Name: 3-O-Neohesperidoside Quercetin
Synon: $:00in-source
DB#: MetaboBASE1060
InChIKey: FYBMGZSDYDNBFX-GXPPAHCZSA-N
Instrument_type: LC-ESI-TOF
Instrument: impact HD
Ion_mode: N
Formula: C27H30O16
MW: 610
ExactMass: 610.15338488
Comments: "SMILES=c1(cc(c2c(c1)oc(c(c2=O)O[C@@H]1O[C@@H]([C@H]([C@@H]([C@H]1O[C@@H]1O[C@H]([C@@H]([C@H]([C@H]1O)O)O)C)O)O)CO)c1ccc(c(c1)O)O)O)O" "InChI=InChI=1S/C27H30O16/c1-8-17(33)20(36)22(38)26(39-8)43-25-21(37)18(34)15(7-28)41-27(25)42-24-19(35)16-13(32)5-10(29)6-14(16)40-23(24)9-2-3-11(30)12(31)4-9/h2-6,8,15,17-18,20-22,25-34,36-38H,7H2,1H3/t8-,15+,17-,18+,20+,21-,22+,25+,26-,27-/m0/s1" "computed SMILES=O=C1C(OC2OC(CO)C(O)C(O)C2OC3OC(C)C(O)C(O)C3O)=C(OC=4C=C(O)C=C(O)C14)C=5C=CC(O)=C(O)C5" "license=License CC-BY-NC-SA 4.0 International" "author=Plant Biology, The Noble Foundation, Ardmore, OK, US/Dennis Fine, Daniel Wherritt, and Lloyd Sumner" "ionization=ESI" "peak width=0.013" "date=2013-12-09 22:32:55+01:00" "column=Waters Acquity BEH C18 1.7um x 2.1 x 150 mm" "retention time=259.2" "raw data file=C:\Data\AtW_4_1p13_9Dec_13msms.d" "SPLASH=splash10-0a4i-0040009000-5fa9b14fc052aa000b1d" "submitter=Aiko Barsch (Bruker)" "MoNA Rating=3.888888888888889"
Num Peaks: 185
251.0697 0.200200
299.0341 0.100100
445.0980 1.401401
446.1025 0.400400
454.2172 0.300300
461.0950 0.400400
468.1738 0.100100
551.2038 1.301301
552.2085 0.400400
581.1807 0.200200
581.2133 0.100100
607.1604 17.517518
607.6328 0.100100
608.0910 0.100100
608.1638 4.904905
608.2955 0.100100
608.5045 0.100100
608.8343 0.100100
608.9800 0.100100
609.0261 0.100100
609.1760 100.000000
609.2875 0.100100
609.3228 0.100100
609.3516 0.100100
609.5057 0.100100
609.8481 0.100100
609.9960 0.100100
610.0864 0.100100
610.1799 30.430430
611.0821 0.100100
611.1812 6.806807
611.2512 0.100100
612.1848 1.101101
613.1902 0.200200
613.5377 0.100100
625.1702 0.900901
626.1771 0.300300
635.1332 0.100100
635.6387 0.200200
636.1393 0.200200
636.6407 0.100100
667.2230 0.100100
675.1523 0.400400
676.1565 0.200200
677.1606 0.800801
678.1668 0.200200
707.1412 0.200200
708.0955 0.300300
709.1002 0.200200
725.1049 0.400400
725.2381 0.100100
726.1051 0.100100
727.1137 1.801802
727.2318 0.100100
728.1188 0.700701
729.1226 0.300300
1159.3679 0.300300
1160.3594 0.100100
1161.3829 0.600601
1162.3864 0.400400
1163.3818 0.100100
1215.3184 0.500501
1216.3293 0.400400
1217.1243 0.100100
1217.3425 13.713714
1217.8274 0.100100
1218.3461 7.807808
1218.8142 0.100100
1218.8699 0.100100
1219.2130 0.100100
1219.3588 34.234234
1219.4905 0.100100
1219.8490 0.100100
1220.3628 18.618619
1220.5084 0.100100
1221.2610 0.100100
1221.3649 6.006006
1221.4763 0.100100
1222.3673 1.301301
1223.3109 0.100100
1223.3606 0.300300
1224.3578 0.100100
1230.3483 0.400400
1230.8575 0.200200
1231.3358 0.100100
1231.3669 0.300300
1231.8496 0.200200
1232.3423 0.100100
1239.3202 0.300300
1239.8120 0.100100
1240.3137 0.200200
1240.8308 0.100100
1241.3345 0.600601
1241.8406 0.100100
1242.3358 0.100100
1243.3394 0.100100
1244.3007 0.200200
1244.8079 0.200200
1245.3143 0.300300
1245.8169 0.200200
1246.3215 0.400400
1246.7905 0.200200
1246.8259 0.100100
1247.2872 0.100100
1247.3290 0.100100
1256.3159 0.100100
1256.7968 0.100100
1257.3010 0.100100
1272.2604 0.200200
1273.2809 0.100100
1363.4005 0.300300
1364.4231 0.200200
1365.4200 1.001001
1366.4281 0.700701
1367.4318 0.200200
1521.3860 0.100100
1521.4390 0.100100
1521.9194 0.300300
1522.4261 0.700701
1522.9390 0.700701
1523.4291 1.701702
1523.9386 1.801802
1524.3910 0.100100
1524.4479 1.701702
1524.8444 0.100100
1524.9510 1.401401
1525.4478 1.101101
1525.9575 0.600601
1526.3700 0.100100
1526.4525 0.300300
1526.9403 0.100100
1527.4363 0.100100
1534.3851 0.200200
1534.4346 0.500501
1534.9265 0.400400
1535.3645 0.100100
1535.4282 0.500501
1535.8679 0.100100
1535.9396 0.400400
1536.4182 0.100100
1536.4595 0.100100
1550.3910 0.100100
1550.9061 0.100100
1551.4185 0.400400
1551.8602 0.100100
1551.9005 0.200200
1552.3954 0.100100
1596.4816 0.300300
1596.9669 0.300300
1597.4840 0.400400
1597.9855 0.300300
1598.4650 0.200200
1598.9800 0.200200
1827.4824 0.100100
1827.5347 1.201201
1827.8351 0.200200
1828.0234 0.500501
1828.2075 0.200200
1828.5383 1.801802
1828.8527 0.400400
1828.9995 0.100100
1829.0481 0.800801
1829.2010 0.300300
1829.2594 0.200200
1829.5393 2.902903
1829.8746 0.400400
1830.0393 1.001001
1830.1711 0.300300
1830.2224 0.300300
1830.5487 1.401401
1830.8418 0.100100
1830.9119 0.100100
1831.0601 0.400400
1831.2421 0.100100
1831.4532 0.100100
1831.5507 0.600601
1831.9668 0.100100
1832.0349 0.100100
1832.5311 0.100100
1901.5118 0.100100
1901.5778 0.100100
1901.9956 0.100100
1902.0787 0.200200
1902.5344 0.100100
1902.6122 0.100100


Name: 3-Glu-7-Rha Quercetin
Synon: $:00in-source
DB#: MetaboBASE1061
InChIKey: OTUCXMIQUNROBJ-DWZPKPSVSA-N
Instrument_type: LC-ESI-TOF
Instrument: impact HD
Ion_mode: N
Formula: C27H30O16
MW: 610
ExactMass: 610.1533848800001
Comments: "SMILES=c1(cc(c2c(c1)oc(c(c2=O)O[C@@H]1O[C@@H]([C@H]([C@@H]([C@H]1O)O)O)CO)c1ccc(c(c1)O)O)O)O[C@@H]1O[C@H]([C@H]([C@@H]([C@H]1O)O)O)C" "InChI=InChI=1S/C27H30O16/c1-8-17(32)20(35)22(37)26(39-8)40-10-5-13(31)16-14(6-10)41-24(9-2-3-11(29)12(30)4-9)25(19(16)34)43-27-23(38)21(36)18(33)15(7-28)42-27/h2-6,8,15,17-18,20-23,26-33,35-38H,7H2,1H3/t8-,15+,17+,18+,20-,21-,22+,23+,26-,27-/m0/s1" "computed SMILES=O=C1C(OC2OC(CO)C(O)C(O)C2O)=C(OC3=CC(OC4OC(C)C(O)C(O)C4O)=CC(O)=C13)C=5C=CC(O)=C(O)C5" "synonym=3-Glu-1-Rha Quercetin (NMR)" "license=License CC-BY-NC-SA 4.0 International" "author=Plant Biology, The Noble Foundation, Ardmore, OK, US/Dennis Fine, Daniel Wherritt, and Lloyd Sumner" "ionization=ESI" "peak width=0.011" "date=2013-12-09 22:32:55+01:00" "column=Waters Acquity BEH C18 1.7um x 2.1 x 150 mm" "retention time=269.4" "raw data file=C:\Data\AtW_4_1p13_9Dec_13msms.d" "SPLASH=splash10-0a4i-0010009000-cf22a7a893a7c1b503ec" "submitter=Aiko Barsch (Bruker)" "MoNA Rating=3.888888888888889"
Num Peaks: 96
255.0997 0.100100
518.1923 0.500501
519.2129 0.500501
607.1604 13.113113
608.1630 3.503504
608.9880 0.100100
609.0439 0.100100
609.1757 100.000000
610.0925 0.100100
610.1796 30.730731
611.1818 7.207207
612.1819 1.001001
613.1866 0.200200
625.1705 0.900901
626.1707 0.200200
635.1368 0.100100
635.6277 0.100100
675.1346 0.100100
675.1559 0.100100
677.1650 1.801802
678.1662 0.600601
679.1685 0.100100
693.1237 0.200200
707.1522 0.200200
708.0948 0.700701
709.1017 0.400400
710.1111 0.100100
723.2053 0.100100
728.2824 0.100100
729.1234 0.100100
729.2853 0.100100
769.2469 0.100100
770.2593 0.100100
965.2746 0.100100
965.3060 0.100100
981.2960 0.400400
982.3078 0.200200
1128.3737 0.200200
1217.3435 3.303303
1218.3507 1.701702
1219.3591 11.611612
1220.3636 6.006006
1221.3650 2.002002
1222.3617 0.600601
1223.3627 0.100100
1239.3054 0.100100
1239.3376 0.100100
1241.3376 0.500501
1241.8591 0.100100
1242.3292 0.200200
1242.8341 0.100100
1243.3372 0.100100
1244.8181 0.100100
1245.3008 0.100100
1245.8147 0.200200
1246.3109 0.200200
1246.8398 0.100100
1272.2699 0.100100
1273.2534 0.100100
1273.2867 0.200200
1289.4457 0.100100
1290.4423 0.100100
1291.4525 1.101101
1292.4552 0.700701
1293.4678 0.200200
1294.4606 0.100100
1341.3718 0.100100
1523.4421 0.200200
1523.9492 0.100100
1524.4342 0.300300
1524.9475 0.300300
1525.4590 0.200200
1525.9650 0.100100
1535.4149 0.100100
1535.4799 0.100100
1535.9633 0.100100
1536.4607 0.100100
1560.4928 0.100100
1560.9910 0.100100
1561.4917 0.100100
1562.0020 0.100100
1596.5507 0.100100
1597.0470 0.100100
1597.5570 0.100100
1598.0374 0.100100
1828.5370 0.200200
1829.0339 0.100100
1829.5469 0.200200
1829.8527 0.100100
1829.9846 0.100100
1830.0389 0.100100
1830.1704 0.100100
1830.5222 0.200200
1830.5714 0.200200
1831.0251 0.100100
1831.5707 0.100100


Name: 3-Glu-7-Rha Quercetin
Synon: $:00in-source
DB#: MetaboBASE1062
InChIKey: OTUCXMIQUNROBJ-DWZPKPSVSA-N
Precursor_type: [M-H]-
Spectrum_type: MS2
PrecursorMZ: 609.1156
Instrument_type: LC-ESI-TOF
Instrument: impact HD
Ion_mode: N
Collision_energy: 38.8662
Formula: C27H30O16
MW: 610
ExactMass: 610.15338488
Comments: "SMILES=c1(cc(c2c(c1)oc(c(c2=O)O[C@@H]1O[C@@H]([C@H]([C@@H]([C@H]1O)O)O)CO)c1ccc(c(c1)O)O)O)O[C@@H]1O[C@H]([C@H]([C@@H]([C@H]1O)O)O)C" "InChI=InChI=1S/C27H30O16/c1-8-17(32)20(35)22(37)26(39-8)40-10-5-13(31)16-14(6-10)41-24(9-2-3-11(29)12(30)4-9)25(19(16)34)43-27-23(38)21(36)18(33)15(7-28)42-27/h2-6,8,15,17-18,20-23,26-33,35-38H,7H2,1H3/t8-,15+,17+,18+,20-,21-,22+,23+,26-,27-/m0/s1" "computed SMILES=O=C1C(OC2OC(CO)C(O)C(O)C2O)=C(OC3=CC(OC4OC(C)C(O)C(O)C4O)=CC(O)=C13)C=5C=CC(O)=C(O)C5" "synonym=3-Glu-1-Rha Quercetin (NMR)" "license=License CC-BY-NC-SA 4.0 International" "author=Plant Biology, The Noble Foundation, Ardmore, OK, US/Dennis Fine, Daniel Wherritt, and Lloyd Sumner" "ionization=ESI" "collision energy 2=64.777" "peak width=0.015" "date=2013-12-09 22:32:55+01:00" "column=Waters Acquity BEH C18 1.7um x 2.1 x 150 mm" "retention time=269.4" "raw data file=C:\Data\AtW_4_1p13_9Dec_13msms.d" "computed mass accuracy=50.08717557054304" "computed mass error=-0.030508879999956662" "SPLASH=splash10-0udi-0089000000-3b7b81df3bc364f22fed" "submitter=Aiko Barsch (Bruker)" "MoNA Rating=4.545454545454546"
Num Peaks: 76
107.0178 0.100100
108.0283 0.300300
135.0150 0.100100
148.0247 0.100100
151.0112 0.700701
152.0135 0.100100
163.0139 0.100100
164.0182 0.100100
179.0069 0.900901
180.0122 0.100100
186.0405 0.100100
187.0471 0.100100
192.0131 0.100100
199.0477 0.100100
202.0382 0.100100
214.0380 0.300300
215.0463 0.200200
216.0399 0.100100
216.0483 0.100100
216.0558 0.100100
218.0292 0.100100
226.0370 0.800801
227.0452 1.601602
228.0502 0.300300
229.0271 0.100100
239.0471 0.100100
241.0249 3.803804
242.0317 2.702703
243.0409 8.208208
244.0452 1.501502
245.0199 1.501502
245.0525 0.300300
246.0247 0.100100
253.0258 0.100100
254.0339 1.601602
255.0415 17.817818
256.0453 2.502503
257.0499 0.400400
270.0289 3.803804
271.0375 43.443443
272.0413 7.907908
273.0447 1.101101
274.0181 0.100100
274.0491 0.100100
282.0310 0.100100
283.0385 0.200200
284.0447 0.400400
285.0499 0.200200
295.0405 0.100100
297.0572 0.100100
298.0258 3.203203
299.0330 5.705706
299.5718 0.100100
300.0416 100.000000
301.0457 20.220220
302.0475 2.802803
303.0542 0.400400
323.0356 0.100100
325.0542 0.200200
341.0452 0.100100
343.0593 0.200200
373.0804 0.100100
427.0794 0.100100
445.0990 0.400400
446.1071 0.500501
447.1062 0.100100
447.1486 0.100100
463.1104 0.300300
489.1264 0.300300
490.1288 0.100100
607.1542 0.300300
608.1625 0.100100
609.1752 9.409409
610.1778 2.302302
611.1812 0.700701
612.1833 0.100100


Name: 3-O-Neohesperidoside-7-Rha Kaempferol
Synon: $:00in-source
DB#: MetaboBASE1063
InChIKey: DDELFAUOHDSZJL-NISQZGKJSA-N
Instrument_type: LC-ESI-TOF
Instrument: impact HD
Ion_mode: N
Formula: C33H40O19
MW: 740
ExactMass: 740.21637906
Comments: "SMILES=c1(cc(c2c(c1)oc(c(c2=O)O[C@@H]1O[C@@H]([C@H]([C@@H]([C@H]1O[C@@H]1O[C@H]([C@@H]([C@H]([C@H]1O)O)O)C)O)O)CO)c1ccc(cc1)O)O)O[C@@H]1O[C@H]([C@H]([C@@H]([C@H]1O)O)O)C" "InChI=InChI=1S/C33H40O19/c1-10-19(37)23(41)26(44)31(46-10)48-14-7-15(36)18-16(8-14)49-28(12-3-5-13(35)6-4-12)29(22(18)40)51-33-30(25(43)21(39)17(9-34)50-33)52-32-27(45)24(42)20(38)11(2)47-32/h3-8,10-11,17,19-21,23-27,30-39,41-45H,9H2,1-2H3/t10-,11-,17+,19+,20-,21+,23-,24+,25-,26+,27+,30+,31-,32-,33-/m0/s1" "computed SMILES=O=C1C(OC2OC(CO)C(O)C(O)C2OC3OC(C)C(O)C(O)C3O)=C(OC4=CC(OC5OC(C)C(O)C(O)C5O)=CC(O)=C14)C=6C=CC(O)=CC6" "license=License CC-BY-NC-SA 4.0 International" "author=Plant Biology, The Noble Foundation, Ardmore, OK, US/Dennis Fine, Daniel Wherritt, and Lloyd Sumner" "ionization=ESI" "peak width=0.011" "date=2013-12-09 22:32:55+01:00" "column=Waters Acquity BEH C18 1.7um x 2.1 x 150 mm" "retention time=237" "raw data file=C:\Data\AtW_4_1p13_9Dec_13msms.d" "SPLASH=splash10-000i-0000200900-fff69738c2158c28ee6d" "submitter=Aiko Barsch (Bruker)" "MoNA Rating=3.888888888888889"
Num Peaks: 162
389.1426 0.300300
389.1995 0.100100
390.1444 0.100100
397.0407 0.100100
431.2141 0.200200
593.1793 0.200200
594.1874 0.100100
738.9938 0.100100
739.0657 0.100100
739.0963 0.100100
739.1508 0.100100
739.2466 100.000000
739.4057 0.100100
739.4340 0.100100
740.0246 0.100100
740.1312 0.100100
740.2502 35.735736
740.4122 0.100100
741.2529 9.809810
742.2546 1.601602
743.2568 0.300300
761.2166 0.100100
765.7021 0.400400
766.2078 0.300300
766.7043 0.100100
775.2234 0.200200
776.2252 0.100100
777.2128 0.100100
791.2629 0.100100
792.1609 0.100100
807.2364 1.501502
808.2430 0.500501
809.2410 0.200200
837.2209 0.200200
838.1664 0.200200
839.1705 0.100100
857.1891 1.401401
858.1923 0.600601
859.1919 0.200200
869.2150 0.200200
875.2269 0.100100
965.3744 0.100100
1044.3459 0.100100
1045.3604 0.100100
1109.3735 2.402402
1109.8798 2.602603
1110.3768 1.601602
1110.8761 0.800801
1111.3870 0.300300
1111.8800 0.100100
1120.3555 0.100100
1120.8724 0.100100
1121.3702 0.100100
1131.3417 0.100100
1131.8501 0.100100
1135.8336 0.200200
1136.3363 0.300300
1136.8320 0.200200
1137.3237 0.100100
1147.3282 0.100100
1291.4642 0.100100
1292.4479 0.100100
1385.4845 0.100100
1385.9871 0.100100
1386.4640 0.100100
1386.4989 0.100100
1386.9818 0.100100
1479.3031 0.100100
1479.5035 11.911912
1479.7306 0.100100
1479.8452 0.200200
1480.0054 9.109109
1480.1881 0.400400
1480.5067 11.811812
1480.8219 0.100100
1480.8622 0.200200
1481.0104 4.004004
1481.1750 0.100100
1481.5107 3.403403
1482.0143 0.600601
1482.5051 0.600601
1483.0059 0.100100
1483.4651 0.100100
1483.5114 0.100100
1487.4871 0.100100
1487.8457 0.100100
1490.4974 0.300300
1490.9888 0.500501
1491.4924 0.400400
1491.9872 0.400400
1492.4845 0.200200
1493.0011 0.100100
1498.4628 0.100100
1498.9684 0.100100
1499.4860 0.100100
1499.9816 0.100100
1501.4763 0.200200
1501.5294 0.100100
1501.9724 0.100100
1502.4808 0.100100
1503.4796 0.100100
1505.9573 0.200200
1506.4678 0.300300
1506.9581 0.200200
1507.4761 0.100100
1507.9626 0.100100
1517.4473 0.100100
1538.9717 0.100100
1726.2531 0.300300
1726.5900 1.401401
1726.9293 1.101101
1727.2556 1.201201
1727.5947 1.001001
1727.9259 0.600601
1728.2582 0.400400
1728.5936 0.300300
1728.9232 0.100100
1733.5790 0.100100
1733.9445 0.100100
1734.2375 0.200200
1734.5988 0.100100
1734.9344 0.100100
1735.2411 0.200200
1744.5599 0.100100
1744.8784 0.100100
1744.9224 0.100100
1745.2390 0.100100
1756.5798 0.100100
1756.6344 0.100100
1849.6361 0.700701
1849.8849 0.100100
1850.1289 1.501502
1850.3967 0.100100
1850.5022 0.100100
1850.6414 1.501502
1850.8961 0.300300
1851.1350 1.101101
1851.3799 0.100100
1851.6346 0.700701
1852.1309 0.200200
1852.6156 0.100100
1852.6664 0.100100
1860.6089 0.100100
1861.1210 0.200200
1861.6293 0.200200
1862.1299 0.100100
1972.9938 0.200200
1973.3350 0.500501
1973.6608 0.700701
1974.0116 0.700701
1974.3463 0.600601
1974.6801 0.400400
1975.0167 0.400400
1975.3331 0.100100
1975.6316 0.100100
1975.6989 0.100100
1980.6639 0.100100
1980.9921 0.100100
1981.3267 0.100100
1981.6083 0.100100
1981.6913 0.100100
1982.0012 0.100100


Name: 3-O-Neohesperidoside-7-Rha Kaempferol
Synon: $:00in-source
DB#: MetaboBASE1064
InChIKey: DDELFAUOHDSZJL-NISQZGKJSA-N
Precursor_type: [M-H]-
Spectrum_type: MS2
PrecursorMZ: 739.1716
Instrument_type: LC-ESI-TOF
Instrument: impact HD
Ion_mode: N
Collision_energy: 44.9628
Formula: C33H40O19
MW: 740
ExactMass: 740.21637906
Comments: "SMILES=c1(cc(c2c(c1)oc(c(c2=O)O[C@@H]1O[C@@H]([C@H]([C@@H]([C@H]1O[C@@H]1O[C@H]([C@@H]([C@H]([C@H]1O)O)O)C)O)O)CO)c1ccc(cc1)O)O)O[C@@H]1O[C@H]([C@H]([C@@H]([C@H]1O)O)O)C" "InChI=InChI=1S/C33H40O19/c1-10-19(37)23(41)26(44)31(46-10)48-14-7-15(36)18-16(8-14)49-28(12-3-5-13(35)6-4-12)29(22(18)40)51-33-30(25(43)21(39)17(9-34)50-33)52-32-27(45)24(42)20(38)11(2)47-32/h3-8,10-11,17,19-21,23-27,30-39,41-45H,9H2,1-2H3/t10-,11-,17+,19+,20-,21+,23-,24+,25-,26+,27+,30+,31-,32-,33-/m0/s1" "computed SMILES=O=C1C(OC2OC(CO)C(O)C(O)C2OC3OC(C)C(O)C(O)C3O)=C(OC4=CC(OC5OC(C)C(O)C(O)C5O)=CC(O)=C14)C=6C=CC(O)=CC6" "license=License CC-BY-NC-SA 4.0 International" "author=Plant Biology, The Noble Foundation, Ardmore, OK, US/Dennis Fine, Daniel Wherritt, and Lloyd Sumner" "ionization=ESI" "collision energy 2=74.938" "peak width=0.014" "date=2013-12-09 22:32:55+01:00" "column=Waters Acquity BEH C18 1.7um x 2.1 x 150 mm" "retention time=237" "raw data file=C:\Data\AtW_4_1p13_9Dec_13msms.d" "computed mass accuracy=50.73660838694165" "computed mass error=-0.03750305999994907" "SPLASH=splash10-001i-0090130000-a3882d21771eeed59284" "submitter=Aiko Barsch (Bruker)" "MoNA Rating=4.545454545454546"
Num Peaks: 57
107.0193 0.100100
151.0114 0.500501
152.0189 0.100100
179.0074 0.400400
180.0107 0.100100
183.0547 0.100100
211.0503 0.100100
213.0619 0.100100
226.0383 0.100100
227.0464 6.506507
228.0505 0.900901
229.0592 0.300300
239.0470 0.200200
240.0536 0.100100
241.0612 0.200200
243.0417 0.100100
255.0426 29.929930
256.0469 5.905906
257.0550 1.501502
258.0593 0.200200
267.0438 0.100100
269.0630 0.100100
281.0639 0.100100
282.0296 0.100100
283.0045 0.100100
283.0390 100.000000
284.0457 54.054054
285.0525 19.319319
286.0558 2.802803
287.0574 0.300300
298.0640 0.100100
309.0535 0.300300
310.0606 0.100100
326.0601 0.200200
327.0665 0.500501
328.0684 0.100100
339.0661 0.100100
357.0830 0.100100
401.1072 0.100100
411.0911 0.100100
429.1048 1.701702
430.1127 34.234234
431.1172 9.009009
432.1197 1.701702
433.1220 0.300300
447.1181 0.300300
448.1134 0.100100
473.1312 0.300300
593.0856 0.100100
593.1821 55.255255
594.1855 16.016016
595.1876 3.403403
596.1876 0.500501
739.2457 1.401401
740.2496 0.500501
741.2357 0.100100
741.2585 0.100100


Name: 3-O-Neohesperidoside-7-Rha Quercetin
Synon: $:00in-source
DB#: MetaboBASE1065
InChIKey: WLPJMCCYDZFCBL-JABRZMJWSA-N
Precursor_type: [M-H]-
Spectrum_type: MS2
PrecursorMZ: 755.1657
Instrument_type: LC-ESI-TOF
Instrument: impact HD
Ion_mode: N
Collision_energy: 45.7128
Formula: C33H40O20
MW: 756
ExactMass: 756.2112936799999
Comments: "SMILES=c1(cc(c2c(c1)oc(c(c2=O)O[C@@H]1O[C@@H]([C@H]([C@@H]([C@H]1O[C@@H]1O[C@H]([C@@H]([C@H]([C@H]1O)O)O)C)O)O)CO)c1ccc(c(c1)O)O)O)O[C@@H]1O[C@H]([C@H]([C@@H]([C@H]1O)O)O)C" "InChI=InChI=1S/C33H40O20/c1-9-19(38)23(42)26(45)31(47-9)49-12-6-15(37)18-16(7-12)50-28(11-3-4-13(35)14(36)5-11)29(22(18)41)52-33-30(25(44)21(40)17(8-34)51-33)53-32-27(46)24(43)20(39)10(2)48-32/h3-7,9-10,17,19-21,23-27,30-40,42-46H,8H2,1-2H3/t9-,10-,17+,19+,20-,21+,23-,24+,25-,26+,27+,30+,31-,32-,33-/m0/s1" "computed SMILES=O=C1C(OC2OC(CO)C(O)C(O)C2OC3OC(C)C(O)C(O)C3O)=C(OC4=CC(OC5OC(C)C(O)C(O)C5O)=CC(O)=C14)C=6C=CC(O)=C(O)C6" "license=License CC-BY-NC-SA 4.0 International" "author=Plant Biology, The Noble Foundation, Ardmore, OK, US/Dennis Fine, Daniel Wherritt, and Lloyd Sumner" "ionization=ESI" "collision energy 2=76.188" "peak width=0.014" "date=2013-12-09 22:32:55+01:00" "column=Waters Acquity BEH C18 1.7um x 2.1 x 150 mm" "retention time=208.8" "raw data file=C:\Data\AtW_4_1p13_9Dec_13msms.d" "computed mass accuracy=50.74075795532515" "computed mass error=-0.038317679999863685" "SPLASH=splash10-0002-0092400100-ebbbe04721d3116536ec" "submitter=Aiko Barsch (Bruker)" "MoNA Rating=4.545454545454546"
Num Peaks: 67
107.0193 0.100100
151.0117 0.500501
179.0080 0.300300
199.0488 0.100100
214.0375 0.100100
215.0449 0.100100
226.0412 0.200200
227.0474 0.700701
228.0505 0.100100
229.0262 0.100100
229.0640 0.100100
241.0279 0.500501
242.0343 1.201201
243.0422 1.801802
244.0456 0.300300
245.0220 0.400400
253.0269 0.100100
254.0350 0.400400
255.0426 1.301301
256.0467 0.300300
257.0706 0.100100
270.0306 1.701702
271.0392 27.627628
272.0426 4.204204
273.0463 0.700701
282.0307 0.200200
283.0396 0.200200
284.0483 0.100100
295.0391 0.100100
297.0196 0.100100
297.0553 0.100100
297.0788 0.200200
298.0277 1.101101
299.0356 100.000000
300.0404 24.424424
301.0473 6.706707
302.0526 0.900901
303.0547 0.100100
313.0510 0.100100
314.0561 0.100100
325.0735 0.500501
326.0723 0.100100
343.0652 0.100100
355.0620 0.100100
401.1081 0.100100
417.1056 0.100100
418.1144 0.100100
445.0995 2.102102
446.1097 57.457457
447.1138 13.713714
448.1161 2.502503
449.1215 0.400400
450.1257 0.100100
463.1126 0.100100
489.1279 0.200200
490.1374 0.100100
607.1638 1.001001
608.1647 0.400400
609.1800 9.809810
610.1830 2.802803
611.1833 0.600601
612.1854 0.100100
635.2028 0.100100
755.2452 14.414414
756.2476 4.604605
757.2505 1.201201
758.2543 0.200200


Name: 3-O-Neohesperidoside-7-Rha Quercetin
Synon: $:00in-source
DB#: MetaboBASE1066
InChIKey: WLPJMCCYDZFCBL-JABRZMJWSA-N
Instrument_type: LC-ESI-TOF
Instrument: impact HD
Ion_mode: N
Formula: C33H40O20
MW: 756
ExactMass: 756.2112936799999
Comments: "SMILES=c1(cc(c2c(c1)oc(c(c2=O)O[C@@H]1O[C@@H]([C@H]([C@@H]([C@H]1O[C@@H]1O[C@H]([C@@H]([C@H]([C@H]1O)O)O)C)O)O)CO)c1ccc(c(c1)O)O)O)O[C@@H]1O[C@H]([C@H]([C@@H]([C@H]1O)O)O)C" "InChI=InChI=1S/C33H40O20/c1-9-19(38)23(42)26(45)31(47-9)49-12-6-15(37)18-16(7-12)50-28(11-3-4-13(35)14(36)5-11)29(22(18)41)52-33-30(25(44)21(40)17(8-34)51-33)53-32-27(46)24(43)20(39)10(2)48-32/h3-7,9-10,17,19-21,23-27,30-40,42-46H,8H2,1-2H3/t9-,10-,17+,19+,20-,21+,23-,24+,25-,26+,27+,30+,31-,32-,33-/m0/s1" "computed SMILES=O=C1C(OC2OC(CO)C(O)C(O)C2OC3OC(C)C(O)C(O)C3O)=C(OC4=CC(OC5OC(C)C(O)C(O)C5O)=CC(O)=C14)C=6C=CC(O)=C(O)C6" "license=License CC-BY-NC-SA 4.0 International" "author=Plant Biology, The Noble Foundation, Ardmore, OK, US/Dennis Fine, Daniel Wherritt, and Lloyd Sumner" "ionization=ESI" "peak width=0.011" "date=2013-12-09 22:32:55+01:00" "column=Waters Acquity BEH C18 1.7um x 2.1 x 150 mm" "retention time=208.8" "raw data file=C:\Data\AtW_4_1p13_9Dec_13msms.d" "SPLASH=splash10-0a4i-0000020900-c0b427176429de0e1049" "submitter=Aiko Barsch (Bruker)" "MoNA Rating=3.888888888888889"
Num Peaks: 171
387.1873 0.400400
388.1914 0.100100
607.1637 2.402402
608.1670 0.700701
609.1696 0.200200
727.2488 0.300300
728.2521 0.100100
753.1553 0.100100
753.2286 5.505506
754.0960 0.100100
754.1332 0.100100
754.2316 1.701702
754.8798 0.100100
755.0073 0.100100
755.0640 0.100100
755.1390 0.100100
755.2448 100.000000
755.4274 0.100100
755.6497 0.100100
755.7614 0.100100
756.1390 0.100100
756.2480 35.935936
756.3735 0.100100
757.2510 9.709710
758.2538 1.601602
759.2543 0.300300
781.7028 0.300300
782.2078 0.200200
782.7065 0.100100
783.2054 0.100100
789.2023 0.100100
791.2236 0.200200
792.2220 0.100100
792.6967 0.100100
793.2136 0.100100
799.2324 0.800801
800.2329 0.200200
801.2463 0.100100
807.2515 0.100100
808.1569 0.100100
816.1952 0.100100
817.2457 0.100100
821.2158 0.300300
822.2037 0.100100
823.2352 2.002002
824.2362 0.600601
825.2442 0.200200
839.1980 0.100100
839.2197 0.100100
845.2135 0.100100
853.1566 0.100100
853.2239 0.200200
854.1661 0.600601
855.1710 0.400400
856.1742 0.100100
857.1639 0.100100
871.1769 0.200200
872.1763 0.100100
873.1872 1.601602
874.1887 0.600601
875.1910 0.300300
876.1492 0.100100
876.1857 0.100100
885.2090 0.200200
886.2108 0.100100
891.2247 0.100100
1013.3252 0.100100
1143.4341 0.200200
1144.3600 0.200200
1144.4197 0.100100
1144.8702 0.200200
1145.3595 0.100100
1152.3358 0.200200
1152.8468 0.100100
1153.3496 0.100100
1155.3616 0.100100
1155.8490 0.100100
1156.3574 0.100100
1156.8497 0.100100
1158.8188 0.100100
1159.3127 0.100100
1159.8251 0.500501
1160.3210 0.500501
1160.8331 0.300300
1161.3407 0.200200
1161.8213 0.100100
1163.3303 0.100100
1170.8186 0.100100
1171.3176 0.200200
1171.8168 0.100100
1509.4821 1.801802
1509.9742 0.400400
1510.4844 2.702703
1510.9950 1.701702
1511.3362 0.100100
1511.4980 11.911912
1511.6528 0.100100
1512.0024 1.801802
1512.5034 7.407407
1513.0005 0.600601
1513.5065 2.602603
1513.9882 0.100100
1514.0360 0.100100
1514.5099 0.800801
1515.0215 0.100100
1515.4386 0.100100
1515.5077 0.200200
1521.4702 0.100100
1521.9856 0.200200
1522.4969 0.500501
1522.9919 0.500501
1523.4880 0.400400
1523.9924 0.200200
1524.4930 0.100100
1524.9767 0.100100
1530.4760 0.200200
1530.9724 0.100100
1531.4622 0.200200
1531.9855 0.100100
1532.4694 0.100100
1533.4830 0.300300
1533.9659 0.100100
1534.0269 0.100100
1534.4734 0.200200
1535.4510 0.100100
1535.4954 0.100100
1535.9374 0.100100
1536.4338 0.100100
1536.4812 0.100100
1536.9363 0.100100
1537.4447 0.200200
1537.9526 0.300300
1538.4650 0.300300
1538.9570 0.200200
1539.4622 0.200200
1539.9535 0.100100
1548.4501 0.100100
1548.9092 0.100100
1548.9614 0.100100
1762.5809 0.100100
1762.9044 0.200200
1763.2401 0.400400
1763.5863 0.300300
1763.9113 0.200200
1764.2571 0.400400
1764.5798 0.300300
1764.9150 0.400400
1765.2418 0.100100
1770.5035 0.100100
1770.5770 0.100100
1770.9181 0.100100
1771.2271 0.100100
1771.5775 0.100100
1771.9071 0.100100
1772.2312 0.100100
1781.5825 0.100100
1781.8782 0.100100
1782.2397 0.100100
1887.6031 0.100100
1888.1226 0.100100
1888.6019 0.500501
1889.1143 0.200200
1889.6145 0.700701
1890.1180 0.600601
1890.6263 0.500501
1891.1254 0.400400
1891.6367 0.200200
1892.1429 0.100100
1900.6045 0.100100
1901.1230 0.200200
1901.6494 0.100100


Name: Sinapoyl malate
Synon: $:00in-source
DB#: MetaboBASE1067
InChIKey: DUDGAPSRYCQPBG-UFFNRZRYSA-N
Spectrum_type: MS2
PrecursorMZ: 223.0506
Instrument_type: LC-ESI-TOF
Instrument: impact HD
Ion_mode: N
Collision_energy: 20.7684
Formula: C15H16O9
MW: 340
ExactMass: 340.079432092
Comments: "SMILES=COc1cc(cc(c1O)OC)/C=C/C(=O)O[C@@H](CC(=O)O)C(=O)O" "InChI=InChI=1S/C15H16O9/c1-22-9-5-8(6-10(23-2)14(9)19)3-4-13(18)24-11(15(20)21)7-12(16)17/h3-6,11,19H,7H2,1-2H3,(H,16,17)(H,20,21)/b4-3+/t11-/m0/s1" "computed SMILES=O=C(OC(C(=O)O)CC(=O)O)C=CC1=CC(OC)=C(O)C(OC)=C1" "license=License CC-BY-NC-SA 4.0 International" "author=Plant Biology, The Noble Foundation, Ardmore, OK, US/Dennis Fine, Daniel Wherritt, and Lloyd Sumner" "ionization=ESI" "collision energy 2=34.6141" "peak width=0.016" "date=2013-12-09 22:32:55+01:00" "column=Waters Acquity BEH C18 1.7um x 2.1 x 150 mm" "retention time=296.4" "raw data file=C:\Data\AtW_4_1p13_9Dec_13msms.d" "SPLASH=splash10-0002-0900000000-11a7aadc9e1c4ca8caba" "submitter=Aiko Barsch (Bruker)" "MoNA Rating=3.125"
Num Peaks: 54
103.0228 0.200200
104.0311 1.201201
105.0374 0.300300
108.0256 0.100100
109.0342 0.300300
117.0396 2.602603
118.0442 0.200200
118.0476 0.100100
119.0199 0.100100
119.0552 1.901902
121.0349 42.042042
122.0384 2.702703
123.0404 0.200200
132.0275 2.502503
133.0315 0.200200
134.0435 0.500501
135.0513 2.502503
136.0231 0.100100
136.0536 0.100100
137.0298 0.200200
145.0354 0.100100
146.0422 0.100100
147.0516 4.904905
148.0231 0.400400
148.0555 0.400400
149.0311 100.000000
150.0345 7.807808
151.0377 0.900901
152.0177 1.701702
153.0236 0.100100
162.0375 0.100100
163.0472 3.403403
164.0552 24.924925
165.0267 1.601602
165.0589 2.102102
166.0311 0.100100
166.0618 0.200200
167.0415 0.400400
169.0576 0.700701
170.0622 0.100100
177.0627 0.100100
178.0339 0.200200
179.0423 0.100100
179.0802 0.500501
180.0504 0.100100
193.0228 12.212212
194.0253 1.001001
195.0303 0.100100
207.0394 0.100100
208.0468 5.405405
209.0502 0.500501
210.0506 0.100100
223.0706 0.800801
224.0741 0.100100


Name: Sinapoyl malate
Synon: $:00in-source
DB#: MetaboBASE1068
InChIKey: DUDGAPSRYCQPBG-UFFNRZRYSA-N
Instrument_type: LC-ESI-TOF
Instrument: impact HD
Ion_mode: N
Formula: C15H16O9
MW: 340
ExactMass: 340.079432092
Comments: "SMILES=COc1cc(cc(c1O)OC)/C=C/C(=O)O[C@@H](CC(=O)O)C(=O)O" "InChI=InChI=1S/C15H16O9/c1-22-9-5-8(6-10(23-2)14(9)19)3-4-13(18)24-11(15(20)21)7-12(16)17/h3-6,11,19H,7H2,1-2H3,(H,16,17)(H,20,21)/b4-3+/t11-/m0/s1" "computed SMILES=O=C(OC(C(=O)O)CC(=O)O)C=CC1=CC(OC)=C(O)C(OC)=C1" "license=License CC-BY-NC-SA 4.0 International" "author=Plant Biology, The Noble Foundation, Ardmore, OK, US/Dennis Fine, Daniel Wherritt, and Lloyd Sumner" "ionization=ESI" "peak width=0.016" "date=2013-12-09 22:32:55+01:00" "column=Waters Acquity BEH C18 1.7um x 2.1 x 150 mm" "retention time=296.4" "raw data file=C:\Data\AtW_4_1p13_9Dec_13msms.d" "SPLASH=splash10-00di-0291002000-1309715bbd9ed0fc0e5b" "submitter=Aiko Barsch (Bruker)" "MoNA Rating=3.888888888888889"
Num Peaks: 114
115.0087 2.502503
116.0121 0.100100
121.0347 0.700701
122.0381 0.100100
133.0200 1.301301
134.0232 0.100100
134.0425 0.100100
135.0506 0.200200
147.0515 0.900901
148.0552 0.100100
149.0310 3.303303
150.0345 0.300300
151.0448 0.100100
152.0187 0.100100
163.0472 0.400400
164.0552 11.111111
165.0252 0.100100
165.0586 1.101101
166.0604 0.100100
178.0715 0.100100
179.0794 2.102102
180.0821 0.200200
193.0229 0.500501
193.0598 0.100100
194.0260 0.100100
206.1031 0.100100
207.0389 0.400400
208.0468 3.003003
209.0498 0.300300
222.0631 0.700701
223.0446 0.100100
223.0715 100.000000
224.0745 11.011011
225.0501 0.300300
225.0764 1.401401
226.0789 0.100100
239.0663 0.100100
323.0538 0.100100
338.0787 0.300300
339.0871 9.609610
340.0904 1.501502
341.0932 0.200200
342.1230 0.100100
357.1497 0.300300
358.1533 0.100100
401.1416 0.800801
402.1444 0.100100
427.1225 2.002002
428.1257 0.400400
429.1285 0.100100
439.0165 0.600601
440.0199 0.200200
445.1346 0.300300
446.1382 0.100100
517.1585 1.101101
518.1620 0.200200
519.1616 0.100100
561.1505 0.800801
562.1537 0.200200
579.1619 0.100100
663.1476 0.100100
677.1671 20.220220
678.1708 6.706707
679.1806 7.607608
680.1843 2.002002
681.1888 0.400400
682.1823 0.100100
695.1783 0.700701
696.1821 0.200200
697.1766 0.100100
697.2270 0.100100
699.1491 0.100100
701.1652 0.400400
702.1713 0.100100
732.0968 0.100100
733.1013 0.100100
803.2027 0.100100
1017.2619 1.001001
1018.2654 0.400400
1019.2771 0.800801
1020.2816 0.300300
1021.2791 0.100100
1039.2383 0.100100
1041.2653 0.100100
1051.3783 0.100100
1052.3817 0.100100
1165.3800 0.600601
1166.3842 0.300300
1167.3865 0.100100
1219.4646 0.400400
1220.4713 0.200200
1221.4669 0.100100
1355.3457 0.200200
1356.3438 0.100100
1357.3564 0.300300
1358.3583 0.200200
1359.3643 0.200200
1360.3705 0.100100
1361.3733 0.100100
1529.4147 0.100100
1697.4503 0.200200
1697.9480 0.100100
1698.4590 0.200200
1698.9628 0.100100
1699.4666 0.300300
1699.9714 0.100100
1700.4543 0.100100
1701.4719 0.100100
1867.4957 0.100100
1868.5010 0.100100
1869.0065 0.200200
1869.5114 0.100100
1870.0118 0.100100
1870.5099 0.100100


Name: Sinapoyl malate-4'-methyl ester
Synon: $:00in-source
DB#: MetaboBASE1069
InChIKey: YAPSBOBZXRDEJO-SNAWJCMRSA-N
Spectrum_type: MS2
PrecursorMZ: 223.0493
Instrument_type: LC-ESI-TOF
Instrument: impact HD
Ion_mode: N
Collision_energy: 20.7683
Formula: C16H18O9
MW: 354
ExactMass: 354.095082156
Comments: "SMILES=c1c(c(c(cc1/C=C/C(=O)OC(CC(=O)OC)C(=O)O)OC)O)OC" "InChI=InChI=1S/C16H18O9/c1-22-10-6-9(7-11(23-2)15(10)19)4-5-13(17)25-12(16(20)21)8-14(18)24-3/h4-7,12,19H,8H2,1-3H3,(H,20,21)/b5-4+" "computed SMILES=O=C(OC(C(=O)O)CC(=O)OC)C=CC1=CC(OC)=C(O)C(OC)=C1" "license=License CC-BY-NC-SA 4.0 International" "author=Plant Biology, The Noble Foundation, Ardmore, OK, US/Dennis Fine, Daniel Wherritt, and Lloyd Sumner" "ionization=ESI" "collision energy 2=34.6138" "peak width=0.019" "date=2013-12-09 22:32:55+01:00" "column=Waters Acquity BEH C18 1.7um x 2.1 x 150 mm" "retention time=478.2" "raw data file=C:\Data\AtW_4_1p13_9Dec_13msms.d" "SPLASH=splash10-01vn-0900000000-1f9f04bf00074ede1082" "submitter=Aiko Barsch (Bruker)" "MoNA Rating=3.125"
Num Peaks: 42
101.0318 0.800801
109.0294 1.501502
113.0288 1.101101
119.0156 1.501502
121.0331 70.270270
122.0351 5.505506
123.0149 0.800801
134.0426 1.601602
135.0499 14.014014
136.0211 1.201201
136.0495 1.101101
137.0283 5.505506
147.0518 2.002002
148.0196 1.701702
149.0289 100.000000
150.0075 0.900901
150.0333 10.710711
150.0378 2.502503
151.0456 1.201201
152.0159 11.811812
152.0198 1.501502
163.0452 15.315315
163.0511 1.001001
164.0524 42.442442
165.0262 10.010010
165.0567 1.401401
165.0631 1.201201
166.0631 0.800801
167.0398 1.701702
169.0546 6.406406
179.0792 1.201201
192.4839 1.001001
193.0204 75.475475
194.0255 9.709710
208.0440 29.129129
209.0465 0.900901
223.0690 3.203203
225.0707 0.800801
789.4370 0.900901
1070.5721 0.900901
1618.2705 0.900901
1928.9740 1.401401


Name: Sinapoyl malate-4'-methyl ester
Synon: $:00in-source
DB#: MetaboBASE1070
InChIKey: YAPSBOBZXRDEJO-SNAWJCMRSA-N
Spectrum_type: MS2
PrecursorMZ: 427.0817
Instrument_type: LC-ESI-TOF
Instrument: impact HD
Ion_mode: N
Collision_energy: 30.3328
Formula: C16H18O9
MW: 354
ExactMass: 354.095082156
Comments: "SMILES=c1c(c(c(cc1/C=C/C(=O)OC(CC(=O)OC)C(=O)O)OC)O)OC" "InChI=InChI=1S/C16H18O9/c1-22-10-6-9(7-11(23-2)15(10)19)4-5-13(17)25-12(16(20)21)8-14(18)24-3/h4-7,12,19H,8H2,1-3H3,(H,20,21)/b5-4+" "computed SMILES=O=C(OC(C(=O)O)CC(=O)OC)C=CC1=CC(OC)=C(O)C(OC)=C1" "license=License CC-BY-NC-SA 4.0 International" "author=Plant Biology, The Noble Foundation, Ardmore, OK, US/Dennis Fine, Daniel Wherritt, and Lloyd Sumner" "ionization=ESI" "collision energy 2=50.5546" "peak width=0.0079" "date=2013-12-09 22:32:55+01:00" "column=Waters Acquity BEH C18 1.7um x 2.1 x 150 mm" "retention time=478.2" "raw data file=C:\Data\AtW_4_1p13_9Dec_13msms.d" "SPLASH=splash10-00mp-0098100000-25328be2dccfed0f7160" "submitter=Aiko Barsch (Bruker)" "MoNA Rating=3.125"
Num Peaks: 38
215.0110 8.008008
215.0197 8.008008
227.0374 7.307307
239.0403 18.418418
243.0031 100.000000
243.0362 10.310310
245.0124 9.409409
251.0440 23.023023
252.0375 6.606607
254.0638 15.815816
267.0228 13.613614
267.0396 52.052052
269.0464 8.708709
279.0446 9.709710
281.0561 17.817818
282.0680 20.720721
310.0536 21.121121
323.0357 17.817818
325.0838 86.286286
340.0995 9.909910
341.0700 7.507508
341.1146 10.810811
353.0816 10.810811
355.1280 17.817818
356.1398 12.512513
369.0722 24.424424
396.0787 8.408408
397.0699 72.472472
398.0785 8.008008
411.0774 8.508509
412.0922 28.028028
412.1065 8.208208
413.0909 6.806807
427.1204 12.912913
473.9984 7.807808
839.2493 8.008008
1913.5465 7.107107
1916.4020 8.708709


Name: Sinapoyl malate-4'-methyl ester
Synon: $:00in-source
DB#: MetaboBASE1071
InChIKey: YAPSBOBZXRDEJO-SNAWJCMRSA-N
Precursor_type: [M-H]-
Spectrum_type: MS2
PrecursorMZ: 353.0701
Instrument_type: LC-ESI-TOF
Instrument: impact HD
Ion_mode: N
Collision_energy: 26.8632
Formula: C16H18O9
MW: 354
ExactMass: 354.095082156
Comments: "SMILES=c1c(c(c(cc1/C=C/C(=O)OC(CC(=O)OC)C(=O)O)OC)O)OC" "InChI=InChI=1S/C16H18O9/c1-22-10-6-9(7-11(23-2)15(10)19)4-5-13(17)25-12(16(20)21)8-14(18)24-3/h4-7,12,19H,8H2,1-3H3,(H,20,21)/b5-4+" "computed SMILES=O=C(OC(C(=O)O)CC(=O)OC)C=CC1=CC(OC)=C(O)C(OC)=C1" "license=License CC-BY-NC-SA 4.0 International" "author=Plant Biology, The Noble Foundation, Ardmore, OK, US/Dennis Fine, Daniel Wherritt, and Lloyd Sumner" "ionization=ESI" "isolation width=5.21447" "collision energy 2=44.7721" "peak width=0.015" "date=2013-12-09 22:32:55+01:00" "column=Waters Acquity BEH C18 1.7um x 2.1 x 150 mm" "retention time=478.2" "raw data file=C:\Data\AtW_4_1p13_9Dec_13msms.d" "computed mass accuracy=50.14912336098206" "computed mass error=-0.01770615599997427" "SPLASH=splash10-004i-0910000000-78bf76a0baafe6999aa1" "submitter=Aiko Barsch (Bruker)" "MoNA Rating=4.545454545454546"
Num Peaks: 10
129.0234 100.000000
130.0885 7.907908
147.0357 6.006006
149.0261 10.710711
164.0537 8.908909
179.0755 5.305305
190.0330 14.114114
205.0598 17.617618
223.0722 7.207207
272.2830 4.804805


Name: Sinapoyl malate-4'-methyl ester
Synon: $:00in-source
DB#: MetaboBASE1072
InChIKey: YAPSBOBZXRDEJO-SNAWJCMRSA-N
Spectrum_type: MS2
PrecursorMZ: 705.1319
Instrument_type: LC-ESI-TOF
Instrument: impact HD
Ion_mode: N
Collision_energy: 43.3667
Formula: C16H18O9
MW: 354
ExactMass: 354.095082156
Comments: "SMILES=c1c(c(c(cc1/C=C/C(=O)OC(CC(=O)OC)C(=O)O)OC)O)OC" "InChI=InChI=1S/C16H18O9/c1-22-10-6-9(7-11(23-2)15(10)19)4-5-13(17)25-12(16(20)21)8-14(18)24-3/h4-7,12,19H,8H2,1-3H3,(H,20,21)/b5-4+" "computed SMILES=O=C(OC(C(=O)O)CC(=O)OC)C=CC1=CC(OC)=C(O)C(OC)=C1" "license=License CC-BY-NC-SA 4.0 International" "author=Plant Biology, The Noble Foundation, Ardmore, OK, US/Dennis Fine, Daniel Wherritt, and Lloyd Sumner" "ionization=ESI" "collision energy 2=72.2779" "peak width=0.016" "date=2013-12-09 22:32:55+01:00" "column=Waters Acquity BEH C18 1.7um x 2.1 x 150 mm" "retention time=478.2" "raw data file=C:\Data\AtW_4_1p13_9Dec_13msms.d" "SPLASH=splash10-004i-0259700000-b2bb3206d1b8f53677cd" "submitter=Aiko Barsch (Bruker)" "MoNA Rating=3.125"
Num Peaks: 250
121.0317 0.700701
124.0242 0.200200
125.0276 0.300300
128.1124 0.300300
129.0233 21.921922
130.0257 1.401401
139.0406 0.200200
147.0350 11.811812
148.0390 0.400400
149.0273 1.501502
151.0107 0.600601
153.0613 1.001001
161.0280 0.300300
163.0459 0.200200
164.0521 1.701702
166.0331 0.700701
170.1034 0.200200
174.0338 0.300300
175.0089 0.500501
175.0465 0.200200
176.0511 0.700701
177.0307 0.300300
179.0804 0.600601
181.0571 1.001001
187.0102 0.400400
188.0162 0.300300
188.0509 0.500501
188.0570 0.700701
189.0578 0.300300
189.0636 2.002002
190.0323 2.602603
190.0418 0.500501
191.0753 0.300300
203.0815 0.500501
205.0582 5.205205
208.0463 0.700701
215.0106 0.300300
216.0090 0.300300
219.0556 0.200200
223.0682 10.210210
224.0677 0.900901
225.0587 0.300300
226.0748 0.300300
227.0407 0.300300
228.0027 0.400400
228.0174 0.800801
229.0183 0.700701
229.0339 0.300300
229.0633 0.400400
232.0438 0.200200
234.0645 0.600601
235.0451 0.400400
235.0797 0.300300
237.0887 0.300300
239.0399 1.201201
240.0480 0.400400
241.0219 0.500501
243.0015 29.129129
243.0372 3.903904
243.0694 0.400400
244.0046 5.605606
244.0376 0.400400
244.1483 0.300300
245.0161 0.300300
245.0530 0.400400
245.6861 0.200200
251.0394 1.001001
252.0456 0.400400
254.0632 0.900901
255.0333 0.300300
256.0079 0.200200
256.0494 0.300300
257.0183 0.500501
257.0556 0.400400
258.0249 17.417417
259.0250 0.600601
259.0319 3.903904
263.1022 0.500501
264.0440 0.200200
265.0588 0.600601
267.0386 5.305305
268.0392 0.500501
270.0665 0.200200
271.0803 0.200200
272.0789 1.401401
273.0491 1.801802
273.0853 0.300300
275.0539 0.300300
276.1064 0.200200
278.0681 0.200200
279.0402 0.500501
280.0512 0.200200
281.0288 0.300300
281.0552 1.101101
282.0623 3.403403
283.0346 0.400400
283.0688 0.300300
284.0262 0.200200
284.0534 0.300300
284.8791 0.200200
286.0606 0.400400
287.0578 0.200200
287.1049 3.303303
288.0768 0.500501
288.0990 0.600601
289.0657 0.300300
290.1983 0.200200
293.0577 0.800801
294.0634 0.500501
295.0332 1.701702
295.0418 0.500501
296.0364 0.500501
296.0760 0.300300
297.0457 0.300300
297.0871 3.303303
298.0526 0.400400
298.0853 0.300300
299.1010 0.400400
300.0623 0.200200
301.0457 0.600601
301.0804 0.200200
303.0887 1.401401
305.0497 0.500501
307.0352 0.300300
308.1972 0.400400
310.0597 3.603604
311.0685 1.101101
311.1034 0.300300
312.0757 1.101101
312.0856 0.300300
313.0802 0.500501
314.0500 0.400400
315.0942 0.200200
316.0721 0.400400
319.0634 0.300300
321.0531 0.700701
321.0936 0.200200
322.0173 0.300300
322.0631 0.400400
323.0301 1.601602
323.0722 0.600601
324.0694 0.400400
324.1121 0.200200
324.9835 0.400400
325.0396 0.300300
325.0820 45.645646
325.1086 0.200200
326.0490 0.300300
326.0852 10.110110
327.0967 3.503504
327.8228 0.200200
328.0954 0.500501
329.0791 1.201201
331.1002 0.300300
331.8609 0.300300
334.0178 0.200200
337.0477 0.700701
337.0845 0.700701
338.0528 2.802803
338.0947 0.400400
339.0263 0.500501
339.0916 0.300300
340.0664 0.200200
340.1069 14.314314
341.0800 4.704705
341.1121 4.504505
342.0742 1.201201
342.1203 2.002002
343.0703 0.400400
343.0883 1.601602
343.1000 0.300300
347.0805 0.400400
347.1055 0.300300
350.0226 0.600601
351.0782 0.300300
352.0744 0.600601
352.1083 0.500501
352.1877 1.101101
353.0498 0.300300
353.0747 1.701702
353.0853 1.601602
353.0950 2.402402
354.0504 0.800801
354.0847 0.300300
355.1299 7.307307
356.1327 0.700701
357.0642 0.500501
357.1457 1.801802
358.1498 0.300300
359.0838 0.400400
365.0408 1.201201
366.0547 0.500501
366.0896 0.500501
367.0166 0.200200
367.0304 0.500501
367.0430 0.500501
367.0584 0.300300
367.0931 0.300300
368.1063 1.501502
369.0726 9.309309
370.0651 0.300300
370.0775 2.502503
375.0811 0.600601
379.0519 0.700701
379.1061 0.200200
380.0641 0.900901
381.0367 1.801802
381.0714 0.300300
381.1144 0.500501
382.0405 1.101101
383.0687 0.200200
383.0960 0.300300
383.1207 0.300300
395.0922 0.800801
396.0627 3.503504
396.0956 1.001001
397.0693 26.326326
398.0732 6.406406
398.1222 0.200200
399.0802 0.700701
411.0875 5.405405
411.1306 0.200200
412.0938 23.923924
412.4715 0.200200
413.0946 5.905906
413.5479 0.200200
414.0942 0.300300
421.1154 0.200200
422.1107 0.700701
423.1106 0.200200
426.1074 1.201201
427.1188 100.000000
428.0451 0.300300
428.1216 22.422422
429.0774 0.300300
429.1223 3.803804
430.1151 0.300300
430.5982 0.200200
439.1156 1.201201
440.1140 0.500501
454.1404 1.001001
454.1569 0.300300
469.1645 1.301301
482.4667 0.200200
483.1154 0.300300
513.1411 0.200200
513.1566 0.400400
630.2689 0.300300
1682.8257 0.300300
1744.6516 0.200200


Name: Sinapoyl malate-4'-methyl ester
Synon: $:00in-source
DB#: MetaboBASE1073
InChIKey: YAPSBOBZXRDEJO-SNAWJCMRSA-N
Instrument_type: LC-ESI-TOF
Instrument: impact HD
Ion_mode: N
Formula: C16H18O9
MW: 354
ExactMass: 354.095082156
Comments: "SMILES=c1c(c(c(cc1/C=C/C(=O)OC(CC(=O)OC)C(=O)O)OC)O)OC" "InChI=InChI=1S/C16H18O9/c1-22-10-6-9(7-11(23-2)15(10)19)4-5-13(17)25-12(16(20)21)8-14(18)24-3/h4-7,12,19H,8H2,1-3H3,(H,20,21)/b5-4+" "computed SMILES=O=C(OC(C(=O)O)CC(=O)OC)C=CC1=CC(OC)=C(O)C(OC)=C1" "license=License CC-BY-NC-SA 4.0 International" "author=Plant Biology, The Noble Foundation, Ardmore, OK, US/Dennis Fine, Daniel Wherritt, and Lloyd Sumner" "ionization=ESI" "peak width=0.017" "date=2013-12-09 22:32:55+01:00" "column=Waters Acquity BEH C18 1.7um x 2.1 x 150 mm" "retention time=478.2" "raw data file=C:\Data\AtW_4_1p13_9Dec_13msms.d" "SPLASH=splash10-0pk9-0596510700-7d799947791512daf6fc" "submitter=Aiko Barsch (Bruker)" "MoNA Rating=3.888888888888889"
Num Peaks: 249
100.9380 0.200200
101.0279 1.201201
113.0275 0.700701
121.0335 2.302302
129.0234 21.021021
130.0266 1.301301
135.0494 0.800801
147.0135 0.100100
147.0348 21.121121
148.0213 0.100100
148.0376 1.101101
149.0293 6.906907
149.0497 0.500501
152.0161 1.601602
161.0509 1.601602
163.0092 0.100100
163.0458 2.202202
164.0531 11.611612
165.0256 1.101101
165.0563 1.101101
175.0098 0.600601
179.0433 0.100100
179.0772 5.105105
179.1135 0.200200
180.0467 0.100100
180.0802 0.600601
190.0337 5.605606
190.1387 0.100100
191.0373 0.600601
193.0203 7.307307
193.0561 0.300300
194.0238 0.600601
205.0573 19.219219
206.0606 2.402402
207.0371 0.600601
207.0638 0.200200
208.0445 20.920921
209.0486 2.802803
221.0734 4.804805
221.1246 0.100100
222.0740 0.400400
222.7407 0.100100
223.0339 0.100100
223.0686 100.000000
223.1129 0.100100
224.0716 11.611612
225.0455 0.100100
225.0732 1.501502
225.1195 0.100100
308.1971 2.502503
309.1043 0.200200
309.2000 0.500501
334.1796 0.700701
352.0988 0.100100
352.1886 29.829830
353.0338 0.500501
353.0999 63.963964
353.1918 5.405405
354.1024 9.709710
354.1914 0.900901
355.1037 1.901902
355.1989 0.100100
363.2152 0.700701
374.1705 0.600601
375.0833 3.303303
375.1740 0.300300
376.0874 0.600601
405.1153 0.100100
405.2266 1.801802
411.0665 0.100100
411.0886 0.100100
411.2161 1.101101
412.2147 0.400400
427.0429 0.100100
427.1180 58.358358
427.1776 0.200200
427.2079 0.300300
428.0779 0.100100
428.1215 11.711712
429.1239 2.002002
429.1899 0.100100
429.2341 0.100100
443.0662 0.400400
445.1278 1.301301
445.1803 0.100100
447.1415 1.101101
452.0241 0.400400
452.1197 0.700701
453.0279 10.410410
453.1072 0.200200
453.1275 0.100100
454.0305 3.003003
455.0305 0.700701
455.1367 0.100100
455.2070 3.403403
456.2095 0.700701
483.0577 0.700701
493.0183 0.200200
493.1330 0.100100
493.2098 0.700701
505.0289 0.100100
505.1125 0.600601
505.2878 0.100100
513.0626 0.100100
513.1594 2.702703
513.2617 0.100100
514.1650 0.800801
515.0693 0.100100
515.0952 0.200200
515.1716 0.200200
515.1927 0.400400
516.0349 0.200200
519.1669 0.400400
543.1897 0.800801
544.0311 1.001001
544.1902 0.200200
544.2043 0.200200
545.0402 0.100100
555.1361 1.201201
556.1340 0.100100
557.0196 0.400400
557.1487 8.108108
557.2062 0.300300
557.2341 0.100100
558.0238 0.100100
558.1522 2.202202
559.1557 0.600601
559.2170 0.100100
563.1558 0.500501
575.1609 7.607608
575.3250 0.100100
576.1317 2.602603
576.1614 2.302302
577.1261 0.200200
577.1673 0.800801
577.3436 0.200200
578.1374 0.100100
597.1469 0.400400
603.1784 2.902903
604.1835 1.001001
605.1827 0.500501
705.1915 65.965966
706.1957 21.421421
706.2941 0.600601
707.2025 8.508509
707.2892 0.300300
707.7219 0.100100
708.2045 2.602603
709.2139 0.100100
713.1361 0.100100
713.1595 0.100100
713.2125 1.601602
714.2253 0.100100
723.2015 0.500501
727.1735 3.003003
728.1763 1.401401
728.2677 0.200200
728.2962 0.100100
729.1894 20.020020
730.1938 6.106106
730.2581 0.100100
731.1958 1.601602
732.2091 0.100100
759.2200 0.100100
759.2541 0.200200
759.2826 0.700701
791.1578 0.900901
791.2697 0.100100
792.1583 0.200200
805.1208 0.500501
805.2698 0.100100
806.1351 0.100100
809.1261 0.200200
809.2167 0.100100
809.2383 0.100100
809.3130 6.706707
809.4022 0.100100
810.2592 0.100100
810.3143 2.902903
811.3161 0.600601
831.2211 0.100100
831.2972 2.302302
832.2158 0.100100
832.2953 0.800801
833.2961 0.100100
852.1309 0.800801
853.1442 0.200200
911.2034 0.100100
911.2751 0.100100
911.4232 1.101101
912.3987 0.100100
912.4260 0.400400
947.2466 0.500501
948.2551 0.100100
974.1391 2.002002
974.3088 0.100100
975.1426 0.400400
975.2965 0.100100
1059.2977 0.800801
1059.3593 0.200200
1059.4181 0.100100
1060.2609 0.100100
1060.3109 0.600601
1061.3218 0.600601
1061.4231 0.100100
1062.2836 0.100100
1062.3263 0.200200
1081.2837 1.301301
1081.3564 0.100100
1081.8054 0.100100
1082.2535 0.300300
1082.2864 0.600601
1083.1707 0.100100
1083.2891 2.002002
1084.2767 0.300300
1084.3096 0.800801
1084.4081 0.100100
1085.3086 0.200200
1099.2588 0.800801
1100.2510 0.200200
1103.2440 0.400400
1103.2836 0.500501
1103.3783 0.100100
1103.4205 0.100100
1104.2618 0.200200
1105.2776 1.201201
1105.4186 0.100100
1106.2859 0.300300
1161.2291 0.300300
1161.2897 0.200200
1161.3363 0.200200
1161.3894 0.800801
1161.7214 0.100100
1161.8053 0.100100
1161.8467 0.100100
1162.2485 0.100100
1162.3055 0.100100
1162.3969 0.600601
1163.3302 0.200200
1163.3772 0.200200
1163.4108 0.100100
1185.4087 0.600601
1186.3955 0.100100
1216.3358 0.400400
1217.3376 0.200200
1468.3275 0.600601
1468.9695 0.100100
1469.2811 0.200200
1469.3396 0.400400


Name: Sinapoyl malate-1'-methyl ester
Synon: $:00in-source
DB#: MetaboBASE1074
InChIKey: UBQMBIFYXNOHMG-SNAWJCMRSA-N
Precursor_type: [M-H]-
Spectrum_type: MS2
PrecursorMZ: 353.077
Instrument_type: LC-ESI-TOF
Instrument: impact HD
Ion_mode: N
Collision_energy: 26.8638
Formula: C16H18O9
MW: 354
ExactMass: 354.095082156
Comments: "SMILES=c1c(c(c(cc1/C=C/C(=O)OC(CC(=O)O)C(=O)OC)OC)O)OC" "InChI=InChI=1S/C16H18O9/c1-22-10-6-9(7-11(23-2)15(10)20)4-5-14(19)25-12(8-13(17)18)16(21)24-3/h4-7,12,20H,8H2,1-3H3,(H,17,18)/b5-4+" "computed SMILES=O=C(OC(C(=O)OC)CC(=O)O)C=CC1=CC(OC)=C(O)C(OC)=C1" "license=License CC-BY-NC-SA 4.0 International" "author=Plant Biology, The Noble Foundation, Ardmore, OK, US/Dennis Fine, Daniel Wherritt, and Lloyd Sumner" "ionization=ESI" "collision energy 2=44.7731" "peak width=0.019" "date=2013-12-09 22:32:55+01:00" "column=Waters Acquity BEH C18 1.7um x 2.1 x 150 mm" "retention time=498" "raw data file=C:\Data\AtW_4_1p13_9Dec_13msms.d" "computed mass accuracy=30.60566392033752" "computed mass error=-0.01080615600000101" "SPLASH=splash10-0a4m-0940000000-f207538af1c4d5332657" "submitter=Aiko Barsch (Bruker)" "MoNA Rating=4.545454545454546"
Num Peaks: 87
115.0065 2.202202
117.0370 0.800801
119.0176 9.109109
119.0566 0.800801
120.0084 0.800801
120.0182 0.700701
121.0328 9.809810
122.0323 0.500501
128.0365 0.400400
129.0211 2.802803
132.0269 1.301301
133.0313 0.600601
146.0487 0.500501
146.7300 0.600601
147.0131 4.904905
147.0347 19.819820
147.0498 3.103103
148.0368 0.900901
149.0288 36.036036
149.0328 2.002002
150.0318 3.703704
161.0315 0.500501
162.0406 0.700701
164.0530 48.748749
165.0219 0.800801
165.0557 3.603604
165.8829 0.500501
175.0084 31.831832
176.0112 4.904905
178.0228 0.400400
178.0329 0.400400
179.0455 0.400400
179.0764 6.806807
189.0206 1.201201
189.0610 0.500501
190.0327 94.894895
190.0692 0.400400
191.0367 9.309309
193.0594 0.800801
195.0944 0.400400
203.0421 0.500501
205.0574 100.000000
205.7722 0.500501
206.0597 9.909910
207.0620 1.101101
208.0412 0.700701
217.0479 0.600601
218.0620 0.700701
223.0686 16.916917
223.0866 0.800801
224.0730 1.801802
233.0699 0.600601
234.0733 1.201201
235.0813 2.302302
240.0805 0.400400
250.0604 0.400400
250.0683 0.700701
251.0792 9.109109
251.0871 0.500501
252.0773 0.800801
261.0640 1.101101
261.0751 0.300300
263.0769 1.001001
263.0865 0.600601
279.0377 0.500501
279.0782 5.305305
280.0776 0.900901
282.0992 0.500501
286.8671 0.300300
295.0667 2.002002
307.0792 0.500501
309.7861 0.400400
310.0908 0.600601
310.1024 1.201201
322.0857 0.400400
322.0975 1.201201
323.0638 6.806807
324.0700 0.900901
325.0689 0.500501
338.0836 0.600601
338.0946 0.600601
354.1270 0.500501
400.6309 0.800801
673.5674 0.500501
740.2032 0.400400
938.7583 0.400400
1914.6165 0.500501


Name: Sinapoyl malate-1'-methyl ester
Synon: $:00in-source
DB#: MetaboBASE1075
InChIKey: UBQMBIFYXNOHMG-SNAWJCMRSA-N
Instrument_type: LC-ESI-TOF
Instrument: impact HD
Ion_mode: N
Formula: C16H18O9
MW: 354
ExactMass: 354.095082156
Comments: "SMILES=c1c(c(c(cc1/C=C/C(=O)OC(CC(=O)O)C(=O)OC)OC)O)OC" "InChI=InChI=1S/C16H18O9/c1-22-10-6-9(7-11(23-2)15(10)20)4-5-14(19)25-12(8-13(17)18)16(21)24-3/h4-7,12,20H,8H2,1-3H3,(H,17,18)/b5-4+" "computed SMILES=O=C(OC(C(=O)OC)CC(=O)O)C=CC1=CC(OC)=C(O)C(OC)=C1" "license=License CC-BY-NC-SA 4.0 International" "author=Plant Biology, The Noble Foundation, Ardmore, OK, US/Dennis Fine, Daniel Wherritt, and Lloyd Sumner" "ionization=ESI" "peak width=0.015" "date=2013-12-09 22:32:55+01:00" "column=Waters Acquity BEH C18 1.7um x 2.1 x 150 mm" "retention time=498" "raw data file=C:\Data\AtW_4_1p13_9Dec_13msms.d" "SPLASH=splash10-0udi-0129400300-eb7e2448899b8f3226cb" "submitter=Aiko Barsch (Bruker)" "MoNA Rating=3.888888888888889"
Num Peaks: 250
101.0280 0.200200
113.0278 1.001001
115.0072 1.301301
119.0174 0.200200
121.0334 0.800801
133.0192 0.600601
147.0133 0.200200
147.0348 4.104104
148.0382 0.300300
149.0295 3.303303
149.0492 0.200200
150.0314 0.600601
161.0503 2.102102
164.0533 9.209209
165.0559 0.800801
175.0092 0.400400
179.0767 1.201201
190.0334 6.806807
191.0371 0.900901
193.0568 0.200200
205.0574 18.218218
206.0605 2.402402
221.0722 1.501502
223.0681 27.127127
224.0708 3.103103
225.0744 0.400400
249.0852 0.400400
321.0717 2.702703
322.0746 0.300300
323.0809 0.300300
325.0808 0.200200
341.1141 25.325325
342.1168 4.904905
343.0548 0.100100
343.1193 0.200200
351.1919 1.301301
353.0999 100.000000
354.1036 19.019019
355.1042 3.103103
356.1049 0.400400
369.0937 0.200200
369.1053 0.100100
369.2043 0.600601
371.1257 23.723724
372.1282 4.504505
373.1310 0.400400
376.0848 0.200200
391.2077 0.500501
401.1369 1.301301
402.1388 0.400400
411.2162 13.113113
412.2191 2.202202
413.1286 0.100100
413.1982 0.200200
413.2231 0.500501
427.1176 17.417417
427.1745 0.200200
428.1209 3.703704
429.1237 0.800801
429.2273 0.200200
445.1245 0.300300
451.0313 0.300300
452.0220 0.300300
452.0339 0.200200
453.0285 12.312312
454.0301 2.102102
455.0299 0.600601
461.1654 0.400400
462.1611 0.300300
483.0619 0.600601
487.1410 29.129129
488.1436 7.407407
489.0776 0.300300
489.1462 1.101101
489.2102 0.200200
510.0063 0.100100
510.1197 0.200200
510.1408 0.200200
510.1665 0.100100
517.1525 0.400400
518.1547 0.400400
519.1552 0.700701
527.2303 0.500501
531.1695 0.100100
544.0352 1.001001
544.2373 0.200200
545.0356 0.200200
557.0280 0.200200
557.1392 0.200200
557.1555 0.200200
575.1576 0.400400
576.1592 0.100100
579.3511 0.200200
586.1970 0.200200
586.2715 0.200200
587.0731 1.601602
587.1794 0.500501
587.2263 0.500501
587.2651 2.802803
588.0750 0.800801
588.1864 0.400400
588.2739 1.001001
589.0494 0.500501
623.3461 0.400400
663.2150 2.202202
664.2165 0.900901
665.2233 0.300300
705.1909 37.237237
706.1941 11.711712
707.2044 10.710711
708.2083 2.702703
709.2098 0.600601
713.2115 0.300300
714.2221 0.200200
715.2441 0.200200
727.1741 1.601602
728.1772 0.600601
729.1893 8.208208
730.1926 2.102102
731.1927 0.600601
733.2153 0.800801
734.2222 0.200200
735.1975 0.200200
735.2193 0.500501
735.3568 0.300300
755.2039 0.200200
757.1738 0.200200
757.2393 0.200200
765.2995 0.100100
765.3281 0.500501
805.1082 0.300300
807.1345 0.400400
809.1367 0.200200
809.3139 1.201201
810.3168 0.400400
815.2390 1.001001
815.2663 0.400400
815.2879 0.200200
816.2545 0.700701
817.2368 0.200200
817.2693 0.200200
817.2994 0.200200
831.2237 0.300300
831.2891 0.600601
832.2391 0.300300
832.2960 0.100100
839.2279 0.400400
841.2501 0.800801
842.2487 0.400400
847.1668 0.300300
852.1288 0.300300
863.2314 1.901902
864.2324 1.201201
911.2006 0.200200
911.2382 0.300300
911.4136 2.202202
912.2209 0.200200
912.2570 0.300300
912.3715 0.200200
912.4267 1.301301
913.2015 0.200200
913.4297 0.300300
933.2206 0.200200
933.4090 0.100100
943.2139 0.200200
943.2724 0.200200
943.3292 0.200200
943.3556 2.302302
944.3629 2.002002
945.1896 0.200200
945.2589 0.400400
945.3214 0.100100
965.2704 0.100100
965.3312 0.200200
965.7759 0.100100
966.2548 0.100100
966.3333 0.100100
974.1424 0.500501
975.1426 1.301301
975.2690 1.301301
975.3942 0.300300
975.8127 0.100100
976.1702 0.500501
976.2823 0.700701
977.2849 0.300300
978.2546 0.100100
987.2851 0.100100
997.2721 0.300300
1017.3257 0.200200
1059.3010 0.600601
1060.3051 0.400400
1061.3153 1.001001
1062.3075 0.300300
1081.2806 0.100100
1083.2938 0.600601
1084.3033 0.200200
1099.2617 0.300300
1100.2594 0.300300
1105.2721 0.200200
1106.2869 0.100100
1115.2230 0.300300
1117.2462 0.200200
1119.2031 0.200200
1119.2369 0.400400
1119.3442 0.200200
1119.3804 0.100100
1119.4236 0.200200
1120.3049 0.200200
1151.2588 0.100100
1151.3427 0.400400
1151.3831 0.200200
1151.4229 0.300300
1152.3202 0.500501
1152.4109 0.100100
1153.3632 0.300300
1153.7939 0.100100
1153.8412 0.100100
1161.2289 0.400400
1161.3984 0.600601
1162.2261 0.100100
1162.4022 0.200200
1163.4287 0.200200
1183.3760 0.100100
1193.3375 1.501502
1194.3341 1.201201
1195.3409 0.600601
1389.2012 0.400400
1389.3719 3.003003
1389.4146 3.903904
1389.5828 0.500501
1389.7256 0.400400
1389.8389 0.500501
1389.9440 0.500501
1389.9886 0.300300
1390.3368 1.001001
1390.3845 1.601602
1390.4266 2.302302
1390.5952 0.600601
1391.2981 0.800801
1391.3889 1.201201
1391.5210 1.001001
1391.8479 0.500501
1391.9634 0.300300
1392.5049 0.200200
1468.3217 0.200200
1469.3407 0.200200
1743.4619 0.200200
1743.5226 0.300300
1744.4708 0.200200
1744.5155 0.200200


Name: Sinapoyl malate-1'-methyl ester
Synon: $:00in-source
DB#: MetaboBASE1076
InChIKey: UBQMBIFYXNOHMG-SNAWJCMRSA-N
Spectrum_type: MS2
PrecursorMZ: 705.1342
Instrument_type: LC-ESI-TOF
Instrument: impact HD
Ion_mode: N
Collision_energy: 43.3666
Formula: C16H18O9
MW: 354
ExactMass: 354.095082156
Comments: "SMILES=c1c(c(c(cc1/C=C/C(=O)OC(CC(=O)O)C(=O)OC)OC)O)OC" "InChI=InChI=1S/C16H18O9/c1-22-10-6-9(7-11(23-2)15(10)20)4-5-14(19)25-12(8-13(17)18)16(21)24-3/h4-7,12,20H,8H2,1-3H3,(H,17,18)/b5-4+" "computed SMILES=O=C(OC(C(=O)OC)CC(=O)O)C=CC1=CC(OC)=C(O)C(OC)=C1" "license=License CC-BY-NC-SA 4.0 International" "author=Plant Biology, The Noble Foundation, Ardmore, OK, US/Dennis Fine, Daniel Wherritt, and Lloyd Sumner" "ionization=ESI" "collision energy 2=72.2777" "peak width=0.019" "date=2013-12-09 22:32:55+01:00" "column=Waters Acquity BEH C18 1.7um x 2.1 x 150 mm" "retention time=498" "raw data file=C:\Data\AtW_4_1p13_9Dec_13msms.d" "SPLASH=splash10-056r-0495400000-bdc5500b7c69d8348774" "submitter=Aiko Barsch (Bruker)" "MoNA Rating=3.125"
Num Peaks: 250
103.0273 0.100100
106.0105 0.200200
115.0074 2.402402
119.0198 0.200200
121.0333 3.703704
124.0202 0.200200
125.0967 0.100100
129.0234 1.501502
132.0212 0.200200
132.0253 0.200200
138.0344 0.300300
138.0387 0.300300
139.0098 0.100100
139.0423 0.300300
139.0474 0.300300
145.0229 0.200200
145.0397 0.200200
147.0346 23.823824
148.0385 1.701702
149.0294 8.708709
150.0309 0.500501
152.0180 0.200200
153.0612 2.302302
161.0282 0.400400
163.0454 0.200200
164.0531 15.315315
165.0242 0.600601
165.0479 0.200200
165.0571 1.001001
166.0278 0.100100
166.0568 0.200200
173.0299 1.401401
174.0366 1.401401
175.0089 3.503504
175.0465 0.700701
176.0525 0.300300
176.2895 0.200200
177.0618 0.100100
179.0351 0.100100
179.0743 1.201201
179.0790 1.601602
180.0824 0.400400
181.0498 0.200200
187.0086 0.300300
187.0139 0.100100
187.0453 0.200200
188.0542 2.502503
189.0611 3.603604
190.0331 26.426426
190.0658 0.800801
191.0368 2.102102
192.0407 0.300300
193.0607 0.200200
203.0314 0.200200
203.0776 1.001001
205.0573 100.000000
205.0960 0.200200
206.0605 10.410410
207.0610 1.501502
208.0438 0.400400
211.3099 0.100100
214.9994 0.200200
215.0119 0.200200
217.0578 0.200200
218.0659 0.400400
223.0682 37.737738
224.0719 3.403403
225.3908 0.200200
226.0695 0.200200
228.0135 0.400400
228.0203 0.200200
229.0253 0.800801
232.0468 0.200200
233.0881 0.400400
234.0607 0.400400
235.0470 0.200200
239.0439 1.101101
240.0451 0.200200
241.0248 0.200200
242.9543 0.200200
243.0004 21.521522
243.0385 3.003003
244.0065 3.803804
244.0352 0.200200
245.0094 0.700701
248.0298 0.100100
248.8186 0.200200
249.0828 0.900901
250.0903 0.300300
251.0412 0.700701
252.0328 0.200200
252.0547 0.200200
253.0157 0.100100
254.0647 0.800801
255.0708 0.100100
256.0496 0.100100
257.0193 1.001001
258.0245 11.311311
259.0294 3.503504
260.0286 0.300300
261.0489 0.200200
262.0479 0.200200
262.0574 0.200200
263.0995 0.200200
264.0595 0.200200
265.0638 0.300300
266.0239 0.200200
266.0663 0.300300
267.0374 3.803804
268.0426 0.700701
269.0178 0.200200
269.0884 0.300300
271.1039 0.200200
273.0534 0.400400
275.0659 0.300300
276.0767 0.200200
277.0750 0.600601
279.0379 0.400400
281.0568 0.600601
282.0614 2.202202
283.0377 0.200200
283.0624 0.700701
284.1065 0.200200
287.1005 0.200200
291.0207 0.200200
292.0483 0.300300
293.0206 0.200200
293.0520 0.300300
294.0604 0.600601
295.0353 2.102102
295.0749 0.200200
296.0382 0.500501
296.0464 0.400400
297.0454 0.400400
297.0844 1.801802
298.0863 0.200200
306.0313 0.200200
307.0297 0.200200
307.0379 0.200200
309.0793 0.200200
309.0874 0.400400
310.0494 0.200200
310.0572 3.003003
310.0974 0.200200
311.0637 1.101101
311.1013 0.200200
312.0732 0.900901
313.0409 0.200200
321.0185 0.200200
321.0692 2.902903
322.0525 0.300300
322.0715 0.800801
323.0084 0.200200
323.0333 1.101101
323.0716 0.200200
324.0803 0.500501
325.0816 34.034034
325.1194 0.200200
326.0862 8.208208
327.0937 3.603604
328.0636 0.100100
328.0833 0.200200
328.1006 0.700701
329.0805 0.600601
333.0119 0.200200
333.0540 0.200200
335.0861 0.200200
336.0709 0.200200
338.0570 0.600601
339.0232 0.300300
339.0977 0.300300
340.1042 9.309309
341.0475 0.100100
341.0760 4.604605
341.1137 5.105105
342.0862 0.400400
342.1237 1.401401
343.0880 1.201201
343.1314 0.200200
344.0967 0.200200
345.0971 0.200200
347.0321 0.200200
348.0433 0.300300
349.0102 0.300300
351.0271 0.400400
351.0674 0.200200
352.0706 0.500501
352.1160 0.200200
353.0265 0.200200
353.0378 0.300300
353.0484 0.200200
353.0860 0.100100
353.0974 5.205205
354.0503 1.001001
354.1055 0.500501
355.0468 0.300300
355.0995 0.200200
355.1290 5.005005
356.1334 1.301301
357.0719 1.101101
357.1452 0.800801
364.0347 0.500501
365.0450 1.501502
366.0537 0.200200
367.0231 0.800801
367.0618 0.200200
367.0974 0.300300
368.0193 0.200200
368.1012 0.800801
369.0719 8.608609
370.0763 1.101101
379.0565 0.800801
380.0558 0.200200
381.0345 1.101101
381.0763 0.200200
382.0429 0.600601
382.0564 0.200200
383.0571 0.100100
383.0827 0.100100
383.1342 0.300300
384.0781 0.200200
395.0908 0.700701
395.1033 0.200200
396.0609 2.102102
396.0992 1.601602
397.0698 20.120120
398.0753 3.103103
399.0754 1.101101
400.0710 0.100100
409.1382 0.200200
411.0851 4.404404
412.0926 24.524525
412.1428 0.200200
413.0981 4.604605
414.0852 0.200200
414.1070 0.700701
425.1131 0.200200
426.1011 0.600601
426.1220 0.300300
426.1660 0.100100
427.0554 0.200200
427.1178 68.368368
427.1779 0.200200
428.0529 0.200200
428.1200 15.215215
429.1200 2.002002
429.1357 0.900901
430.1279 0.700701
430.5703 0.200200
601.3296 0.200200


Name: 1-Hydroxy-2-(9Z,12Z-octadecadienoyl)-sn-glycero-3-phosphoethanolamine
Synon: $:00in-source
DB#: MetaboBASE1077
InChIKey: SVRBKLJIDJHADS-USWSLJGRSA-M
Precursor_type: [M]-
Spectrum_type: MS2
PrecursorMZ: 476.277
Instrument_type: LC-ESI-TOF
Instrument: impact HD
Ion_mode: N
Collision_energy: 36.1656
Formula: [C23H43NO7P]-
MW: 476
ExactMass: 476.27826292590925
Comments: "SMILES=C(C(=O)O[C@H](CO)COP(=O)([O-])OCCN)CCCCCC/C=C\C/C=C\CCCCC" "InChI=InChI=1S/C23H44NO7P/c1-2-3-4-5-6-7-8-9-10-11-12-13-14-15-16-17-23(26)31-22(20-25)21-30-32(27,28)29-19-18-24/h6-7,9-10,22,25H,2-5,8,11-21,24H2,1H3,(H,27,28)/p-1/b7-6-,10-9-/t22-/m1/s1" "computed SMILES=O=C(OC(CO)COP(=O)([O-])OCCN)CCCCCCCC=CCC=CCCCCC" "synonym=2-Ammonioethyl (2R)-3-hydroxy-2-[(9Z,12Z)-octadecadienoyloxy]propyl phosphate" "license=License CC-BY-NC-SA 4.0 International" "author=Plant Biology, The Noble Foundation, Ardmore, OK, US/Dennis Fine, Daniel Wherritt, and Lloyd Sumner" "ionization=ESI" "isolation width=7.82208" "collision energy 2=60.2759" "peak width=0.03" "date=2014-11-20 07:21:14+01:00" "column=Waters Acquity BEH C18 1.7um x 2.1 x 150 mm" "retention time=1353.6" "raw data file=C:\Data\2014Nov12_A-17 aerial root MS MSMS\A-17 root better MSMS_1-A,3_01_1296.d" "computed mass accuracy=1.4998540761461767" "computed mass error=-7.143459998246726E-4" "SPLASH=splash10-004i-0090000000-1093bde59f8f73d36232" "submitter=Aiko Barsch (Bruker)" "MoNA Rating=3.9285714285714284"
Num Peaks: 2
279.230 100.000000
280.236 22.722723


Name: 1-Hydroxy-2-(9Z,12Z-octadecadienoyl)-sn-glycero-3-phosphoethanolamine
Synon: $:00in-source
DB#: MetaboBASE1078
InChIKey: SVRBKLJIDJHADS-USWSLJGRSA-M
Instrument_type: LC-ESI-TOF
Instrument: impact HD
Ion_mode: N
Collision_energy: 10
Formula: [C23H43NO7P]-
MW: 476
ExactMass: 476.2782629259093
Comments: "SMILES=C(C(=O)O[C@H](CO)COP(=O)([O-])OCCN)CCCCCC/C=C\C/C=C\CCCCC" "InChI=InChI=1S/C23H44NO7P/c1-2-3-4-5-6-7-8-9-10-11-12-13-14-15-16-17-23(26)31-22(20-25)21-30-32(27,28)29-19-18-24/h6-7,9-10,22,25H,2-5,8,11-21,24H2,1H3,(H,27,28)/p-1/b7-6-,10-9-/t22-/m1/s1" "computed SMILES=O=C(OC(CO)COP(=O)([O-])OCCN)CCCCCCCC=CCC=CCCCCC" "synonym=2-Ammonioethyl (2R)-3-hydroxy-2-[(9Z,12Z)-octadecadienoyloxy]propyl phosphate" "license=License CC-BY-NC-SA 4.0 International" "author=Plant Biology, The Noble Foundation, Ardmore, OK, US/Dennis Fine, Daniel Wherritt, and Lloyd Sumner" "ionization=ESI" "peak width=0.014" "date=2014-11-14 00:11:23+01:00" "column=Waters Acquity BEH C18 1.7um x 2.1 x 150 mm" "retention time=1353.6" "raw data file=C:\Data\2014Nov12_A-17 aerial root MS MSMS\A-17 root MS_1-A,3_01_1226.d" "SPLASH=splash10-004i-0000910001-46e30b916d396bd97174" "submitter=Aiko Barsch (Bruker)" "MoNA Rating=4.444444444444445"
Num Peaks: 31
116.9278 0.600601
128.0102 1.501502
279.2325 6.306306
280.2356 1.301301
295.2277 0.500501
476.2789 100.000000
477.2816 27.227227
478.2835 4.904905
479.2845 0.600601
544.2650 8.308308
545.2676 2.302302
556.0020 2.702703
576.2037 5.905906
577.2050 2.302302
578.2048 1.101101
599.3943 1.201201
606.2352 1.501502
612.2532 1.401401
616.1945 1.001001
627.2775 1.201201
674.2242 0.900901
680.2396 0.900901
953.5619 12.912913
954.5646 6.906907
955.5663 2.202202
975.5419 3.403403
976.5478 1.701702
1043.5298 0.600601
1430.8428 2.202202
1431.8439 1.701702
1452.8271 0.500501


Name: 1-Hydroxy-2-(9Z,12Z,15Z-octadecatrienoyl)-sn-glycero-3-phosphoethanolamine
Synon: $:00in-source
DB#: MetaboBASE1079
InChIKey: JGWWMNVPHKMUCV-WOBXFXBNSA-M
Precursor_type: [M]-
Spectrum_type: MS2
PrecursorMZ: 474.261
Instrument_type: LC-ESI-TOF
Instrument: impact HD
Ion_mode: N
Collision_energy: 36.0522
Formula: [C23H41NO7P]-
MW: 474
ExactMass: 474.2626128619093
Comments: "SMILES=C(C(=O)O[C@H](CO)COP(=O)([O-])OCCN)CCCCCC/C=C\C/C=C\C/C=C\CC" "InChI=InChI=1S/C23H42NO7P/c1-2-3-4-5-6-7-8-9-10-11-12-13-14-15-16-17-23(26)31-22(20-25)21-30-32(27,28)29-19-18-24/h3-4,6-7,9-10,22,25H,2,5,8,11-21,24H2,1H3,(H,27,28)/p-1/b4-3-,7-6-,10-9-/t22-/m1/s1" "computed SMILES=O=C(OC(CO)COP(=O)([O-])OCCN)CCCCCCCC=CCC=CCC=CCC" "license=License CC-BY-NC-SA 4.0 International" "author=Plant Biology, The Noble Foundation, Ardmore, OK, US/Dennis Fine, Daniel Wherritt, and Lloyd Sumner" "ionization=ESI" "isolation width=7.80695" "collision energy 2=60.0869" "peak width=0.027" "date=2014-11-20 07:21:14+01:00" "column=Waters Acquity BEH C18 1.7um x 2.1 x 150 mm" "retention time=1250.4" "raw data file=C:\Data\2014Nov12_A-17 aerial root MS MSMS\A-17 root better MSMS_1-A,3_01_1296.d" "computed mass accuracy=2.2440850077177057" "computed mass error=-0.0010642819998452069" "SPLASH=splash10-004i-0090000000-0cbbcb1bbcf4b053f6ab" "submitter=Aiko Barsch (Bruker)" "MoNA Rating=3.9285714285714284"
Num Peaks: 1
277.218 100.000000


Name: 1-Hydroxy-2-(9Z,12Z,15Z-octadecatrienoyl)-sn-glycero-3-phosphoethanolamine
Synon: $:00in-source
DB#: MetaboBASE1080
InChIKey: JGWWMNVPHKMUCV-WOBXFXBNSA-M
Instrument_type: LC-ESI-TOF
Instrument: impact HD
Ion_mode: N
Collision_energy: 10
Formula: [C23H41NO7P]-
MW: 474
ExactMass: 474.2626128619093
Comments: "SMILES=C(C(=O)O[C@H](CO)COP(=O)([O-])OCCN)CCCCCC/C=C\C/C=C\C/C=C\CC" "InChI=InChI=1S/C23H42NO7P/c1-2-3-4-5-6-7-8-9-10-11-12-13-14-15-16-17-23(26)31-22(20-25)21-30-32(27,28)29-19-18-24/h3-4,6-7,9-10,22,25H,2,5,8,11-21,24H2,1H3,(H,27,28)/p-1/b4-3-,7-6-,10-9-/t22-/m1/s1" "computed SMILES=O=C(OC(CO)COP(=O)([O-])OCCN)CCCCCCCC=CCC=CCC=CCC" "license=License CC-BY-NC-SA 4.0 International" "author=Plant Biology, The Noble Foundation, Ardmore, OK, US/Dennis Fine, Daniel Wherritt, and Lloyd Sumner" "ionization=ESI" "peak width=0.015" "date=2014-11-14 00:11:23+01:00" "column=Waters Acquity BEH C18 1.7um x 2.1 x 150 mm" "retention time=1250.4" "raw data file=C:\Data\2014Nov12_A-17 aerial root MS MSMS\A-17 root MS_1-A,3_01_1226.d" "SPLASH=splash10-00di-0000910001-478a1e8d518bf88b376a" "submitter=Aiko Barsch (Bruker)" "MoNA Rating=4.444444444444445"
Num Peaks: 29
112.9854 0.300300
116.9285 1.101101
128.0101 2.502503
174.9572 0.100100
277.2174 8.108108
278.2209 1.601602
283.0247 0.600601
293.2102 0.200200
474.2641 100.000000
475.2664 27.527528
476.2682 5.105105
477.2668 0.200200
542.2510 9.709710
543.2537 2.602603
556.0020 4.504505
574.1884 6.806807
575.1916 2.502503
576.1904 1.001001
604.2232 1.701702
610.2380 1.701702
614.1803 1.501502
625.2646 1.301301
672.2066 0.700701
949.5325 8.108108
950.5355 4.204204
951.5382 1.501502
971.5147 2.502503
972.5109 1.101101
1424.7955 0.800801


Name: 1-Hydroxy-2-(9Z,12Z,15Z-octadecatrienoyl)-sn-glycero-2-phosphocholine
Synon: $:00in-source
DB#: MetaboBASE1081
InChIKey: LSUXCWJOIAWGOU-FTJOPAKQSA-N
Precursor_type: [M+FA-H]-
Spectrum_type: MS2
PrecursorMZ: 564.328
Instrument_type: LC-ESI-TOF
Instrument: impact HD
Ion_mode: N
Collision_energy: 39.9123
Formula: C26H50NO7P
MW: 519
ExactMass: 519.3324895699999
Comments: "SMILES=C(C(=O)O[C@H](CO)COP(=O)([O-])OCC[N+](C)(C)C)CCCCCC/C=C\C/C=C\CCCCC" "InChI=InChI=1S/C26H50NO7P/c1-5-6-7-8-9-10-11-12-13-14-15-16-17-18-19-20-26(29)34-25(23-28)24-33-35(30,31)32-22-21-27(2,3)4/h9-10,12-13,25,28H,5-8,11,14-24H2,1-4H3/b10-9-,13-12-/t25-/m1/s1" "computed SMILES=O=C(OC(CO)COP(=O)([O-])OCC[N+](C)(C)C)CCCCCCCC=CCC=CCCCCC" "license=License CC-BY-NC-SA 4.0 International" "author=Plant Biology, The Noble Foundation, Ardmore, OK, US/Dennis Fine, Daniel Wherritt, and Lloyd Sumner" "ionization=ESI" "isolation width=8.25731" "collision energy 2=66.5205" "peak width=0.029" "date=2014-11-20 07:21:14+01:00" "column=Waters Acquity BEH C18 1.7um x 2.1 x 150 mm" "retention time=1361.4" "raw data file=C:\Data\2014Nov12_A-17 aerial root MS MSMS\A-17 root better MSMS_1-A,3_01_1296.d" "computed mass accuracy=4.7677414551703095" "computed mass error=-0.0026905699999133503" "SPLASH=splash10-004i-0090000000-bb288f49fe64b216ee4d" "submitter=Aiko Barsch (Bruker)" "MoNA Rating=3.9285714285714284"
Num Peaks: 2
279.230 100.000000
280.233 16.616617


Name: 1-Hydroxy-2-(9Z,12Z,15Z-octadecatrienoyl)-sn-glycero-2-phosphocholine
Synon: $:00in-source
DB#: MetaboBASE1082
InChIKey: LSUXCWJOIAWGOU-FTJOPAKQSA-N
Instrument_type: LC-ESI-TOF
Instrument: impact HD
Ion_mode: N
Collision_energy: 10
Formula: C26H50NO7P
MW: 519
ExactMass: 519.33248957
Comments: "SMILES=C(C(=O)O[C@H](CO)COP(=O)([O-])OCC[N+](C)(C)C)CCCCCC/C=C\C/C=C\CCCCC" "InChI=InChI=1S/C26H50NO7P/c1-5-6-7-8-9-10-11-12-13-14-15-16-17-18-19-20-26(29)34-25(23-28)24-33-35(30,31)32-22-21-27(2,3)4/h9-10,12-13,25,28H,5-8,11,14-24H2,1-4H3/b10-9-,13-12-/t25-/m1/s1" "computed SMILES=O=C(OC(CO)COP(=O)([O-])OCC[N+](C)(C)C)CCCCCCCC=CCC=CCCCCC" "license=License CC-BY-NC-SA 4.0 International" "author=Plant Biology, The Noble Foundation, Ardmore, OK, US/Dennis Fine, Daniel Wherritt, and Lloyd Sumner" "ionization=ESI" "peak width=0.015" "date=2014-11-14 00:11:23+01:00" "column=Waters Acquity BEH C18 1.7um x 2.1 x 150 mm" "retention time=1361.4" "raw data file=C:\Data\2014Nov12_A-17 aerial root MS MSMS\A-17 root MS_1-A,3_01_1226.d" "SPLASH=splash10-03di-1000090000-1fa64b0ee3298cf3c20f" "submitter=Aiko Barsch (Bruker)" "MoNA Rating=4.444444444444445"
Num Peaks: 46
112.9849 1.601602
116.9283 0.800801
128.0096 1.901902
174.9563 0.900901
195.9974 0.100100
242.9438 0.400400
248.9603 0.300300
255.1210 0.500501
277.2162 0.100100
438.2614 0.200200
476.2774 0.900901
504.3097 29.529530
505.3123 8.708709
506.3157 1.601602
513.3019 0.100100
554.3001 1.301301
556.0020 3.103103
559.3104 0.500501
564.3317 100.000000
565.3342 32.532533
566.3354 6.906907
567.3387 1.001001
608.3562 0.800801
632.3183 3.403403
633.3202 1.201201
636.2607 6.006006
637.2630 2.502503
638.2678 0.400400
647.3425 4.004004
648.3459 1.401401
700.3068 1.101101
704.2478 0.300300
706.4641 1.501502
707.4658 0.100100
715.3257 0.100100
1083.6598 16.416416
1084.6621 10.010010
1085.6661 3.603604
1086.6642 0.900901
1151.6469 2.802803
1152.6515 1.701702
1155.5892 1.701702
1156.5945 1.001001
1166.6718 1.101101
1167.6625 0.300300
1219.6313 0.800801


Name: 1-(9Z,12Z-Octadecadienoyl-2-hydroxy-sn-glycero-3-phosphocholine
Synon: $:00in-source
DB#: MetaboBASE1083
InChIKey: SPJFYYJXNPEZDW-FTJOPAKQSA-N
Instrument_type: LC-ESI-TOF
Instrument: impact HD
Ion_mode: N
Collision_energy: 10
Formula: C26H50NO7P
MW: 519
ExactMass: 519.33248957
Comments: "SMILES=C([C@H](COP(=O)([O-])OCC[N+](C)(C)C)O)OC(=O)CCCCCCC/C=C\C/C=C\CCCCC" "InChI=InChI=1S/C26H50NO7P/c1-5-6-7-8-9-10-11-12-13-14-15-16-17-18-19-20-26(29)32-23-25(28)24-34-35(30,31)33-22-21-27(2,3)4/h9-10,12-13,25,28H,5-8,11,14-24H2,1-4H3/b10-9-,13-12-/t25-/m1/s1" "computed SMILES=O=C(OCC(O)COP(=O)([O-])OCC[N+](C)(C)C)CCCCCCCC=CCC=CCCCCC" "synonym=(2R)-2-Hydroxy-2-[(9Z,12Z)-octadecadienoyloxy]propyl 2-(trimethylammonio)ethyl phosphate" "license=License CC-BY-NC-SA 4.0 International" "author=Plant Biology, The Noble Foundation, Ardmore, OK, US/Dennis Fine, Daniel Wherritt, and Lloyd Sumner" "ionization=ESI" "peak width=0.016" "date=2014-11-14 00:11:23+01:00" "column=Waters Acquity BEH C18 1.7um x 2.1 x 150 mm" "retention time=1397.4" "raw data file=C:\Data\2014Nov12_A-17 aerial root MS MSMS\A-17 root MS_1-A,3_01_1226.d" "SPLASH=splash10-03di-0000091000-d346bee62e20eab20439" "submitter=Aiko Barsch (Bruker)" "MoNA Rating=4.444444444444445"
Num Peaks: 27
112.9853 2.502503
116.9282 2.102102
128.0101 5.905906
174.9564 2.102102
195.9967 0.200200
242.9427 0.600601
248.9646 0.500501
255.1201 0.900901
279.0090 0.500501
476.2772 0.300300
504.3101 33.733734
505.3134 10.110110
506.3156 1.401401
554.3021 1.101101
564.3322 100.000000
565.3345 32.732733
566.3380 7.007007
632.3191 4.104104
633.3217 0.600601
636.2626 6.806807
637.2654 3.003003
647.3436 5.405405
648.3485 0.800801
700.3010 0.400400
1083.6605 7.307307
1084.6682 4.504505
1151.6543 0.400400


Name: 1-(9Z,12Z-Octadecadienoyl-2-hydroxy-sn-glycero-3-phosphocholine
Synon: $:00in-source
DB#: MetaboBASE1084
InChIKey: SPJFYYJXNPEZDW-FTJOPAKQSA-N
Precursor_type: [M+FA-H]-
Spectrum_type: MS2
PrecursorMZ: 564.329
Instrument_type: LC-ESI-TOF
Instrument: impact HD
Ion_mode: N
Collision_energy: 39.9124
Formula: C26H50NO7P
MW: 519
ExactMass: 519.33248957
Comments: "SMILES=C([C@H](COP(=O)([O-])OCC[N+](C)(C)C)O)OC(=O)CCCCCCC/C=C\C/C=C\CCCCC" "InChI=InChI=1S/C26H50NO7P/c1-5-6-7-8-9-10-11-12-13-14-15-16-17-18-19-20-26(29)32-23-25(28)24-34-35(30,31)33-22-21-27(2,3)4/h9-10,12-13,25,28H,5-8,11,14-24H2,1-4H3/b10-9-,13-12-/t25-/m1/s1" "computed SMILES=O=C(OCC(O)COP(=O)([O-])OCC[N+](C)(C)C)CCCCCCCC=CCC=CCCCCC" "synonym=(2R)-2-Hydroxy-2-[(9Z,12Z)-octadecadienoyloxy]propyl 2-(trimethylammonio)ethyl phosphate" "license=License CC-BY-NC-SA 4.0 International" "author=Plant Biology, The Noble Foundation, Ardmore, OK, US/Dennis Fine, Daniel Wherritt, and Lloyd Sumner" "ionization=ESI" "isolation width=8.25732" "collision energy 2=66.5206" "peak width=0.029" "date=2014-11-20 07:21:14+01:00" "column=Waters Acquity BEH C18 1.7um x 2.1 x 150 mm" "retention time=1397.4" "raw data file=C:\Data\2014Nov12_A-17 aerial root MS MSMS\A-17 root better MSMS_1-A,3_01_1296.d" "computed mass accuracy=2.995717037491754" "computed mass error=-0.001690570000050684" "SPLASH=splash10-004i-0090000000-8c971887718e8742c3de" "submitter=Aiko Barsch (Bruker)" "MoNA Rating=4.583333333333334"
Num Peaks: 5
224.069 12.412412
242.080 2.502503
279.234 100.000000
280.237 17.117117
504.312 3.503504


Name: 1-(9Z,12Z-Octadecadienoyl)-2-hydroxy-sn-glycero-3-phosphoethanolamine
Synon: $:00in-source
DB#: MetaboBASE1085
InChIKey: DBHKHNGBVGWQJE-USWSLJGRSA-M
Precursor_type: [M]-
Spectrum_type: MS2
PrecursorMZ: 476.277
Instrument_type: LC-ESI-TOF
Instrument: impact HD
Ion_mode: N
Collision_energy: 36.1656
Formula: [C23H43NO7P]-
MW: 476
ExactMass: 476.27826292590925
Comments: "SMILES=C([C@H](COP(=O)([O-])OCCN)O)OC(=O)CCCCCCC/C=C\C/C=C\CCCCC" "InChI=InChI=1S/C23H44NO7P/c1-2-3-4-5-6-7-8-9-10-11-12-13-14-15-16-17-23(26)29-20-22(25)21-31-32(27,28)30-19-18-24/h6-7,9-10,22,25H,2-5,8,11-21,24H2,1H3,(H,27,28)/p-1/b7-6-,10-9-/t22-/m1/s1" "computed SMILES=O=C(OCC(O)COP(=O)([O-])OCCN)CCCCCCCC=CCC=CCCCCC" "license=License CC-BY-NC-SA 4.0 International" "author=Plant Biology, The Noble Foundation, Ardmore, OK, US/Dennis Fine, Daniel Wherritt, and Lloyd Sumner" "ionization=ESI" "isolation width=7.82208" "collision energy 2=60.276" "peak width=0.029" "date=2014-11-20 07:21:14+01:00" "column=Waters Acquity BEH C18 1.7um x 2.1 x 150 mm" "retention time=1389.6" "raw data file=C:\Data\2014Nov12_A-17 aerial root MS MSMS\A-17 root better MSMS_1-A,3_01_1296.d" "computed mass accuracy=1.4998540761461767" "computed mass error=-7.143459998246726E-4" "SPLASH=splash10-004i-0090000000-dfd6d89a9c0498ca5510" "submitter=Aiko Barsch (Bruker)" "MoNA Rating=4.583333333333334"
Num Peaks: 3
196.037 6.506507
279.232 100.000000
280.235 20.620621


Name: 1-(9Z,12Z-Octadecadienoyl)-2-hydroxy-sn-glycero-3-phosphoethanolamine
Synon: $:00in-source
DB#: MetaboBASE1086
InChIKey: DBHKHNGBVGWQJE-USWSLJGRSA-M
Instrument_type: LC-ESI-TOF
Instrument: impact HD
Ion_mode: N
Collision_energy: 10
Formula: [C23H43NO7P]-
MW: 476
ExactMass: 476.2782629259093
Comments: "SMILES=C([C@H](COP(=O)([O-])OCCN)O)OC(=O)CCCCCCC/C=C\C/C=C\CCCCC" "InChI=InChI=1S/C23H44NO7P/c1-2-3-4-5-6-7-8-9-10-11-12-13-14-15-16-17-23(26)29-20-22(25)21-31-32(27,28)30-19-18-24/h6-7,9-10,22,25H,2-5,8,11-21,24H2,1H3,(H,27,28)/p-1/b7-6-,10-9-/t22-/m1/s1" "computed SMILES=O=C(OCC(O)COP(=O)([O-])OCCN)CCCCCCCC=CCC=CCCCCC" "license=License CC-BY-NC-SA 4.0 International" "author=Plant Biology, The Noble Foundation, Ardmore, OK, US/Dennis Fine, Daniel Wherritt, and Lloyd Sumner" "ionization=ESI" "peak width=0.015" "date=2014-11-14 00:11:23+01:00" "column=Waters Acquity BEH C18 1.7um x 2.1 x 150 mm" "retention time=1389.6" "raw data file=C:\Data\2014Nov12_A-17 aerial root MS MSMS\A-17 root MS_1-A,3_01_1226.d" "SPLASH=splash10-004i-0000910000-67e51d7bd823caa177b8" "submitter=Aiko Barsch (Bruker)" "MoNA Rating=4.444444444444445"
Num Peaks: 34
112.9857 0.100100
116.9279 1.501502
128.0100 3.903904
174.9576 0.100100
255.1192 0.100100
279.2330 1.901902
304.9104 0.100100
464.2778 1.801802
473.3267 0.300300
476.2788 100.000000
477.2814 26.326326
478.2834 4.904905
479.2867 0.200200
544.2649 10.010010
545.2687 2.802803
547.1023 1.401401
548.1062 0.400400
556.0020 5.505506
559.3124 0.200200
560.2306 0.100100
576.2028 5.905906
577.2039 2.302302
578.2026 0.400400
606.2328 0.800801
612.2526 2.002002
616.1967 0.700701
627.2782 1.701702
628.2201 0.600601
680.2376 0.200200
953.5622 5.905906
954.5641 3.403403
955.5629 0.500501
975.5442 1.401401
976.5459 0.400400


Name: 1-Hydroxy-2-(9Z,12Z,15Z-octadecatrienoyl)-sn-glycero-3-phosphocholine
Synon: $:00in-source
DB#: MetaboBASE1087
InChIKey: WVUARHUSWJUGTE-YVHLTTHBSA-N
Precursor_type: [M+FA-H]-
Spectrum_type: MS2
PrecursorMZ: 562.313
Instrument_type: LC-ESI-TOF
Instrument: impact HD
Ion_mode: N
Collision_energy: 39.8367
Formula: C26H48NO7P
MW: 517
ExactMass: 517.316839506
Comments: "SMILES=C(C(=O)O[C@H](CO)COP(=O)([O-])OCC[N+](C)(C)C)CCCCCC/C=C\C/C=C\C/C=C\CC" "InChI=InChI=1S/C26H48NO7P/c1-5-6-7-8-9-10-11-12-13-14-15-16-17-18-19-20-26(29)34-25(23-28)24-33-35(30,31)32-22-21-27(2,3)4/h6-7,9-10,12-13,25,28H,5,8,11,14-24H2,1-4H3/b7-6-,10-9-,13-12-/t25-/m1/s1" "computed SMILES=O=C(OC(CO)COP(=O)([O-])OCC[N+](C)(C)C)CCCCCCCC=CCC=CCC=CCC" "license=License CC-BY-NC-SA 4.0 International" "author=Plant Biology, The Noble Foundation, Ardmore, OK, US/Dennis Fine, Daniel Wherritt, and Lloyd Sumner" "ionization=ESI" "isolation width=8.24925" "collision energy 2=66.3945" "peak width=0.028" "date=2014-11-20 07:21:14+01:00" "column=Waters Acquity BEH C18 1.7um x 2.1 x 150 mm" "retention time=1257.6" "raw data file=C:\Data\2014Nov12_A-17 aerial root MS MSMS\A-17 root better MSMS_1-A,3_01_1296.d" "computed mass accuracy=3.6287725874335672" "computed mass error=-0.0020405059999575315" "SPLASH=splash10-004i-0090000000-fdc14228a86fc5dc5315" "submitter=Aiko Barsch (Bruker)" "MoNA Rating=3.9285714285714284"
Num Peaks: 2
277.217 100.000000
278.221 22.022022


Name: 1-Hydroxy-2-(9Z,12Z,15Z-octadecatrienoyl)-sn-glycero-3-phosphocholine
Synon: $:00in-source
DB#: MetaboBASE1088
InChIKey: WVUARHUSWJUGTE-YVHLTTHBSA-N
Instrument_type: LC-ESI-TOF
Instrument: impact HD
Ion_mode: N
Collision_energy: 10
Formula: C26H48NO7P
MW: 517
ExactMass: 517.316839506
Comments: "SMILES=C(C(=O)O[C@H](CO)COP(=O)([O-])OCC[N+](C)(C)C)CCCCCC/C=C\C/C=C\C/C=C\CC" "InChI=InChI=1S/C26H48NO7P/c1-5-6-7-8-9-10-11-12-13-14-15-16-17-18-19-20-26(29)34-25(23-28)24-33-35(30,31)32-22-21-27(2,3)4/h6-7,9-10,12-13,25,28H,5,8,11,14-24H2,1-4H3/b7-6-,10-9-,13-12-/t25-/m1/s1" "computed SMILES=O=C(OC(CO)COP(=O)([O-])OCC[N+](C)(C)C)CCCCCCCC=CCC=CCC=CCC" "license=License CC-BY-NC-SA 4.0 International" "author=Plant Biology, The Noble Foundation, Ardmore, OK, US/Dennis Fine, Daniel Wherritt, and Lloyd Sumner" "ionization=ESI" "peak width=0.015" "date=2014-11-14 00:11:23+01:00" "column=Waters Acquity BEH C18 1.7um x 2.1 x 150 mm" "retention time=1257.6" "raw data file=C:\Data\2014Nov12_A-17 aerial root MS MSMS\A-17 root MS_1-A,3_01_1226.d" "SPLASH=splash10-03di-1000090000-03ac3d04d0200073efef" "submitter=Aiko Barsch (Bruker)" "MoNA Rating=4.444444444444445"
Num Peaks: 41
112.9852 1.701702
116.9285 1.101101
128.0099 2.602603
174.9566 1.201201
180.9736 0.100100
195.9985 0.300300
242.9440 0.300300
248.9598 0.100100
255.1217 0.500501
474.2613 0.100100
502.2950 34.334334
503.2975 9.709710
504.3003 1.801802
552.2870 1.301301
556.0020 4.304304
557.0075 0.200200
562.3174 100.000000
563.3199 31.731732
564.3220 6.706707
565.3231 1.201201
606.3371 0.100100
630.3038 3.703704
631.3061 0.500501
634.2469 6.806807
635.2495 2.702703
636.2465 0.600601
645.3278 3.903904
646.3327 0.800801
666.0269 0.100100
698.2897 1.401401
702.2318 0.500501
704.4531 1.801802
705.4547 0.200200
766.2789 0.200200
1079.6313 12.312312
1080.6353 7.207207
1081.6333 2.702703
1147.6198 2.502503
1148.6217 1.601602
1151.5618 1.401401
1152.5662 0.400400


Name: 1-(9Z,12Z,15Z-Octadecatrienoyl)-2-hydroxy-sn-glycero-3-phosphocholine
Synon: $:00in-source
DB#: MetaboBASE1089
InChIKey: WKQNRCYKYCKESD-YVHLTTHBSA-N
Instrument_type: LC-ESI-TOF
Instrument: impact HD
Ion_mode: N
Collision_energy: 10
Formula: C26H48NO7P
MW: 517
ExactMass: 517.3168395060001
Comments: "SMILES=C([C@H](COP(=O)([O-])OCC[N+](C)(C)C)O)OC(=O)CCCCCCC/C=C\C/C=C\C/C=C\CC" "InChI=InChI=1S/C26H48NO7P/c1-5-6-7-8-9-10-11-12-13-14-15-16-17-18-19-20-26(29)32-23-25(28)24-34-35(30,31)33-22-21-27(2,3)4/h6-7,9-10,12-13,25,28H,5,8,11,14-24H2,1-4H3/b7-6-,10-9-,13-12-/t25-/m1/s1" "computed SMILES=O=C(OCC(O)COP(=O)([O-])OCC[N+](C)(C)C)CCCCCCCC=CCC=CCC=CCC" "license=License CC-BY-NC-SA 4.0 International" "author=Plant Biology, The Noble Foundation, Ardmore, OK, US/Dennis Fine, Daniel Wherritt, and Lloyd Sumner" "ionization=ESI" "peak width=0.017" "date=2014-11-14 00:11:23+01:00" "column=Waters Acquity BEH C18 1.7um x 2.1 x 150 mm" "retention time=1293.6" "raw data file=C:\Data\2014Nov12_A-17 aerial root MS MSMS\A-17 root MS_1-A,3_01_1226.d" "SPLASH=splash10-03di-0000090000-99e8ab7d59cac6770aed" "submitter=Aiko Barsch (Bruker)" "MoNA Rating=4.444444444444445"
Num Peaks: 22
112.9847 3.103103
116.9283 3.103103
128.0098 7.107107
174.9562 2.702703
242.9455 0.400400
255.1206 1.101101
304.9139 0.500501
371.2423 0.600601
502.2929 39.639640
503.2967 10.910911
504.2956 0.600601
556.0020 11.011011
557.0002 0.400400
562.3149 100.000000
563.3176 31.531532
564.3208 6.506507
630.3014 3.503504
634.2451 6.806807
635.2460 3.303303
645.3267 4.404404
1079.6301 5.105105
1080.6284 3.303303


Name: 1-(9Z,12Z,15Z-Octadecatrienoyl)-2-hydroxy-sn-glycero-3-phosphocholine
Synon: $:00in-source
DB#: MetaboBASE1090
InChIKey: WKQNRCYKYCKESD-YVHLTTHBSA-N
Precursor_type: [M+FA-H]-
Spectrum_type: MS2
PrecursorMZ: 562.313
Instrument_type: LC-ESI-TOF
Instrument: impact HD
Ion_mode: N
Collision_energy: 39.8368
Formula: C26H48NO7P
MW: 517
ExactMass: 517.316839506
Comments: "SMILES=C([C@H](COP(=O)([O-])OCC[N+](C)(C)C)O)OC(=O)CCCCCCC/C=C\C/C=C\C/C=C\CC" "InChI=InChI=1S/C26H48NO7P/c1-5-6-7-8-9-10-11-12-13-14-15-16-17-18-19-20-26(29)32-23-25(28)24-34-35(30,31)33-22-21-27(2,3)4/h6-7,9-10,12-13,25,28H,5,8,11,14-24H2,1-4H3/b7-6-,10-9-,13-12-/t25-/m1/s1" "computed SMILES=O=C(OCC(O)COP(=O)([O-])OCC[N+](C)(C)C)CCCCCCCC=CCC=CCC=CCC" "license=License CC-BY-NC-SA 4.0 International" "author=Plant Biology, The Noble Foundation, Ardmore, OK, US/Dennis Fine, Daniel Wherritt, and Lloyd Sumner" "ionization=ESI" "isolation width=8.24925" "collision energy 2=66.3946" "peak width=0.029" "date=2014-11-20 07:21:14+01:00" "column=Waters Acquity BEH C18 1.7um x 2.1 x 150 mm" "retention time=1293.6" "raw data file=C:\Data\2014Nov12_A-17 aerial root MS MSMS\A-17 root better MSMS_1-A,3_01_1296.d" "computed mass accuracy=3.6287725874335672" "computed mass error=-0.0020405059999575315" "SPLASH=splash10-004i-0090000000-6c2fd8e07783eabb272a" "submitter=Aiko Barsch (Bruker)" "MoNA Rating=4.583333333333334"
Num Peaks: 3
224.068 9.609610
277.216 100.000000
278.220 22.522523


Name: 9Z,12Z-Linoleic acid
Synon: $:00in-source
DB#: MetaboBASE1091
InChIKey: OYHQOLUKZRVURQ-HZJYTTRNSA-N
Instrument_type: LC-ESI-TOF
Instrument: impact HD
Ion_mode: N
Collision_energy: 10
Formula: C18H32O2
MW: 280
ExactMass: 280.240230264
Comments: "SMILES=OC(=O)CCCCCCC/C=C\C/C=C\CCCCC" "InChI=InChI=1S/C18H32O2/c1-2-3-4-5-6-7-8-9-10-11-12-13-14-15-16-17-18(19)20/h6-7,9-10H,2-5,8,11-17H2,1H3,(H,19,20)/b7-6-,10-9-" "computed SMILES=O=C(O)CCCCCCCC=CCC=CCCCCC" "license=License CC-BY-NC-SA 4.0 International" "author=Plant Biology, The Noble Foundation, Ardmore, OK, US/Dennis Fine, Daniel Wherritt, and Lloyd Sumner" "ionization=ESI" "peak width=0.013" "date=2014-11-25 22:28:26+01:00" "column=Waters Acquity BEH C18 1.7um x 2.1 x 150 mm" "retention time=1791.6" "raw data file=C:\Data\Confirmed standards 25_Nov_2014\9Z,12Z-Linoleic acid vial 399_1-A,2_01_1327.d" "SPLASH=splash10-004i-0090010000-f8df6099e003402f2566" "submitter=Aiko Barsch (Bruker)" "MoNA Rating=4.444444444444445"
Num Peaks: 14
279.2336 100.000000
280.2364 22.222222
281.2389 2.602603
347.2191 2.702703
379.1575 5.405405
380.1594 1.801802
430.2316 1.001001
556.0020 6.606607
557.0048 0.800801
581.4550 9.509510
582.4578 3.803804
583.4618 0.900901
643.4250 0.700701
649.4408 0.900901


Name: 9Z,12Z-Linoleic acid
Synon: $:00in-source
DB#: MetaboBASE1092
InChIKey: OYHQOLUKZRVURQ-HZJYTTRNSA-N
Instrument_type: LC-ESI-TOF
Instrument: impact HD
Ion_mode: N
Formula: C18H32O2
MW: 280
ExactMass: 280.240230264
Comments: "SMILES=OC(=O)CCCCCCC/C=C\C/C=C\CCCCC" "InChI=InChI=1S/C18H32O2/c1-2-3-4-5-6-7-8-9-10-11-12-13-14-15-16-17-18(19)20/h6-7,9-10H,2-5,8,11-17H2,1H3,(H,19,20)/b7-6-,10-9-" "computed SMILES=O=C(O)CCCCCCCC=CCC=CCCCCC" "license=License CC-BY-NC-SA 4.0 International" "author=Plant Biology, The Noble Foundation, Ardmore, OK, US/Dennis Fine, Daniel Wherritt, and Lloyd Sumner" "ionization=ESI" "peak width=0.017" "date=2014-11-25 23:09:26+01:00" "column=Waters Acquity BEH C18 1.7um x 2.1 x 150 mm" "retention time=1791.6" "raw data file=C:\Data\Confirmed standards 25_Nov_2014\9Z,12Z-Linoleic acid v399 MSMS_1-A,2_01_1328.d" "SPLASH=splash10-004i-0091021000-0e44779958d5744d873b" "submitter=Aiko Barsch (Bruker)" "MoNA Rating=3.888888888888889"
Num Peaks: 33
116.9283 1.801802
128.0099 3.603604
248.9719 1.301301
279.0091 3.903904
279.2334 100.000000
280.2361 17.417417
281.2388 2.002002
285.9664 1.901902
347.2197 6.706707
347.9377 1.501502
348.2226 1.501502
353.9542 1.301301
379.1577 4.704705
380.1595 1.601602
409.1897 1.701702
415.9248 1.601602
430.0084 1.401401
430.2303 2.102102
556.0020 29.729730
557.0045 3.803804
581.4540 5.505506
582.4579 2.502503
643.4223 1.301301
649.4401 1.901902
655.9904 1.501502
666.0197 11.411411
667.0231 1.901902
683.0099 1.401401
732.4522 1.201201
737.9509 1.301301
749.0306 1.101101
877.6557 1.201201
883.6742 1.401401


Name: 9Z,12Z-Linoleic acid
Synon: $:00in-source
DB#: MetaboBASE1093
InChIKey: OYHQOLUKZRVURQ-HZJYTTRNSA-N
Precursor_type: [M-H]-
Spectrum_type: MS2
PrecursorMZ: 279.233
Instrument_type: LC-ESI-TOF
Instrument: impact HD
Ion_mode: N
Collision_energy: 10
Formula: C18H32O2
MW: 280
ExactMass: 280.240230264
Comments: "SMILES=OC(=O)CCCCCCC/C=C\C/C=C\CCCCC" "InChI=InChI=1S/C18H32O2/c1-2-3-4-5-6-7-8-9-10-11-12-13-14-15-16-17-18(19)20/h6-7,9-10H,2-5,8,11-17H2,1H3,(H,19,20)/b7-6-,10-9-" "computed SMILES=O=C(O)CCCCCCCC=CCC=CCCCCC" "license=License CC-BY-NC-SA 4.0 International" "author=Plant Biology, The Noble Foundation, Ardmore, OK, US/Dennis Fine, Daniel Wherritt, and Lloyd Sumner" "ionization=ESI" "isolation width=5" "peak width=0.016" "date=2014-11-25 23:09:26+01:00" "column=Waters Acquity BEH C18 1.7um x 2.1 x 150 mm" "retention time=1791.6" "raw data file=C:\Data\Confirmed standards 25_Nov_2014\9Z,12Z-Linoleic acid v399 MSMS_1-A,2_01_1328.d" "computed mass accuracy=0.16379152895297566" "computed mass error=4.5736000004126254E-5" "SPLASH=splash10-004i-0090000000-adbf36f0a17c33ac33f8" "submitter=Aiko Barsch (Bruker)" "MoNA Rating=4.615384615384616"
Num Peaks: 3
279.2330 100.000000
280.2358 15.315315
281.2389 0.800801


Name: 9Z,12Z-Linoleic acid
Synon: $:00in-source
DB#: MetaboBASE1094
InChIKey: OYHQOLUKZRVURQ-HZJYTTRNSA-N
Precursor_type: [M-H]-
Spectrum_type: MS2
PrecursorMZ: 279.2328
Instrument_type: LC-ESI-TOF
Instrument: impact HD
Ion_mode: N
Collision_energy: 20
Formula: C18H32O2
MW: 280
ExactMass: 280.240230264
Comments: "SMILES=OC(=O)CCCCCCC/C=C\C/C=C\CCCCC" "InChI=InChI=1S/C18H32O2/c1-2-3-4-5-6-7-8-9-10-11-12-13-14-15-16-17-18(19)20/h6-7,9-10H,2-5,8,11-17H2,1H3,(H,19,20)/b7-6-,10-9-" "computed SMILES=O=C(O)CCCCCCCC=CCC=CCCCCC" "license=License CC-BY-NC-SA 4.0 International" "author=Plant Biology, The Noble Foundation, Ardmore, OK, US/Dennis Fine, Daniel Wherritt, and Lloyd Sumner" "ionization=ESI" "isolation width=5" "peak width=0.016" "date=2014-11-25 23:09:26+01:00" "column=Waters Acquity BEH C18 1.7um x 2.1 x 150 mm" "retention time=1791.6" "raw data file=C:\Data\Confirmed standards 25_Nov_2014\9Z,12Z-Linoleic acid v399 MSMS_1-A,2_01_1328.d" "computed mass accuracy=0.55245658820351" "computed mass error=-1.5426400000251306E-4" "SPLASH=splash10-004i-0090000000-2747c83af78732eb6e16" "submitter=Aiko Barsch (Bruker)" "MoNA Rating=4.615384615384616"
Num Peaks: 9
128.0101 0.200200
261.2224 0.600601
279.2328 100.000000
279.2819 0.300300
280.2353 16.216216
281.2378 0.900901
1121.7227 0.100100
1211.1080 0.200200
1323.5792 0.100100


Name: 9Z,12Z-Linoleic acid
Synon: $:00in-source
DB#: MetaboBASE1095
InChIKey: OYHQOLUKZRVURQ-HZJYTTRNSA-N
Precursor_type: [M-H]-
Spectrum_type: MS2
PrecursorMZ: 279.23
Instrument_type: LC-ESI-TOF
Instrument: impact HD
Ion_mode: N
Collision_energy: 30
Formula: C18H32O2
MW: 280
ExactMass: 280.240230264
Comments: "SMILES=OC(=O)CCCCCCC/C=C\C/C=C\CCCCC" "InChI=InChI=1S/C18H32O2/c1-2-3-4-5-6-7-8-9-10-11-12-13-14-15-16-17-18(19)20/h6-7,9-10H,2-5,8,11-17H2,1H3,(H,19,20)/b7-6-,10-9-" "computed SMILES=O=C(O)CCCCCCCC=CCC=CCCCCC" "license=License CC-BY-NC-SA 4.0 International" "author=Plant Biology, The Noble Foundation, Ardmore, OK, US/Dennis Fine, Daniel Wherritt, and Lloyd Sumner" "ionization=ESI" "isolation width=5" "peak width=0.017" "date=2014-11-25 23:09:26+01:00" "column=Waters Acquity BEH C18 1.7um x 2.1 x 150 mm" "retention time=1791.6" "raw data file=C:\Data\Confirmed standards 25_Nov_2014\9Z,12Z-Linoleic acid v399 MSMS_1-A,2_01_1328.d" "computed mass accuracy=10.58003796147182" "computed mass error=-0.0029542639999817766" "SPLASH=splash10-004i-0090000000-a0415b1cb63b4562b40e" "submitter=Aiko Barsch (Bruker)" "MoNA Rating=3.846153846153846"
Num Peaks: 2
279.2300 100.000000
280.2354 14.414414


Name: a-Linolenic acid
Synon: $:00in-source
DB#: MetaboBASE1096
InChIKey: DTOSIQBPPRVQHS-PDBXOOCHSA-N
Precursor_type: [M-H]-
Spectrum_type: MS2
PrecursorMZ: 277.2183
Instrument_type: LC-ESI-TOF
Instrument: impact HD
Ion_mode: N
Collision_energy: 10
Formula: C18H30O2
MW: 278
ExactMass: 278.2245802
Comments: "SMILES=OC(=O)CCCCCCC/C=C\C/C=C\C/C=C\CC" "InChI=InChI=1S/C18H30O2/c1-2-3-4-5-6-7-8-9-10-11-12-13-14-15-16-17-18(19)20/h3-4,6-7,9-10H,2,5,8,11-17H2,1H3,(H,19,20)/b4-3-,7-6-,10-9-" "computed SMILES=O=C(O)CCCCCCCC=CCC=CCC=CCC" "license=License CC-BY-NC-SA 4.0 International" "author=Plant Biology, The Noble Foundation, Ardmore, OK, US/Dennis Fine, Daniel Wherritt, and Lloyd Sumner" "ionization=ESI" "isolation width=5" "peak width=0.011" "date=2014-10-08 11:39:15+02:00" "column=Waters Acquity BEH C18 1.7um x 2.1 x 150 mm" "retention time=1672.2" "raw data file=C:\Data\Confirmed standards 6_Oct_2014\a-Linoleic acid vial 388 MSMS_1-C,2_01_967.d" "computed mass accuracy=3.592114950558191" "computed mass error=9.957999999983258E-4" "SPLASH=splash10-004i-0090000000-2b7bea03a685454dd135" "submitter=Aiko Barsch (Bruker)" "MoNA Rating=3.9285714285714284"
Num Peaks: 2
277.2183 100.000000
278.2211 14.314314


Name: a-Linolenic acid
Synon: $:00in-source
DB#: MetaboBASE1097
InChIKey: DTOSIQBPPRVQHS-PDBXOOCHSA-N
Instrument_type: LC-ESI-TOF
Instrument: impact HD
Ion_mode: N
Formula: C18H30O2
MW: 278
ExactMass: 278.2245802
Comments: "SMILES=OC(=O)CCCCCCC/C=C\C/C=C\C/C=C\CC" "InChI=InChI=1S/C18H30O2/c1-2-3-4-5-6-7-8-9-10-11-12-13-14-15-16-17-18(19)20/h3-4,6-7,9-10H,2,5,8,11-17H2,1H3,(H,19,20)/b4-3-,7-6-,10-9-" "computed SMILES=O=C(O)CCCCCCCC=CCC=CCC=CCC" "license=License CC-BY-NC-SA 4.0 International" "author=Plant Biology, The Noble Foundation, Ardmore, OK, US/Dennis Fine, Daniel Wherritt, and Lloyd Sumner" "ionization=ESI" "peak width=0.017" "date=2014-10-08 11:39:15+02:00" "column=Waters Acquity BEH C18 1.7um x 2.1 x 150 mm" "retention time=1672.2" "raw data file=C:\Data\Confirmed standards 6_Oct_2014\a-Linoleic acid vial 388 MSMS_1-C,2_01_967.d" "SPLASH=splash10-004i-0090000000-53ddfaed6ce13c37d957" "submitter=Aiko Barsch (Bruker)" "MoNA Rating=3.888888888888889"
Num Peaks: 6
277.2182 100.000000
278.2214 17.517518
285.9673 4.204204
345.2055 6.706707
556.0032 4.604605
577.4250 7.107107


Name: a-Linolenic acid
Synon: $:00in-source
DB#: MetaboBASE1098
InChIKey: DTOSIQBPPRVQHS-PDBXOOCHSA-N
Precursor_type: [M-H]-
Spectrum_type: MS2
PrecursorMZ: 277.218
Instrument_type: LC-ESI-TOF
Instrument: impact HD
Ion_mode: N
Collision_energy: 20
Formula: C18H30O2
MW: 278
ExactMass: 278.2245802
Comments: "SMILES=OC(=O)CCCCCCC/C=C\C/C=C\C/C=C\CC" "InChI=InChI=1S/C18H30O2/c1-2-3-4-5-6-7-8-9-10-11-12-13-14-15-16-17-18(19)20/h3-4,6-7,9-10H,2,5,8,11-17H2,1H3,(H,19,20)/b4-3-,7-6-,10-9-" "computed SMILES=O=C(O)CCCCCCCC=CCC=CCC=CCC" "license=License CC-BY-NC-SA 4.0 International" "author=Plant Biology, The Noble Foundation, Ardmore, OK, US/Dennis Fine, Daniel Wherritt, and Lloyd Sumner" "ionization=ESI" "isolation width=5" "peak width=0.013" "date=2014-10-08 11:39:15+02:00" "column=Waters Acquity BEH C18 1.7um x 2.1 x 150 mm" "retention time=1672.2" "raw data file=C:\Data\Confirmed standards 6_Oct_2014\a-Linoleic acid vial 388 MSMS_1-C,2_01_967.d" "computed mass accuracy=2.5099380271727973" "computed mass error=6.958000000167885E-4" "SPLASH=splash10-004i-0090000000-e5350a66361bc63d1071" "submitter=Aiko Barsch (Bruker)" "MoNA Rating=3.9285714285714284"
Num Peaks: 2
277.2180 100.000000
278.2211 16.316316


Name: a-Linolenic acid
Synon: $:00in-source
DB#: MetaboBASE1099
InChIKey: DTOSIQBPPRVQHS-PDBXOOCHSA-N
Precursor_type: [M-H]-
Spectrum_type: MS2
PrecursorMZ: 277.2187
Instrument_type: LC-ESI-TOF
Instrument: impact HD
Ion_mode: N
Collision_energy: 30
Formula: C18H30O2
MW: 278
ExactMass: 278.2245802
Comments: "SMILES=OC(=O)CCCCCCC/C=C\C/C=C\C/C=C\CC" "InChI=InChI=1S/C18H30O2/c1-2-3-4-5-6-7-8-9-10-11-12-13-14-15-16-17-18(19)20/h3-4,6-7,9-10H,2,5,8,11-17H2,1H3,(H,19,20)/b4-3-,7-6-,10-9-" "computed SMILES=O=C(O)CCCCCCCC=CCC=CCC=CCC" "license=License CC-BY-NC-SA 4.0 International" "author=Plant Biology, The Noble Foundation, Ardmore, OK, US/Dennis Fine, Daniel Wherritt, and Lloyd Sumner" "ionization=ESI" "isolation width=5" "peak width=0.014" "date=2014-10-08 11:39:15+02:00" "column=Waters Acquity BEH C18 1.7um x 2.1 x 150 mm" "retention time=1672.2" "raw data file=C:\Data\Confirmed standards 6_Oct_2014\a-Linoleic acid vial 388 MSMS_1-C,2_01_967.d" "computed mass accuracy=5.035013871761192" "computed mass error=0.0013958000000116044" "SPLASH=splash10-004i-0090000000-5731aa5e301022c06813" "submitter=Aiko Barsch (Bruker)" "MoNA Rating=3.846153846153846"
Num Peaks: 2
277.2187 100.000000
278.2209 26.926927


Name: a-Linolenic acid
Synon: $:00in-source
DB#: MetaboBASE1100
InChIKey: DTOSIQBPPRVQHS-PDBXOOCHSA-N
Instrument_type: LC-ESI-TOF
Instrument: impact HD
Ion_mode: N
Collision_energy: 10
Formula: C18H30O2
MW: 278
ExactMass: 278.2245802
Comments: "SMILES=OC(=O)CCCCCCC/C=C\C/C=C\C/C=C\CC" "InChI=InChI=1S/C18H30O2/c1-2-3-4-5-6-7-8-9-10-11-12-13-14-15-16-17-18(19)20/h3-4,6-7,9-10H,2,5,8,11-17H2,1H3,(H,19,20)/b4-3-,7-6-,10-9-" "computed SMILES=O=C(O)CCCCCCCC=CCC=CCC=CCC" "license=License CC-BY-NC-SA 4.0 International" "author=Plant Biology, The Noble Foundation, Ardmore, OK, US/Dennis Fine, Daniel Wherritt, and Lloyd Sumner" "ionization=ESI" "peak width=0.013" "date=2014-10-07 00:17:28+02:00" "column=Waters Acquity BEH C18 1.7um x 2.1 x 150 mm" "retention time=1672.2" "raw data file=C:\Data\Confirmed standards 6_Oct_2014\a-Linoleic acid vial 388_1-C,2_01_932.d" "SPLASH=splash10-004i-0091010000-6922411e48d747e592b5" "submitter=Aiko Barsch (Bruker)" "MoNA Rating=4.444444444444445"
Num Peaks: 48
116.9278 0.200200
128.0094 0.300300
271.2267 0.200200
277.2178 100.000000
278.2205 21.521522
279.2228 2.502503
280.2242 0.100100
311.1674 0.200200
345.2040 1.901902
346.2070 0.400400
375.1460 0.600601
377.1421 10.410410
378.1441 3.203203
379.1449 0.900901
407.1754 0.100100
428.2151 0.500501
556.0020 4.004004
557.0052 0.500501
561.4518 0.100100
577.4230 10.010010
578.4258 4.004004
579.4284 0.900901
645.4097 0.900901
646.4103 0.400400
717.3381 0.100100
728.4226 1.001001
729.4272 0.400400
871.6094 1.001001
872.6145 0.600601
877.6268 3.603604
878.6306 2.102102
879.6359 0.600601
889.5833 0.400400
890.5848 0.200200
945.6097 0.300300
946.6097 0.100100
1028.6265 0.600601
1029.6281 0.300300
1171.8131 0.600601
1172.8191 0.200200
1177.8322 1.301301
1178.8359 1.101101
1179.8347 0.300300
1328.8026 0.100100
1472.0129 0.100100
1473.0157 0.100100
1478.0328 0.500501
1479.0422 0.600601


Name: Palmitic acid
Synon: $:00in-source
DB#: MetaboBASE1101
InChIKey: IPCSVZSSVZVIGE-UHFFFAOYSA-N
Instrument_type: LC-ESI-TOF
Instrument: impact HD
Ion_mode: N
Formula: C16H32O2
MW: 256
ExactMass: 256.240230264
Comments: "SMILES=OC(=O)CCCCCCCCCCCCCCC" "InChI=InChI=1S/C16H32O2/c1-2-3-4-5-6-7-8-9-10-11-12-13-14-15-16(17)18/h2-15H2,1H3,(H,17,18)" "computed SMILES=O=C(O)CCCCCCCCCCCCCCC" "license=License CC-BY-NC-SA 4.0 International" "author=Plant Biology, The Noble Foundation, Ardmore, OK, US/Dennis Fine, Daniel Wherritt, and Lloyd Sumner" "ionization=ESI" "peak width=0.011" "date=2014-08-22 01:58:09+02:00" "column=Waters Acquity BEH C18 1.7um x 2.1 x 150 mm" "retention time=1881.6" "raw data file=C:\Data\Confirmed standards 21_Aug_2014\Palmitic acid vial 206_1-D,2_01_685.d" "SPLASH=splash10-0a4i-0090000000-14e58eecd83ba52123c2" "submitter=Aiko Barsch (Bruker)" "MoNA Rating=3.888888888888889"
Num Peaks: 6
255.2341 100.000000
256.2373 14.714715
257.2393 1.401401
355.1591 5.105105
356.1606 1.401401
533.4554 1.901902


Name: Palmitic acid
Synon: $:00in-source
DB#: MetaboBASE1102
InChIKey: IPCSVZSSVZVIGE-UHFFFAOYSA-N
Precursor_type: [M-H]-
Spectrum_type: MS2
PrecursorMZ: 255.2317
Instrument_type: LC-ESI-TOF
Instrument: impact HD
Ion_mode: N
Collision_energy: 30
Formula: C16H32O2
MW: 256
ExactMass: 256.240230264
Comments: "SMILES=OC(=O)CCCCCCCCCCCCCCC" "InChI=InChI=1S/C16H32O2/c1-2-3-4-5-6-7-8-9-10-11-12-13-14-15-16(17)18/h2-15H2,1H3,(H,17,18)" "computed SMILES=O=C(O)CCCCCCCCCCCCCCC" "license=License CC-BY-NC-SA 4.0 International" "author=Plant Biology, The Noble Foundation, Ardmore, OK, US/Dennis Fine, Daniel Wherritt, and Lloyd Sumner" "ionization=ESI" "isolation width=5" "peak width=0.017" "date=2014-08-26 17:16:25+02:00" "column=Waters Acquity BEH C18 1.7um x 2.1 x 150 mm" "retention time=1881.6" "raw data file=C:\Data\Confirmed standards 21_Aug_2014\Palmitic acid vial 206_1-A,2_01_703.d" "computed mass accuracy=4.914217160370783" "computed mass error=-0.0012542640000106076" "SPLASH=splash10-0a4i-0090000000-c3f9f4d5c336137b7fcf" "submitter=Aiko Barsch (Bruker)" "MoNA Rating=4.583333333333334"
Num Peaks: 3
237.2214 5.805806
255.2317 100.000000
256.2350 12.812813


Name: Palmitic acid
Synon: $:00in-source
DB#: MetaboBASE1103
InChIKey: IPCSVZSSVZVIGE-UHFFFAOYSA-N
Precursor_type: [M-H]-
Spectrum_type: MS2
PrecursorMZ: 255.2333
Instrument_type: LC-ESI-TOF
Instrument: impact HD
Ion_mode: N
Collision_energy: 10
Formula: C16H32O2
MW: 256
ExactMass: 256.240230264
Comments: "SMILES=OC(=O)CCCCCCCCCCCCCCC" "InChI=InChI=1S/C16H32O2/c1-2-3-4-5-6-7-8-9-10-11-12-13-14-15-16(17)18/h2-15H2,1H3,(H,17,18)" "computed SMILES=O=C(O)CCCCCCCCCCCCCCC" "license=License CC-BY-NC-SA 4.0 International" "author=Plant Biology, The Noble Foundation, Ardmore, OK, US/Dennis Fine, Daniel Wherritt, and Lloyd Sumner" "ionization=ESI" "isolation width=5" "peak width=0.012" "date=2014-08-26 17:16:25+02:00" "column=Waters Acquity BEH C18 1.7um x 2.1 x 150 mm" "retention time=1881.6" "raw data file=C:\Data\Confirmed standards 21_Aug_2014\Palmitic acid vial 206_1-A,2_01_703.d" "computed mass accuracy=1.3545881356942264" "computed mass error=3.457360000140852E-4" "SPLASH=splash10-0a4i-0090000000-47919da3faa8e0f52bbc" "submitter=Aiko Barsch (Bruker)" "MoNA Rating=4.583333333333334"
Num Peaks: 3
255.2333 100.000000
256.2363 11.211211
257.2385 0.600601


Name: Palmitic acid
Synon: $:00in-source
DB#: MetaboBASE1104
InChIKey: IPCSVZSSVZVIGE-UHFFFAOYSA-N
Precursor_type: [M-H]-
Spectrum_type: MS2
PrecursorMZ: 255.2331
Instrument_type: LC-ESI-TOF
Instrument: impact HD
Ion_mode: N
Collision_energy: 20
Formula: C16H32O2
MW: 256
ExactMass: 256.240230264
Comments: "SMILES=OC(=O)CCCCCCCCCCCCCCC" "InChI=InChI=1S/C16H32O2/c1-2-3-4-5-6-7-8-9-10-11-12-13-14-15-16(17)18/h2-15H2,1H3,(H,17,18)" "computed SMILES=O=C(O)CCCCCCCCCCCCCCC" "license=License CC-BY-NC-SA 4.0 International" "author=Plant Biology, The Noble Foundation, Ardmore, OK, US/Dennis Fine, Daniel Wherritt, and Lloyd Sumner" "ionization=ESI" "isolation width=5" "peak width=0.013" "date=2014-08-26 17:16:25+02:00" "column=Waters Acquity BEH C18 1.7um x 2.1 x 150 mm" "retention time=1881.6" "raw data file=C:\Data\Confirmed standards 21_Aug_2014\Palmitic acid vial 206_1-A,2_01_703.d" "computed mass accuracy=0.5709917718644091" "computed mass error=1.457360000074459E-4" "SPLASH=splash10-0a4i-0090000000-fdd9e98416da12470fe9" "submitter=Aiko Barsch (Bruker)" "MoNA Rating=4.615384615384616"
Num Peaks: 5
237.2214 0.400400
238.2222 0.100100
255.2331 100.000000
256.2356 12.612613
257.2369 0.600601


Name: Palmitic acid
Synon: $:00in-source
DB#: MetaboBASE1105
InChIKey: IPCSVZSSVZVIGE-UHFFFAOYSA-N
Instrument_type: LC-ESI-TOF
Instrument: impact HD
Ion_mode: N
Formula: C16H32O2
MW: 256
ExactMass: 256.240230264
Comments: "SMILES=OC(=O)CCCCCCCCCCCCCCC" "InChI=InChI=1S/C16H32O2/c1-2-3-4-5-6-7-8-9-10-11-12-13-14-15-16(17)18/h2-15H2,1H3,(H,17,18)" "computed SMILES=O=C(O)CCCCCCCCCCCCCCC" "license=License CC-BY-NC-SA 4.0 International" "author=Plant Biology, The Noble Foundation, Ardmore, OK, US/Dennis Fine, Daniel Wherritt, and Lloyd Sumner" "ionization=ESI" "peak width=0.018" "date=2014-08-26 17:16:25+02:00" "column=Waters Acquity BEH C18 1.7um x 2.1 x 150 mm" "retention time=1877.4" "raw data file=C:\Data\Confirmed standards 21_Aug_2014\Palmitic acid vial 206_1-A,2_01_703.d" "SPLASH=splash10-0a4i-0091000000-4f6858c1cc0f04cbabf5" "submitter=Aiko Barsch (Bruker)" "MoNA Rating=3.888888888888889"
Num Peaks: 17
116.9286 1.401401
128.0102 1.601602
255.2334 100.000000
256.2365 14.714715
257.2391 1.401401
267.9277 1.101101
279.0096 4.404404
323.2200 1.201201
355.1584 14.214214
356.1599 3.803804
430.0093 5.605606
431.1917 1.701702
533.4541 2.502503
556.0020 3.703704
587.5068 1.801802
666.0190 1.601602
747.5173 1.301301


Name: 4'-O-(2'-E-Coumaroyl GluA)(1-2)GluA) Apigenin
Synon: $:00in-source
DB#: MetaboBASE1106
InChIKey: NCJNNMWJQIKYLO-FRVSQPBBSA-N
Spectrum_type: MS2
PrecursorMZ: 769.1555
Instrument_type: LC-ESI-TOF
Instrument: impact HD
Ion_mode: N
Collision_energy: 32.3054
Formula: C36H32O19
MW: 768
ExactMass: 768.153778804
Comments: "SMILES=c1(cc(c2c(c1)oc(cc2=O)c1ccc(cc1)O[C@@H]1O[C@@H]([C@H]([C@@H]([C@H]1O[C@H]1[C@@H]([C@H]([C@@H]([C@H](O1)C(=O)O)O)O)OC(=O)/C=C/c1ccc(cc1)O)O)O)C(=O)O)O)O" "InChI=InChI=1S/C36H32O19/c37-16-6-1-14(2-7-16)3-10-23(41)52-31-27(44)25(42)30(34(48)49)54-36(31)55-32-28(45)26(43)29(33(46)47)53-35(32)50-18-8-4-15(5-9-18)21-13-20(40)24-19(39)11-17(38)12-22(24)51-21/h1-13,25-32,35-39,42-45H,(H,46,47)(H,48,49)/b10-3+/t25-,26-,27-,28-,29-,30-,31+,32+,35+,36-/m0/s1" "computed SMILES=O=C(O)C1OC(OC=2C=CC(=CC2)C=3OC=4C=C(O)C=C(O)C4C(=O)C3)C(OC5OC(C(=O)O)C(O)C(O)C5OC(=O)C=CC6=CC=C(O)C=C6)C(O)C1O" "license=License CC-BY-NC-SA 4.0 International" "author=Plant Biology, The Noble Foundation, Ardmore, OK, US/Dennis Fine, Daniel Wherritt, and Lloyd Sumner" "ionization=ESI" "isolation width=9.07652" "collision energy 2=53.8424" "peak width=0.015" "date=2014-09-25 17:23:44+02:00" "column=Waters Acquity BEH C18 1.7um x 2.1 x 150 mm" "retention time=458.4" "raw data file=C:\Data\Kota Kera\A-17 aerial extr dil MSMS pos _1-E,7_01_887.d" "SPLASH=splash10-00di-0091000000-6e5bce804cfdf026ce4a" "submitter=Aiko Barsch (Bruker)" "MoNA Rating=3.125"
Num Peaks: 12
230.0564 8.008008
259.0608 2.502503
269.0428 3.103103
271.0607 100.000000
272.0626 15.415415
305.0648 4.804805
323.0760 13.813814
324.0763 1.801802
447.0925 7.307307
447.1234 1.701702
448.0978 2.502503
769.1555 1.801802


Name: 4'-O-(2'-E-Coumaroyl GluA)(1-2)GluA) Apigenin
Synon: $:00in-source
DB#: MetaboBASE1107
InChIKey: NCJNNMWJQIKYLO-FRVSQPBBSA-N
Spectrum_type: MS2
PrecursorMZ: 269.045
Instrument_type: LC-ESI-TOF
Instrument: impact HD
Ion_mode: N
Collision_energy: 24.509
Formula: C36H32O19
MW: 768
ExactMass: 768.153778804
Comments: "SMILES=c1(cc(c2c(c1)oc(cc2=O)c1ccc(cc1)O[C@@H]1O[C@@H]([C@H]([C@@H]([C@H]1O[C@H]1[C@@H]([C@H]([C@@H]([C@H](O1)C(=O)O)O)O)OC(=O)/C=C/c1ccc(cc1)O)O)O)C(=O)O)O)O" "InChI=InChI=1S/C36H32O19/c37-16-6-1-14(2-7-16)3-10-23(41)52-31-27(44)25(42)30(34(48)49)54-36(31)55-32-28(45)26(43)29(33(46)47)53-35(32)50-18-8-4-15(5-9-18)21-13-20(40)24-19(39)11-17(38)12-22(24)51-21/h1-13,25-32,35-39,42-45H,(H,46,47)(H,48,49)/b10-3+/t25-,26-,27-,28-,29-,30-,31+,32+,35+,36-/m0/s1" "computed SMILES=O=C(O)C1OC(OC=2C=CC(=CC2)C=3OC=4C=C(O)C=C(O)C4C(=O)C3)C(OC5OC(C(=O)O)C(O)C(O)C5OC(=O)C=CC6=CC=C(O)C=C6)C(O)C1O" "license=License CC-BY-NC-SA 4.0 International" "author=Plant Biology, The Noble Foundation, Ardmore, OK, US/Dennis Fine, Daniel Wherritt, and Lloyd Sumner" "ionization=ESI" "collision energy 2=40.8483" "peak width=0.017" "date=2014-12-12 20:57:07+01:00" "column=Waters Acquity BEH C18 1.7um x 2.1 x 150 mm" "retention time=458.4" "raw data file=C:\Data\Noble-Bruker MS libr eval complex mix\2014Dec_A17 aer rt mix MSMS_1-A,2_01_1447.d" "SPLASH=splash10-014i-0290000000-129d2d543ede122278f5" "submitter=Aiko Barsch (Bruker)" "MoNA Rating=3.125"
Num Peaks: 13
107.0129 1.601602
117.0340 22.522523
118.0337 0.300300
121.0255 0.200200
149.0240 3.103103
151.0026 3.603604
224.0482 0.300300
225.0547 5.505506
227.0359 1.401401
267.0290 0.500501
269.0449 100.000000
270.0478 13.313313
875.1241 0.200200


Name: 4'-O-(2'-E-Coumaroyl GluA)(1-2)GluA) Apigenin
Synon: $:00in-source
DB#: MetaboBASE1108
InChIKey: NCJNNMWJQIKYLO-FRVSQPBBSA-N
Instrument_type: LC-ESI-TOF
Instrument: impact HD
Ion_mode: N
Collision_energy: 10
Formula: C36H32O19
MW: 768
ExactMass: 768.153778804
Comments: "SMILES=c1(cc(c2c(c1)oc(cc2=O)c1ccc(cc1)O[C@@H]1O[C@@H]([C@H]([C@@H]([C@H]1O[C@H]1[C@@H]([C@H]([C@@H]([C@H](O1)C(=O)O)O)O)OC(=O)/C=C/c1ccc(cc1)O)O)O)C(=O)O)O)O" "InChI=InChI=1S/C36H32O19/c37-16-6-1-14(2-7-16)3-10-23(41)52-31-27(44)25(42)30(34(48)49)54-36(31)55-32-28(45)26(43)29(33(46)47)53-35(32)50-18-8-4-15(5-9-18)21-13-20(40)24-19(39)11-17(38)12-22(24)51-21/h1-13,25-32,35-39,42-45H,(H,46,47)(H,48,49)/b10-3+/t25-,26-,27-,28-,29-,30-,31+,32+,35+,36-/m0/s1" "computed SMILES=O=C(O)C1OC(OC=2C=CC(=CC2)C=3OC=4C=C(O)C=C(O)C4C(=O)C3)C(OC5OC(C(=O)O)C(O)C(O)C5OC(=O)C=CC6=CC=C(O)C=C6)C(O)C1O" "license=License CC-BY-NC-SA 4.0 International" "author=Plant Biology, The Noble Foundation, Ardmore, OK, US/Dennis Fine, Daniel Wherritt, and Lloyd Sumner" "ionization=ESI" "peak width=0.016" "date=2014-09-03 23:40:07+02:00" "column=Waters Acquity BEH C18 1.7um x 2.1 x 150 mm" "retention time=458.4" "raw data file=C:\Data\Kota Kera\Kota Kera QToF 2Sept2014\A-17 aerial extr dil positive_1-F,1_01_732.d" "SPLASH=splash10-01b9-0000000900-d750f7c8d832b3f71c21" "submitter=Aiko Barsch (Bruker)" "MoNA Rating=4.444444444444445"
Num Peaks: 12
271.0594 4.104104
323.0792 1.501502
447.0910 2.602603
447.2216 1.501502
467.2475 1.801802
489.2293 1.301301
769.1624 100.000000
770.1657 39.839840
771.1682 11.611612
772.1707 2.302302
791.1447 3.403403
792.1473 1.401401


Name: 4'-O-(2'-E-Coumaroyl GluA)(1-2)GluA) Apigenin
Synon: $:00in-source
DB#: MetaboBASE1109
InChIKey: NCJNNMWJQIKYLO-FRVSQPBBSA-N
Instrument_type: LC-ESI-TOF
Instrument: impact HD
Ion_mode: N
Formula: C36H32O19
MW: 768
ExactMass: 768.153778804
Comments: "SMILES=c1(cc(c2c(c1)oc(cc2=O)c1ccc(cc1)O[C@@H]1O[C@@H]([C@H]([C@@H]([C@H]1O[C@H]1[C@@H]([C@H]([C@@H]([C@H](O1)C(=O)O)O)O)OC(=O)/C=C/c1ccc(cc1)O)O)O)C(=O)O)O)O" "InChI=InChI=1S/C36H32O19/c37-16-6-1-14(2-7-16)3-10-23(41)52-31-27(44)25(42)30(34(48)49)54-36(31)55-32-28(45)26(43)29(33(46)47)53-35(32)50-18-8-4-15(5-9-18)21-13-20(40)24-19(39)11-17(38)12-22(24)51-21/h1-13,25-32,35-39,42-45H,(H,46,47)(H,48,49)/b10-3+/t25-,26-,27-,28-,29-,30-,31+,32+,35+,36-/m0/s1" "computed SMILES=O=C(O)C1OC(OC=2C=CC(=CC2)C=3OC=4C=C(O)C=C(O)C4C(=O)C3)C(OC5OC(C(=O)O)C(O)C(O)C5OC(=O)C=CC6=CC=C(O)C=C6)C(O)C1O" "license=License CC-BY-NC-SA 4.0 International" "author=Plant Biology, The Noble Foundation, Ardmore, OK, US/Dennis Fine, Daniel Wherritt, and Lloyd Sumner" "ionization=ESI" "peak width=0.031" "date=2014-12-12 20:57:07+01:00" "column=Waters Acquity BEH C18 1.7um x 2.1 x 150 mm" "retention time=458.4" "raw data file=C:\Data\Noble-Bruker MS libr eval complex mix\2014Dec_A17 aer rt mix MSMS_1-A,2_01_1447.d" "SPLASH=splash10-014i-0010100900-01c3d945ee21c1c29029" "submitter=Aiko Barsch (Bruker)" "MoNA Rating=3.888888888888889"
Num Peaks: 18
119.049 1.901902
269.047 28.028028
270.050 4.904905
299.056 1.201201
333.047 3.003003
351.056 1.801802
383.072 1.201201
497.095 17.117117
498.097 4.004004
767.146 100.000000
767.660 3.903904
768.162 40.840841
769.163 12.612613
770.164 2.702703
789.146 6.206206
790.148 2.502503
793.623 1.201201
794.129 1.201201


Name: 4'-O-(2'-E-Coumaroyl GluA)(1-2)GluA) Apigenin
Synon: $:00in-source
DB#: MetaboBASE1110
InChIKey: NCJNNMWJQIKYLO-FRVSQPBBSA-N
Precursor_type: [M-H]-
Spectrum_type: MS2
PrecursorMZ: 767.146
Instrument_type: LC-ESI-TOF
Instrument: impact HD
Ion_mode: N
Collision_energy: 47.5185
Formula: C36H32O19
MW: 768
ExactMass: 768.153778804
Comments: "SMILES=c1(cc(c2c(c1)oc(cc2=O)c1ccc(cc1)O[C@@H]1O[C@@H]([C@H]([C@@H]([C@H]1O[C@H]1[C@@H]([C@H]([C@@H]([C@H](O1)C(=O)O)O)O)OC(=O)/C=C/c1ccc(cc1)O)O)O)C(=O)O)O)O" "InChI=InChI=1S/C36H32O19/c37-16-6-1-14(2-7-16)3-10-23(41)52-31-27(44)25(42)30(34(48)49)54-36(31)55-32-28(45)26(43)29(33(46)47)53-35(32)50-18-8-4-15(5-9-18)21-13-20(40)24-19(39)11-17(38)12-22(24)51-21/h1-13,25-32,35-39,42-45H,(H,46,47)(H,48,49)/b10-3+/t25-,26-,27-,28-,29-,30-,31+,32+,35+,36-/m0/s1" "computed SMILES=O=C(O)C1OC(OC=2C=CC(=CC2)C=3OC=4C=C(O)C=C(O)C4C(=O)C3)C(OC5OC(C(=O)O)C(O)C(O)C5OC(=O)C=CC6=CC=C(O)C=C6)C(O)C1O" "license=License CC-BY-NC-SA 4.0 International" "author=Plant Biology, The Noble Foundation, Ardmore, OK, US/Dennis Fine, Daniel Wherritt, and Lloyd Sumner" "ionization=ESI" "collision energy 2=79.1974" "peak width=0.018" "date=2014-12-12 20:57:07+01:00" "column=Waters Acquity BEH C18 1.7um x 2.1 x 150 mm" "retention time=458.4" "raw data file=C:\Data\Noble-Bruker MS libr eval complex mix\2014Dec_A17 aer rt mix MSMS_1-A,2_01_1447.d" "computed mass accuracy=0.6554215234219011" "computed mass error=-5.028040000070177E-4" "SPLASH=splash10-02t9-0973000000-39d3d6c64f37670c36d7" "submitter=Aiko Barsch (Bruker)" "MoNA Rating=4.615384615384616"
Num Peaks: 44
99.0081 13.713714
100.0107 0.200200
111.0095 0.600601
113.0242 23.623624
114.0259 0.300300
115.0032 2.102102
117.0344 1.101101
119.0498 23.423423
120.0534 1.201201
129.0190 0.700701
133.0135 0.700701
139.0030 0.300300
145.0298 3.003003
149.0225 0.400400
151.0028 0.200200
157.0133 3.703704
163.0398 73.673674
164.0417 5.705706
175.0243 11.011011
193.0332 3.503504
201.0413 0.200200
217.0340 0.300300
225.0505 0.400400
225.0571 0.200200
229.0485 1.701702
268.0343 1.601602
269.0450 100.000000
270.0483 15.615616
271.0461 4.404404
289.0555 4.504505
311.0558 0.200200
315.0358 1.001001
321.0599 0.600601
333.0452 34.234234
334.0488 3.503504
335.0479 0.400400
339.0681 0.400400
351.0565 15.015015
352.0574 0.800801
427.0667 1.001001
435.0960 0.200200
497.0918 5.705706
498.0898 0.400400
1129.7535 0.200200


Name: 4'-O-(2'-E-Feruloyl GluA(1-2)GluA) Apigenin
Synon: $:00in-source
DB#: MetaboBASE1111
InChIKey: LNCLTICCQWMCNS-OJBICJBZSA-N
Spectrum_type: MS2
PrecursorMZ: 799.1725
Instrument_type: LC-ESI-TOF
Instrument: impact HD
Ion_mode: N
Collision_energy: 32.9807
Formula: C37H34O20
MW: 798
ExactMass: 798.164343488
Comments: "SMILES=c1(cc(c2c(c1)oc(cc2=O)c1ccc(cc1)O[C@@H]1O[C@@H]([C@H]([C@@H]([C@H]1O[C@H]1[C@@H]([C@H]([C@@H]([C@H](O1)C(=O)O)O)O)OC(=O)/C=C/c1ccc(c(c1)OC)O)O)O)C(=O)O)O)O" "InChI=InChI=1S/C37H34O20/c1-51-22-10-14(2-8-18(22)39)3-9-24(42)54-32-28(45)26(43)31(35(49)50)56-37(32)57-33-29(46)27(44)30(34(47)48)55-36(33)52-17-6-4-15(5-7-17)21-13-20(41)25-19(40)11-16(38)12-23(25)53-21/h2-13,26-33,36-40,43-46H,1H3,(H,47,48)(H,49,50)/b9-3+/t26-,27-,28-,29-,30-,31-,32+,33+,36+,37-/m0/s1" "computed SMILES=O=C(O)C1OC(OC=2C=CC(=CC2)C=3OC=4C=C(O)C=C(O)C4C(=O)C3)C(OC5OC(C(=O)O)C(O)C(O)C5OC(=O)C=CC6=CC=C(O)C(OC)=C6)C(O)C1O" "license=License CC-BY-NC-SA 4.0 International" "author=Plant Biology, The Noble Foundation, Ardmore, OK, US/Dennis Fine, Daniel Wherritt, and Lloyd Sumner" "ionization=ESI" "isolation width=9.19656" "collision energy 2=54.9678" "peak width=0.014" "date=2014-09-25 17:23:44+02:00" "column=Waters Acquity BEH C18 1.7um x 2.1 x 150 mm" "retention time=466.8" "raw data file=C:\Data\Kota Kera\A-17 aerial extr dil MSMS pos _1-E,7_01_887.d" "SPLASH=splash10-00di-0091000000-eb17bcda3c543b5773e6" "submitter=Aiko Barsch (Bruker)" "MoNA Rating=3.125"
Num Peaks: 14
260.0673 23.223223
261.0723 4.504505
271.0601 100.000000
272.0630 13.713714
273.0706 2.202202
299.0532 2.102102
335.0768 5.405405
336.0797 1.501502
353.0868 16.616617
354.0896 2.502503
447.0929 11.111111
448.0942 2.502503
799.1725 2.702703
800.1694 1.101101


Name: 4'-O-(2'-E-Feruloyl GluA(1-2)GluA) Apigenin
Synon: $:00in-source
DB#: MetaboBASE1112
InChIKey: LNCLTICCQWMCNS-OJBICJBZSA-N
Instrument_type: LC-ESI-TOF
Instrument: impact HD
Ion_mode: N
Collision_energy: 10
Formula: C37H34O20
MW: 798
ExactMass: 798.164343488
Comments: "SMILES=c1(cc(c2c(c1)oc(cc2=O)c1ccc(cc1)O[C@@H]1O[C@@H]([C@H]([C@@H]([C@H]1O[C@H]1[C@@H]([C@H]([C@@H]([C@H](O1)C(=O)O)O)O)OC(=O)/C=C/c1ccc(c(c1)OC)O)O)O)C(=O)O)O)O" "InChI=InChI=1S/C37H34O20/c1-51-22-10-14(2-8-18(22)39)3-9-24(42)54-32-28(45)26(43)31(35(49)50)56-37(32)57-33-29(46)27(44)30(34(47)48)55-36(33)52-17-6-4-15(5-7-17)21-13-20(41)25-19(40)11-16(38)12-23(25)53-21/h2-13,26-33,36-40,43-46H,1H3,(H,47,48)(H,49,50)/b9-3+/t26-,27-,28-,29-,30-,31-,32+,33+,36+,37-/m0/s1" "computed SMILES=O=C(O)C1OC(OC=2C=CC(=CC2)C=3OC=4C=C(O)C=C(O)C4C(=O)C3)C(OC5OC(C(=O)O)C(O)C(O)C5OC(=O)C=CC6=CC=C(O)C(OC)=C6)C(O)C1O" "license=License CC-BY-NC-SA 4.0 International" "author=Plant Biology, The Noble Foundation, Ardmore, OK, US/Dennis Fine, Daniel Wherritt, and Lloyd Sumner" "ionization=ESI" "peak width=0.016" "date=2014-09-03 23:40:07+02:00" "column=Waters Acquity BEH C18 1.7um x 2.1 x 150 mm" "retention time=466.8" "raw data file=C:\Data\Kota Kera\Kota Kera QToF 2Sept2014\A-17 aerial extr dil positive_1-F,1_01_732.d" "SPLASH=splash10-0f6t-0000000950-60821fc5dd3ffb1589e7" "submitter=Aiko Barsch (Bruker)" "MoNA Rating=4.444444444444445"
Num Peaks: 17
271.0594 2.802803
287.0906 1.601602
353.0865 1.601602
447.0909 2.002002
467.2474 1.101101
517.3144 1.901902
535.1437 1.501502
557.1260 1.801802
649.2867 4.104104
650.2905 1.601602
723.2881 1.401401
799.1733 100.000000
800.1766 40.440440
801.1790 12.112112
802.1823 2.702703
821.1546 2.302302
933.3735 1.701702


Name: 4'-O-(2'-E-Feruloyl GluA(1-2)GluA) Apigenin
Synon: $:00in-source
DB#: MetaboBASE1113
InChIKey: LNCLTICCQWMCNS-OJBICJBZSA-N
Instrument_type: LC-ESI-TOF
Instrument: impact HD
Ion_mode: N
Formula: C37H34O20
MW: 798
ExactMass: 798.164343488
Comments: "SMILES=c1(cc(c2c(c1)oc(cc2=O)c1ccc(cc1)O[C@@H]1O[C@@H]([C@H]([C@@H]([C@H]1O[C@H]1[C@@H]([C@H]([C@@H]([C@H](O1)C(=O)O)O)O)OC(=O)/C=C/c1ccc(c(c1)OC)O)O)O)C(=O)O)O)O" "InChI=InChI=1S/C37H34O20/c1-51-22-10-14(2-8-18(22)39)3-9-24(42)54-32-28(45)26(43)31(35(49)50)56-37(32)57-33-29(46)27(44)30(34(47)48)55-36(33)52-17-6-4-15(5-7-17)21-13-20(41)25-19(40)11-16(38)12-23(25)53-21/h2-13,26-33,36-40,43-46H,1H3,(H,47,48)(H,49,50)/b9-3+/t26-,27-,28-,29-,30-,31-,32+,33+,36+,37-/m0/s1" "computed SMILES=O=C(O)C1OC(OC=2C=CC(=CC2)C=3OC=4C=C(O)C=C(O)C4C(=O)C3)C(OC5OC(C(=O)O)C(O)C(O)C5OC(=O)C=CC6=CC=C(O)C(OC)=C6)C(O)C1O" "license=License CC-BY-NC-SA 4.0 International" "author=Plant Biology, The Noble Foundation, Ardmore, OK, US/Dennis Fine, Daniel Wherritt, and Lloyd Sumner" "ionization=ESI" "peak width=0.012" "date=2014-12-12 20:57:07+01:00" "column=Waters Acquity BEH C18 1.7um x 2.1 x 150 mm" "retention time=466.8" "raw data file=C:\Data\Noble-Bruker MS libr eval complex mix\2014Dec_A17 aer rt mix MSMS_1-A,2_01_1447.d" "SPLASH=splash10-0002-0110000910-bc5d980c507fde1c97f5" "submitter=Aiko Barsch (Bruker)" "MoNA Rating=3.888888888888889"
Num Peaks: 61
134.0368 1.001001
193.0498 1.101101
269.0459 12.512513
270.0486 2.302302
271.0508 0.100100
333.0458 1.401401
351.0560 0.900901
398.0748 0.900901
398.5774 0.400400
420.0569 0.800801
420.5590 0.400400
463.1245 1.401401
464.1262 0.100100
527.1038 11.411411
528.1071 2.902903
529.1080 0.200200
781.1233 1.001001
782.1338 0.300300
797.0165 0.100100
797.1586 100.000000
797.2916 0.200200
797.3302 0.100100
797.6580 0.500501
798.0554 0.200200
798.1614 41.941942
798.6596 0.100100
799.1636 13.613614
800.1650 2.902903
801.1617 0.300300
816.1304 1.001001
816.6341 0.900901
817.1359 0.200200
819.1389 9.309309
819.6378 0.200200
820.1415 4.004004
821.1436 1.301301
822.1436 0.100100
823.1115 0.200200
823.6132 1.301301
824.1168 1.101101
824.6184 0.500501
825.1165 0.300300
897.0807 3.003003
898.0864 1.401401
899.0851 0.500501
1181.2341 1.101101
1181.7373 1.501502
1182.2343 1.101101
1182.7415 0.600601
1183.2371 0.200200
1196.2397 4.704705
1196.7391 6.006006
1197.2411 4.504505
1197.7454 2.302302
1198.2445 1.001001
1198.7415 0.300300
1207.2305 1.001001
1207.7283 1.301301
1208.2301 1.001001
1208.7247 0.500501
1209.2139 0.100100


Name: 4'-O-(2'-E-Feruloyl GluA(1-2)GluA) Apigenin
Synon: $:00in-source
DB#: MetaboBASE1114
InChIKey: LNCLTICCQWMCNS-OJBICJBZSA-N
Precursor_type: [M-H]-
Spectrum_type: MS2
PrecursorMZ: 797.1556
Instrument_type: LC-ESI-TOF
Instrument: impact HD
Ion_mode: N
Collision_energy: 48.6439
Formula: C37H34O20
MW: 798
ExactMass: 798.164343488
Comments: "SMILES=c1(cc(c2c(c1)oc(cc2=O)c1ccc(cc1)O[C@@H]1O[C@@H]([C@H]([C@@H]([C@H]1O[C@H]1[C@@H]([C@H]([C@@H]([C@H](O1)C(=O)O)O)O)OC(=O)/C=C/c1ccc(c(c1)OC)O)O)O)C(=O)O)O)O" "InChI=InChI=1S/C37H34O20/c1-51-22-10-14(2-8-18(22)39)3-9-24(42)54-32-28(45)26(43)31(35(49)50)56-37(32)57-33-29(46)27(44)30(34(47)48)55-36(33)52-17-6-4-15(5-7-17)21-13-20(41)25-19(40)11-16(38)12-23(25)53-21/h2-13,26-33,36-40,43-46H,1H3,(H,47,48)(H,49,50)/b9-3+/t26-,27-,28-,29-,30-,31-,32+,33+,36+,37-/m0/s1" "computed SMILES=O=C(O)C1OC(OC=2C=CC(=CC2)C=3OC=4C=C(O)C=C(O)C4C(=O)C3)C(OC5OC(C(=O)O)C(O)C(O)C5OC(=O)C=CC6=CC=C(O)C(OC)=C6)C(O)C1O" "license=License CC-BY-NC-SA 4.0 International" "author=Plant Biology, The Noble Foundation, Ardmore, OK, US/Dennis Fine, Daniel Wherritt, and Lloyd Sumner" "ionization=ESI" "collision energy 2=81.0731" "peak width=0.018" "date=2014-12-12 20:57:07+01:00" "column=Waters Acquity BEH C18 1.7um x 2.1 x 150 mm" "retention time=466.8" "raw data file=C:\Data\Noble-Bruker MS libr eval complex mix\2014Dec_A17 aer rt mix MSMS_1-A,2_01_1447.d" "computed mass accuracy=1.840905338793671" "computed mass error=-0.001467487999889272" "SPLASH=splash10-015c-0972000000-bb9dcc39b0ee2f9f152e" "submitter=Aiko Barsch (Bruker)" "MoNA Rating=4.583333333333334"
Num Peaks: 68
99.0082 13.113113
100.0103 0.100100
101.0270 0.200200
103.0026 0.700701
109.0314 0.100100
111.0093 0.900901
112.0121 0.100100
113.0087 0.100100
113.0242 28.028028
114.0271 1.301301
115.0028 2.302302
117.0203 0.200200
117.0345 2.502503
129.0190 0.700701
131.0319 0.300300
131.0361 0.200200
133.0146 1.801802
134.0331 0.200200
134.0370 25.725726
135.0406 1.901902
137.0257 0.100100
141.0198 0.200200
149.0238 0.400400
149.0605 3.903904
150.0619 0.100100
151.0029 0.500501
157.0137 4.204204
160.0155 0.500501
175.0240 11.811812
176.0232 0.200200
176.0291 0.300300
178.0267 1.001001
193.0503 71.171171
194.0533 7.707708
195.0554 0.300300
201.0451 0.200200
217.0359 1.001001
225.0551 1.701702
227.0347 0.300300
235.0421 0.200200
243.0527 0.400400
245.0284 0.300300
259.0584 1.601602
263.0425 0.600601
268.0377 2.702703
269.0453 100.000000
270.0478 15.515516
271.0473 4.704705
272.0479 0.100100
289.0546 4.004004
290.0581 0.200200
311.0602 0.100100
315.0351 1.801802
333.0454 34.434434
334.0489 3.703704
351.0562 10.510511
352.0585 1.501502
367.0769 0.100100
369.0817 2.402402
370.0858 0.100100
383.0670 0.300300
384.0699 0.100100
427.0645 1.201201
428.0667 0.200200
527.1032 4.004004
528.1038 0.700701
603.0930 0.300300
1143.1041 0.100100


Name: 4'-O-(2'-Z-Feruloyl GluA(1-2)GluA) Apigenin
Synon: $:00in-source
DB#: MetaboBASE1115
InChIKey: LNCLTICCQWMCNS-LDTVNHGTSA-N
Instrument_type: LC-ESI-TOF
Instrument: impact HD
Ion_mode: N
Collision_energy: 10
Formula: C37H34O20
MW: 798
ExactMass: 798.164343488
Comments: "SMILES=c1(cc(c2c(c1)oc(cc2=O)c1ccc(cc1)O[C@@H]1O[C@@H]([C@H]([C@@H]([C@H]1O[C@H]1[C@@H]([C@H]([C@@H]([C@H](O1)C(=O)O)O)O)OC(=O)/C=C\c1cc(c(cc1)O)OC)O)O)C(=O)O)O)O" "InChI=InChI=1S/C37H34O20/c1-51-22-10-14(2-8-18(22)39)3-9-24(42)54-32-28(45)26(43)31(35(49)50)56-37(32)57-33-29(46)27(44)30(34(47)48)55-36(33)52-17-6-4-15(5-7-17)21-13-20(41)25-19(40)11-16(38)12-23(25)53-21/h2-13,26-33,36-40,43-46H,1H3,(H,47,48)(H,49,50)/b9-3-/t26-,27-,28-,29-,30-,31-,32+,33+,36+,37-/m0/s1" "computed SMILES=O=C(O)C1OC(OC=2C=CC(=CC2)C=3OC=4C=C(O)C=C(O)C4C(=O)C3)C(OC5OC(C(=O)O)C(O)C(O)C5OC(=O)C=CC6=CC=C(O)C(OC)=C6)C(O)C1O" "license=License CC-BY-NC-SA 4.0 International" "author=Plant Biology, The Noble Foundation, Ardmore, OK, US/Dennis Fine, Daniel Wherritt, and Lloyd Sumner" "ionization=ESI" "peak width=0.018" "date=2014-09-03 23:40:07+02:00" "column=Waters Acquity BEH C18 1.7um x 2.1 x 150 mm" "retention time=540.6" "raw data file=C:\Data\Kota Kera\Kota Kera QToF 2Sept2014\A-17 aerial extr dil positive_1-F,1_01_732.d" "SPLASH=splash10-0f6t-0000001950-cf9c99d0261d1d03100e" "submitter=Aiko Barsch (Bruker)" "MoNA Rating=4.444444444444445"
Num Peaks: 17
271.0593 7.507508
489.2289 1.301301
519.2032 1.501502
519.3290 1.201201
557.2209 1.301301
557.2922 3.603604
629.3135 6.006006
660.2460 3.703704
679.2962 4.904905
751.2208 2.302302
799.1729 100.000000
800.1765 42.242242
801.1789 12.812813
802.1837 1.301301
829.1840 2.602603
899.3682 3.603604
917.3780 4.504505


Name: 4'-O-(2'-Z-Feruloyl GluA(1-2)GluA) Apigenin
Synon: $:00in-source
DB#: MetaboBASE1116
InChIKey: LNCLTICCQWMCNS-LDTVNHGTSA-N
Instrument_type: LC-ESI-TOF
Instrument: impact HD
Ion_mode: N
Formula: C37H34O20
MW: 798
ExactMass: 798.164343488
Comments: "SMILES=c1(cc(c2c(c1)oc(cc2=O)c1ccc(cc1)O[C@@H]1O[C@@H]([C@H]([C@@H]([C@H]1O[C@H]1[C@@H]([C@H]([C@@H]([C@H](O1)C(=O)O)O)O)OC(=O)/C=C\c1cc(c(cc1)O)OC)O)O)C(=O)O)O)O" "InChI=InChI=1S/C37H34O20/c1-51-22-10-14(2-8-18(22)39)3-9-24(42)54-32-28(45)26(43)31(35(49)50)56-37(32)57-33-29(46)27(44)30(34(47)48)55-36(33)52-17-6-4-15(5-7-17)21-13-20(41)25-19(40)11-16(38)12-23(25)53-21/h2-13,26-33,36-40,43-46H,1H3,(H,47,48)(H,49,50)/b9-3-/t26-,27-,28-,29-,30-,31-,32+,33+,36+,37-/m0/s1" "computed SMILES=O=C(O)C1OC(OC=2C=CC(=CC2)C=3OC=4C=C(O)C=C(O)C4C(=O)C3)C(OC5OC(C(=O)O)C(O)C(O)C5OC(=O)C=CC6=CC=C(O)C(OC)=C6)C(O)C1O" "license=License CC-BY-NC-SA 4.0 International" "author=Plant Biology, The Noble Foundation, Ardmore, OK, US/Dennis Fine, Daniel Wherritt, and Lloyd Sumner" "ionization=ESI" "peak width=0.014" "date=2014-09-03 22:58:48+02:00" "column=Waters Acquity BEH C18 1.7um x 2.1 x 150 mm" "retention time=540.6" "raw data file=C:\Data\Kota Kera\A-17 aerial extr dil MSMS_1-F,1_01_731.d" "SPLASH=splash10-0002-0000010910-bc9a1e0c7fb758365d71" "submitter=Aiko Barsch (Bruker)" "MoNA Rating=3.888888888888889"
Num Peaks: 30
409.2082 2.202202
451.2171 9.309309
485.2209 2.502503
527.1034 7.807808
528.1070 2.102102
545.2610 2.702703
561.3274 10.610611
562.3304 3.103103
611.2350 3.303303
617.2630 2.302302
665.3903 3.203203
677.2781 3.503504
694.2557 2.102102
707.2773 2.402402
709.3420 2.502503
797.1796 100.000000
798.1833 43.043043
799.1854 13.713714
799.2903 4.204204
800.1919 3.203203
819.1769 10.710711
820.1766 4.804805
839.4629 3.403403
895.3124 3.203203
897.1420 2.202202
971.5289 5.305305
972.5285 2.902903
1005.4531 2.202202
1235.6953 4.504505
1236.7013 3.103103


Name: 4'-O-(2'-Z-Feruloyl GluA(1-2)GluA) Apigenin
Synon: $:00in-source
DB#: MetaboBASE1117
InChIKey: LNCLTICCQWMCNS-LDTVNHGTSA-N
Instrument_type: LC-ESI-TOF
Instrument: impact HD
Ion_mode: N
Formula: C37H34O20
MW: 798
ExactMass: 798.164343488
Comments: "SMILES=c1(cc(c2c(c1)oc(cc2=O)c1ccc(cc1)O[C@@H]1O[C@@H]([C@H]([C@@H]([C@H]1O[C@H]1[C@@H]([C@H]([C@@H]([C@H](O1)C(=O)O)O)O)OC(=O)/C=C\c1cc(c(cc1)O)OC)O)O)C(=O)O)O)O" "InChI=InChI=1S/C37H34O20/c1-51-22-10-14(2-8-18(22)39)3-9-24(42)54-32-28(45)26(43)31(35(49)50)56-37(32)57-33-29(46)27(44)30(34(47)48)55-36(33)52-17-6-4-15(5-7-17)21-13-20(41)25-19(40)11-16(38)12-23(25)53-21/h2-13,26-33,36-40,43-46H,1H3,(H,47,48)(H,49,50)/b9-3-/t26-,27-,28-,29-,30-,31-,32+,33+,36+,37-/m0/s1" "computed SMILES=O=C(O)C1OC(OC=2C=CC(=CC2)C=3OC=4C=C(O)C=C(O)C4C(=O)C3)C(OC5OC(C(=O)O)C(O)C(O)C5OC(=O)C=CC6=CC=C(O)C(OC)=C6)C(O)C1O" "license=License CC-BY-NC-SA 4.0 International" "author=Plant Biology, The Noble Foundation, Ardmore, OK, US/Dennis Fine, Daniel Wherritt, and Lloyd Sumner" "ionization=ESI" "peak width=0.015" "date=2014-12-12 20:57:07+01:00" "column=Waters Acquity BEH C18 1.7um x 2.1 x 150 mm" "retention time=540.6" "raw data file=C:\Data\Noble-Bruker MS libr eval complex mix\2014Dec_A17 aer rt mix MSMS_1-A,2_01_1447.d" "SPLASH=splash10-0002-0020000910-908b44a0cafae47a03b6" "submitter=Aiko Barsch (Bruker)" "MoNA Rating=3.888888888888889"
Num Peaks: 37
269.0457 12.112112
269.0816 7.007007
270.0486 0.300300
270.0840 0.100100
285.0765 25.625626
286.0794 4.704705
311.0545 1.101101
527.1029 7.607608
528.1062 0.400400
556.0020 0.900901
557.0048 0.100100
593.1860 2.002002
687.1910 2.002002
781.1218 4.004004
781.1441 0.200200
782.1292 1.001001
787.2850 1.501502
788.2763 0.100100
797.1580 100.000000
798.1601 41.141141
799.1640 11.811812
799.2615 1.101101
800.1667 1.301301
819.1384 13.413413
820.1422 6.006006
821.0978 0.200200
821.1483 1.601602
821.3752 0.700701
827.1658 2.902903
828.1531 0.100100
828.1740 0.800801
829.1415 0.100100
897.0797 3.103103
897.3314 0.200200
898.0939 0.700701
909.1042 1.501502
909.4172 0.900901


Name: 4'-O-(2'-Z-Feruloyl GluA(1-2)GluA) Apigenin
Synon: $:00in-source
DB#: MetaboBASE1118
InChIKey: LNCLTICCQWMCNS-LDTVNHGTSA-N
Precursor_type: [M-H]-
Spectrum_type: MS2
PrecursorMZ: 797.1788
Instrument_type: LC-ESI-TOF
Instrument: impact HD
Ion_mode: N
Collision_energy: 48.6454
Formula: C37H34O20
MW: 798
ExactMass: 798.164343488
Comments: "SMILES=c1(cc(c2c(c1)oc(cc2=O)c1ccc(cc1)O[C@@H]1O[C@@H]([C@H]([C@@H]([C@H]1O[C@H]1[C@@H]([C@H]([C@@H]([C@H](O1)C(=O)O)O)O)OC(=O)/C=C\c1cc(c(cc1)O)OC)O)O)C(=O)O)O)O" "InChI=InChI=1S/C37H34O20/c1-51-22-10-14(2-8-18(22)39)3-9-24(42)54-32-28(45)26(43)31(35(49)50)56-37(32)57-33-29(46)27(44)30(34(47)48)55-36(33)52-17-6-4-15(5-7-17)21-13-20(41)25-19(40)11-16(38)12-23(25)53-21/h2-13,26-33,36-40,43-46H,1H3,(H,47,48)(H,49,50)/b9-3-/t26-,27-,28-,29-,30-,31-,32+,33+,36+,37-/m0/s1" "computed SMILES=O=C(O)C1OC(OC=2C=CC(=CC2)C=3OC=4C=C(O)C=C(O)C4C(=O)C3)C(OC5OC(C(=O)O)C(O)C(O)C5OC(=O)C=CC6=CC=C(O)C(OC)=C6)C(O)C1O" "license=License CC-BY-NC-SA 4.0 International" "author=Plant Biology, The Noble Foundation, Ardmore, OK, US/Dennis Fine, Daniel Wherritt, and Lloyd Sumner" "ionization=ESI" "collision energy 2=81.0756" "peak width=0.018" "date=2014-12-12 20:57:07+01:00" "column=Waters Acquity BEH C18 1.7um x 2.1 x 150 mm" "retention time=540.6" "raw data file=C:\Data\Noble-Bruker MS libr eval complex mix\2014Dec_A17 aer rt mix MSMS_1-A,2_01_1447.d" "computed mass accuracy=27.26177866255987" "computed mass error=0.02173251200008508" "SPLASH=splash10-015c-1982000000-6be42b64761e024e4bbf" "submitter=Aiko Barsch (Bruker)" "MoNA Rating=4.545454545454546"
Num Peaks: 17
95.0200 4.604605
99.0143 15.615616
113.0246 31.231231
134.0359 23.623624
135.0418 3.903904
149.0589 4.304304
175.0241 9.609610
175.0367 4.304304
193.0500 53.153153
194.0546 3.903904
269.0456 100.000000
270.0491 16.516517
271.0457 4.704705
289.0590 7.407407
333.0446 33.033033
351.0572 11.211211
527.1079 5.605606


Name: 4'-O-(2'-Z-Feruloyl GluA(1-2)GluA) Apigenin
Synon: $:00in-source
DB#: MetaboBASE1119
InChIKey: LNCLTICCQWMCNS-LDTVNHGTSA-N
Spectrum_type: MS2
PrecursorMZ: 799.1398
Instrument_type: LC-ESI-TOF
Instrument: impact HD
Ion_mode: N
Collision_energy: 32.9806
Formula: C37H34O20
MW: 798
ExactMass: 798.164343488
Comments: "SMILES=c1(cc(c2c(c1)oc(cc2=O)c1ccc(cc1)O[C@@H]1O[C@@H]([C@H]([C@@H]([C@H]1O[C@H]1[C@@H]([C@H]([C@@H]([C@H](O1)C(=O)O)O)O)OC(=O)/C=C\c1cc(c(cc1)O)OC)O)O)C(=O)O)O)O" "InChI=InChI=1S/C37H34O20/c1-51-22-10-14(2-8-18(22)39)3-9-24(42)54-32-28(45)26(43)31(35(49)50)56-37(32)57-33-29(46)27(44)30(34(47)48)55-36(33)52-17-6-4-15(5-7-17)21-13-20(41)25-19(40)11-16(38)12-23(25)53-21/h2-13,26-33,36-40,43-46H,1H3,(H,47,48)(H,49,50)/b9-3-/t26-,27-,28-,29-,30-,31-,32+,33+,36+,37-/m0/s1" "computed SMILES=O=C(O)C1OC(OC=2C=CC(=CC2)C=3OC=4C=C(O)C=C(O)C4C(=O)C3)C(OC5OC(C(=O)O)C(O)C(O)C5OC(=O)C=CC6=CC=C(O)C(OC)=C6)C(O)C1O" "license=License CC-BY-NC-SA 4.0 International" "author=Plant Biology, The Noble Foundation, Ardmore, OK, US/Dennis Fine, Daniel Wherritt, and Lloyd Sumner" "ionization=ESI" "isolation width=9.19656" "collision energy 2=54.9677" "peak width=0.015" "date=2014-09-25 17:23:44+02:00" "column=Waters Acquity BEH C18 1.7um x 2.1 x 150 mm" "retention time=540.6" "raw data file=C:\Data\Kota Kera\A-17 aerial extr dil MSMS pos _1-E,7_01_887.d" "SPLASH=splash10-00di-0090000000-d9fc1632fe72cfae1218" "submitter=Aiko Barsch (Bruker)" "MoNA Rating=3.125"
Num Peaks: 5
260.0673 17.817818
271.0604 100.000000
272.0630 17.417417
353.0889 9.909910
447.0940 6.906907


Name: 4'-O-(Glucuronyl-(1-3)-2'-E-Feruloyl-O-glucuronyl)-(1-2)-glucuronyl Apigenin
Synon: $:00in-source
DB#: MetaboBASE1120
InChIKey: DZQSHMPRUIQXPF-LDHFKLKISA-N
Spectrum_type: MS2
PrecursorMZ: 975.1663
Instrument_type: LC-ESI-TOF
Instrument: impact HD
Ion_mode: N
Collision_energy: 36.9412
Formula: C43H42O26
MW: 974
ExactMass: 974.1964314639999
Comments: "SMILES=c1(cc(c2c(c1)oc(cc2=O)c1ccc(cc1)O[C@@H]1O[C@@H]([C@H]([C@@H]([C@H]1O[C@H]1[C@@H]([C@H]([C@@H]([C@H](O1)C(=O)O)O)O[C@H]1[C@@H]([C@H]([C@@H]([C@H](O1)C(=O)O)O)O)O)OC(=O)/C=C/c1ccc(c(c1)OC)O)O)O)C(=O)O)O)O" "InChI=InChI=1S/C43H42O26/c1-61-22-10-14(2-8-18(22)45)3-9-24(48)64-37-32(65-41-30(53)26(49)27(50)33(66-41)38(55)56)31(54)35(40(59)60)68-43(37)69-36-29(52)28(51)34(39(57)58)67-42(36)62-17-6-4-15(5-7-17)21-13-20(47)25-19(46)11-16(44)12-23(25)63-21/h2-13,26-37,41-46,49-54H,1H3,(H,55,56)(H,57,58)(H,59,60)/b9-3+/t26-,27-,28-,29-,30+,31-,32-,33-,34-,35-,36+,37+,41+,42+,43-/m0/s1" "computed SMILES=O=C(O)C1OC(OC2C(O)C(OC(OC3C(O)C(O)C(OC3OC=4C=CC(=CC4)C=5OC=6C=C(O)C=C(O)C6C(=O)C5)C(=O)O)C2OC(=O)C=CC7=CC=C(O)C(OC)=C7)C(=O)O)C(O)C(O)C1O" "license=License CC-BY-NC-SA 4.0 International" "author=Plant Biology, The Noble Foundation, Ardmore, OK, US/Dennis Fine, Daniel Wherritt, and Lloyd Sumner" "ionization=ESI" "isolation width=9.90067" "collision energy 2=61.5687" "peak width=0.015" "date=2014-09-25 17:23:44+02:00" "column=Waters Acquity BEH C18 1.7um x 2.1 x 150 mm" "retention time=410.4" "raw data file=C:\Data\Kota Kera\A-17 aerial extr dil MSMS pos _1-E,7_01_887.d" "SPLASH=splash10-00di-0093100000-b217d99bc7d5e21778df" "submitter=Aiko Barsch (Bruker)" "MoNA Rating=3.125"
Num Peaks: 8
260.0676 43.743744
271.0591 100.000000
272.0616 17.717718
335.0753 15.515516
353.0853 40.940941
447.0909 21.521522
529.1161 9.809810
799.1733 17.517518


Name: 4'-O-(Glucuronyl-(1-3)-2'-E-Feruloyl-O-glucuronyl)-(1-2)-glucuronyl Apigenin
Synon: $:00in-source
DB#: MetaboBASE1121
InChIKey: DZQSHMPRUIQXPF-LDHFKLKISA-N
Instrument_type: LC-ESI-TOF
Instrument: impact HD
Ion_mode: N
Collision_energy: 10
Formula: C43H42O26
MW: 974
ExactMass: 974.1964314639999
Comments: "SMILES=c1(cc(c2c(c1)oc(cc2=O)c1ccc(cc1)O[C@@H]1O[C@@H]([C@H]([C@@H]([C@H]1O[C@H]1[C@@H]([C@H]([C@@H]([C@H](O1)C(=O)O)O)O[C@H]1[C@@H]([C@H]([C@@H]([C@H](O1)C(=O)O)O)O)O)OC(=O)/C=C/c1ccc(c(c1)OC)O)O)O)C(=O)O)O)O" "InChI=InChI=1S/C43H42O26/c1-61-22-10-14(2-8-18(22)45)3-9-24(48)64-37-32(65-41-30(53)26(49)27(50)33(66-41)38(55)56)31(54)35(40(59)60)68-43(37)69-36-29(52)28(51)34(39(57)58)67-42(36)62-17-6-4-15(5-7-17)21-13-20(47)25-19(46)11-16(44)12-23(25)63-21/h2-13,26-37,41-46,49-54H,1H3,(H,55,56)(H,57,58)(H,59,60)/b9-3+/t26-,27-,28-,29-,30+,31-,32-,33-,34-,35-,36+,37+,41+,42+,43-/m0/s1" "computed SMILES=O=C(O)C1OC(OC2C(O)C(OC(OC3C(O)C(O)C(OC3OC=4C=CC(=CC4)C=5OC=6C=C(O)C=C(O)C6C(=O)C5)C(=O)O)C2OC(=O)C=CC7=CC=C(O)C(OC)=C7)C(=O)O)C(O)C(O)C1O" "license=License CC-BY-NC-SA 4.0 International" "author=Plant Biology, The Noble Foundation, Ardmore, OK, US/Dennis Fine, Daniel Wherritt, and Lloyd Sumner" "ionization=ESI" "peak width=0.017" "date=2014-09-03 23:40:07+02:00" "column=Waters Acquity BEH C18 1.7um x 2.1 x 150 mm" "retention time=410.4" "raw data file=C:\Data\Kota Kera\Kota Kera QToF 2Sept2014\A-17 aerial extr dil positive_1-F,1_01_732.d" "SPLASH=splash10-004i-0000101009-bd3c970fdcc7af7c289a" "submitter=Aiko Barsch (Bruker)" "MoNA Rating=4.444444444444445"
Num Peaks: 46
271.0592 4.804805
271.0991 1.301301
343.1565 1.101101
360.1096 1.001001
360.1831 10.810811
415.1577 7.207207
416.1615 1.401401
441.1719 8.308308
442.1750 2.002002
447.0909 6.906907
455.1509 4.604605
463.1767 1.701702
471.1846 1.201201
495.1819 2.802803
524.2032 1.201201
559.1794 3.003003
563.1392 1.101101
589.1905 11.011011
590.1933 3.703704
619.2016 7.407407
624.2289 1.601602
629.1836 4.204204
630.1867 1.501502
659.1949 4.404404
659.2568 1.701702
667.2969 3.203203
668.3004 1.801802
674.1765 1.201201
681.2770 3.803804
799.1682 2.602603
800.1711 1.401401
945.1944 12.412412
946.1981 5.705706
947.2003 1.901902
961.2250 7.507508
962.2292 1.901902
967.1756 1.201201
975.2050 100.000000
976.2083 48.748749
977.2114 16.716717
978.2143 4.204204
997.1862 7.807808
998.1062 1.101101
998.1887 2.302302
1028.1163 3.903904
1029.1217 1.901902


Name: 4'-O-(Glucuronyl-(1-3)-2'-E-Feruloyl-O-glucuronyl)-(1-2)-glucuronyl Apigenin
Synon: $:00in-source
DB#: MetaboBASE1122
InChIKey: DZQSHMPRUIQXPF-LDHFKLKISA-N
Precursor_type: [M-H]-
Spectrum_type: MS2
PrecursorMZ: 973.2698
Instrument_type: LC-ESI-TOF
Instrument: impact HD
Ion_mode: N
Collision_energy: 55.247
Formula: C43H42O26
MW: 974
ExactMass: 974.1964314639999
Comments: "SMILES=c1(cc(c2c(c1)oc(cc2=O)c1ccc(cc1)O[C@@H]1O[C@@H]([C@H]([C@@H]([C@H]1O[C@H]1[C@@H]([C@H]([C@@H]([C@H](O1)C(=O)O)O)O[C@H]1[C@@H]([C@H]([C@@H]([C@H](O1)C(=O)O)O)O)O)OC(=O)/C=C/c1ccc(c(c1)OC)O)O)O)C(=O)O)O)O" "InChI=InChI=1S/C43H42O26/c1-61-22-10-14(2-8-18(22)45)3-9-24(48)64-37-32(65-41-30(53)26(49)27(50)33(66-41)38(55)56)31(54)35(40(59)60)68-43(37)69-36-29(52)28(51)34(39(57)58)67-42(36)62-17-6-4-15(5-7-17)21-13-20(47)25-19(46)11-16(44)12-23(25)63-21/h2-13,26-37,41-46,49-54H,1H3,(H,55,56)(H,57,58)(H,59,60)/b9-3+/t26-,27-,28-,29-,30+,31-,32-,33-,34-,35-,36+,37+,41+,42+,43-/m0/s1" "computed SMILES=O=C(O)C1OC(OC2C(O)C(OC(OC3C(O)C(O)C(OC3OC=4C=CC(=CC4)C=5OC=6C=C(O)C=C(O)C6C(=O)C5)C(=O)O)C2OC(=O)C=CC7=CC=C(O)C(OC)=C7)C(=O)O)C(O)C(O)C1O" "license=License CC-BY-NC-SA 4.0 International" "author=Plant Biology, The Noble Foundation, Ardmore, OK, US/Dennis Fine, Daniel Wherritt, and Lloyd Sumner" "ionization=ESI" "collision energy 2=92.0782" "peak width=0.018" "date=2014-09-03 22:58:48+02:00" "column=Waters Acquity BEH C18 1.7um x 2.1 x 150 mm" "retention time=410.4" "raw data file=C:\Data\Kota Kera\A-17 aerial extr dil MSMS_1-F,1_01_731.d" "computed mass accuracy=82.8593839037605" "computed mass error=0.08064453600013621" "SPLASH=splash10-0r00-0532090100-0431b1ca2508a6e58129" "submitter=Aiko Barsch (Bruker)" "MoNA Rating=4.545454545454546"
Num Peaks: 33
95.0195 2.202202
99.0146 11.811812
101.0305 2.202202
103.0082 4.104104
113.0241 37.637638
114.0283 2.502503
131.0346 2.202202
133.0135 2.102102
134.0363 3.603604
139.0018 2.602603
157.0135 8.408408
175.0251 9.109109
193.0352 19.219219
269.0448 43.743744
270.0487 5.105105
289.0558 5.205205
333.0453 11.011011
351.0564 31.731732
352.0593 4.604605
393.0653 3.103103
447.0760 4.904905
465.0882 8.308308
483.1002 2.102102
491.0721 2.002002
509.0783 100.000000
510.0812 18.918919
511.0852 4.104104
527.0903 28.628629
528.0952 5.405405
529.0955 2.002002
703.1336 19.319319
704.1371 5.205205
779.1467 4.404404


Name: 4'-O-(2'-Z-Coumaroyl GluA)(1-2)GluA) Apigenin
Synon: $:00in-source
DB#: MetaboBASE1123
InChIKey: NCJNNMWJQIKYLO-WYFUIKBSSA-N
Spectrum_type: MS2
PrecursorMZ: 269.0446
Instrument_type: LC-ESI-TOF
Instrument: impact HD
Ion_mode: N
Collision_energy: 24.5091
Formula: C36H32O19
MW: 768
ExactMass: 768.153778804
Comments: "SMILES=c1(cc(c2c(c1)oc(cc2=O)c1ccc(cc1)O[C@@H]1O[C@@H]([C@H]([C@@H]([C@H]1O[C@H]1[C@@H]([C@H]([C@@H]([C@H](O1)C(=O)O)O)O)OC(=O)/C=C\c1ccc(cc1)O)O)O)C(=O)O)O)O" "InChI=InChI=1S/C36H32O19/c37-16-6-1-14(2-7-16)3-10-23(41)52-31-27(44)25(42)30(34(48)49)54-36(31)55-32-28(45)26(43)29(33(46)47)53-35(32)50-18-8-4-15(5-9-18)21-13-20(40)24-19(39)11-17(38)12-22(24)51-21/h1-13,25-32,35-39,42-45H,(H,46,47)(H,48,49)/b10-3-/t25-,26-,27-,28-,29-,30-,31+,32+,35+,36-/m0/s1" "computed SMILES=O=C(O)C1OC(OC=2C=CC(=CC2)C=3OC=4C=C(O)C=C(O)C4C(=O)C3)C(OC5OC(C(=O)O)C(O)C(O)C5OC(=O)C=CC6=CC=C(O)C=C6)C(O)C1O" "license=License CC-BY-NC-SA 4.0 International" "author=Plant Biology, The Noble Foundation, Ardmore, OK, US/Dennis Fine, Daniel Wherritt, and Lloyd Sumner" "ionization=ESI" "collision energy 2=40.8485" "peak width=0.013" "date=2014-12-12 20:57:07+01:00" "column=Waters Acquity BEH C18 1.7um x 2.1 x 150 mm" "retention time=517.8" "raw data file=C:\Data\Noble-Bruker MS libr eval complex mix\2014Dec_A17 aer rt mix MSMS_1-A,2_01_1447.d" "SPLASH=splash10-014i-0090000000-e65b21a43cc408abe9c4" "submitter=Aiko Barsch (Bruker)" "MoNA Rating=3.125"
Num Peaks: 3
117.0353 6.306306
269.0448 100.000000
1107.1230 3.803804


Name: 4'-O-(2'-Z-Coumaroyl GluA)(1-2)GluA) Apigenin
Synon: $:00in-source
DB#: MetaboBASE1124
InChIKey: NCJNNMWJQIKYLO-WYFUIKBSSA-N
Precursor_type: [M-H]-
Spectrum_type: MS2
PrecursorMZ: 767.1554
Instrument_type: LC-ESI-TOF
Instrument: impact HD
Ion_mode: N
Collision_energy: 47.5199
Formula: C36H32O19
MW: 768
ExactMass: 768.153778804
Comments: "SMILES=c1(cc(c2c(c1)oc(cc2=O)c1ccc(cc1)O[C@@H]1O[C@@H]([C@H]([C@@H]([C@H]1O[C@H]1[C@@H]([C@H]([C@@H]([C@H](O1)C(=O)O)O)O)OC(=O)/C=C\c1ccc(cc1)O)O)O)C(=O)O)O)O" "InChI=InChI=1S/C36H32O19/c37-16-6-1-14(2-7-16)3-10-23(41)52-31-27(44)25(42)30(34(48)49)54-36(31)55-32-28(45)26(43)29(33(46)47)53-35(32)50-18-8-4-15(5-9-18)21-13-20(40)24-19(39)11-17(38)12-22(24)51-21/h1-13,25-32,35-39,42-45H,(H,46,47)(H,48,49)/b10-3-/t25-,26-,27-,28-,29-,30-,31+,32+,35+,36-/m0/s1" "computed SMILES=O=C(O)C1OC(OC=2C=CC(=CC2)C=3OC=4C=C(O)C=C(O)C4C(=O)C3)C(OC5OC(C(=O)O)C(O)C(O)C5OC(=O)C=CC6=CC=C(O)C=C6)C(O)C1O" "license=License CC-BY-NC-SA 4.0 International" "author=Plant Biology, The Noble Foundation, Ardmore, OK, US/Dennis Fine, Daniel Wherritt, and Lloyd Sumner" "ionization=ESI" "collision energy 2=79.1998" "peak width=0.016" "date=2014-12-12 20:57:07+01:00" "column=Waters Acquity BEH C18 1.7um x 2.1 x 150 mm" "retention time=517.8" "raw data file=C:\Data\Noble-Bruker MS libr eval complex mix\2014Dec_A17 aer rt mix MSMS_1-A,2_01_1447.d" "computed mass accuracy=11.597645014322799" "computed mass error=0.008897196000020813" "SPLASH=splash10-02t9-1893000000-1a3e205a49d91a2a0a15" "submitter=Aiko Barsch (Bruker)" "MoNA Rating=4.545454545454546"
Num Peaks: 8
99.0141 19.519520
113.0244 25.825826
119.0499 31.731732
163.0396 55.755756
269.0464 100.000000
270.0503 14.314314
333.0450 28.728729
351.0579 17.717718


Name: 4'-O-(2'-Z-Coumaroyl GluA)(1-2)GluA) Apigenin
Synon: $:00in-source
DB#: MetaboBASE1125
InChIKey: NCJNNMWJQIKYLO-WYFUIKBSSA-N
Instrument_type: LC-ESI-TOF
Instrument: impact HD
Ion_mode: N
Formula: C36H32O19
MW: 768
ExactMass: 768.153778804
Comments: "SMILES=c1(cc(c2c(c1)oc(cc2=O)c1ccc(cc1)O[C@@H]1O[C@@H]([C@H]([C@@H]([C@H]1O[C@H]1[C@@H]([C@H]([C@@H]([C@H](O1)C(=O)O)O)O)OC(=O)/C=C\c1ccc(cc1)O)O)O)C(=O)O)O)O" "InChI=InChI=1S/C36H32O19/c37-16-6-1-14(2-7-16)3-10-23(41)52-31-27(44)25(42)30(34(48)49)54-36(31)55-32-28(45)26(43)29(33(46)47)53-35(32)50-18-8-4-15(5-9-18)21-13-20(40)24-19(39)11-17(38)12-22(24)51-21/h1-13,25-32,35-39,42-45H,(H,46,47)(H,48,49)/b10-3-/t25-,26-,27-,28-,29-,30-,31+,32+,35+,36-/m0/s1" "computed SMILES=O=C(O)C1OC(OC=2C=CC(=CC2)C=3OC=4C=C(O)C=C(O)C4C(=O)C3)C(OC5OC(C(=O)O)C(O)C(O)C5OC(=O)C=CC6=CC=C(O)C=C6)C(O)C1O" "license=License CC-BY-NC-SA 4.0 International" "author=Plant Biology, The Noble Foundation, Ardmore, OK, US/Dennis Fine, Daniel Wherritt, and Lloyd Sumner" "ionization=ESI" "peak width=0.015" "date=2014-12-12 20:57:07+01:00" "column=Waters Acquity BEH C18 1.7um x 2.1 x 150 mm" "retention time=517.8" "raw data file=C:\Data\Noble-Bruker MS libr eval complex mix\2014Dec_A17 aer rt mix MSMS_1-A,2_01_1447.d" "SPLASH=splash10-014i-0020000900-471701997533173bd28f" "submitter=Aiko Barsch (Bruker)" "MoNA Rating=3.888888888888889"
Num Peaks: 39
116.9283 0.800801
269.0452 34.534535
270.0481 5.605606
271.0528 0.100100
313.0719 0.900901
333.0459 4.004004
343.1555 1.001001
343.2111 0.600601
351.0575 2.902903
352.0674 0.100100
371.2067 1.701702
405.0511 2.702703
405.5513 0.500501
406.0569 0.100100
413.0320 0.200200
413.2162 1.601602
497.0934 8.008008
497.1615 0.100100
498.0975 0.500501
529.1919 1.201201
561.1964 1.701702
562.2031 0.100100
585.1605 1.301301
586.1618 0.100100
767.1469 100.000000
767.2760 0.200200
768.1484 40.240240
768.3083 0.100100
769.1538 12.212212
770.1520 3.103103
789.1266 14.114114
790.1329 6.206206
791.1294 1.001001
799.2664 1.301301
800.2628 0.200200
867.0704 4.504505
868.0723 1.601602
1103.4851 2.302302
1104.4806 0.100100


Name: 4'-O-(2'-Z-Coumaroyl GluA)(1-2)GluA) Apigenin
Synon: $:00in-source
DB#: MetaboBASE1126
InChIKey: NCJNNMWJQIKYLO-WYFUIKBSSA-N
Instrument_type: LC-ESI-TOF
Instrument: impact HD
Ion_mode: N
Formula: C36H32O19
MW: 768
ExactMass: 768.153778804
Comments: "SMILES=c1(cc(c2c(c1)oc(cc2=O)c1ccc(cc1)O[C@@H]1O[C@@H]([C@H]([C@@H]([C@H]1O[C@H]1[C@@H]([C@H]([C@@H]([C@H](O1)C(=O)O)O)O)OC(=O)/C=C\c1ccc(cc1)O)O)O)C(=O)O)O)O" "InChI=InChI=1S/C36H32O19/c37-16-6-1-14(2-7-16)3-10-23(41)52-31-27(44)25(42)30(34(48)49)54-36(31)55-32-28(45)26(43)29(33(46)47)53-35(32)50-18-8-4-15(5-9-18)21-13-20(40)24-19(39)11-17(38)12-22(24)51-21/h1-13,25-32,35-39,42-45H,(H,46,47)(H,48,49)/b10-3-/t25-,26-,27-,28-,29-,30-,31+,32+,35+,36-/m0/s1" "computed SMILES=O=C(O)C1OC(OC=2C=CC(=CC2)C=3OC=4C=C(O)C=C(O)C4C(=O)C3)C(OC5OC(C(=O)O)C(O)C(O)C5OC(=O)C=CC6=CC=C(O)C=C6)C(O)C1O" "license=License CC-BY-NC-SA 4.0 International" "author=Plant Biology, The Noble Foundation, Ardmore, OK, US/Dennis Fine, Daniel Wherritt, and Lloyd Sumner" "ionization=ESI" "peak width=0.0082" "date=2014-09-03 22:58:48+02:00" "column=Waters Acquity BEH C18 1.7um x 2.1 x 150 mm" "retention time=517.8" "raw data file=C:\Data\Kota Kera\A-17 aerial extr dil MSMS_1-F,1_01_731.d" "SPLASH=splash10-014i-0021153900-8a46f75e046320ae5a54" "submitter=Aiko Barsch (Bruker)" "MoNA Rating=3.888888888888889"
Num Peaks: 25
269.0462 43.743744
270.0481 7.407407
357.1344 24.924925
358.1365 5.605606
431.1540 6.106106
467.2500 13.313313
497.0933 9.009009
509.2589 5.805806
513.2012 5.105105
517.1936 16.616617
518.1949 5.005005
556.0020 12.612613
559.3129 9.709710
561.1992 40.140140
562.2012 14.214214
680.2911 34.734735
681.2972 28.828829
682.2968 10.710711
703.2638 20.320320
704.2654 8.908909
724.2827 5.305305
767.1575 100.000000
768.1599 38.538539
769.1617 12.712713
789.1456 9.509510


Name: 7-O-(2'-Feruloylglucuronyl)-(1-2)-glucuronyl Apigenin
Synon: $:00in-source
DB#: MetaboBASE1127
InChIKey: TVHAXOXLQDESPI-OJBICJBZSA-N
Instrument_type: LC-ESI-TOF
Instrument: impact HD
Ion_mode: N
Collision_energy: 10
Formula: C37H34O20
MW: 798
ExactMass: 798.164343488
Comments: "SMILES=O=c1c2c(oc(c1)c1ccc(cc1)O)cc(cc2O)O[C@@H]1O[C@@H]([C@H]([C@@H]([C@H]1O[C@H]1[C@@H]([C@H]([C@@H]([C@H](O1)C(=O)O)O)O)OC(=O)/C=C/c1ccc(c(c1)OC)O)O)O)C(=O)O" "InChI=InChI=1S/C37H34O20/c1-51-22-10-14(2-8-18(22)39)3-9-24(42)54-32-28(45)26(43)31(35(49)50)56-37(32)57-33-29(46)27(44)30(34(47)48)55-36(33)52-17-11-19(40)25-20(41)13-21(53-23(25)12-17)15-4-6-16(38)7-5-15/h2-13,26-33,36-40,43-46H,1H3,(H,47,48)(H,49,50)/b9-3+/t26-,27-,28-,29-,30-,31-,32+,33+,36+,37-/m0/s1" "computed SMILES=O=C(O)C1OC(OC2=CC(O)=C3C(=O)C=C(OC3=C2)C=4C=CC(O)=CC4)C(OC5OC(C(=O)O)C(O)C(O)C5OC(=O)C=CC6=CC=C(O)C(OC)=C6)C(O)C1O" "license=License CC-BY-NC-SA 4.0 International" "author=Plant Biology, The Noble Foundation, Ardmore, OK, US/Dennis Fine, Daniel Wherritt, and Lloyd Sumner" "ionization=ESI" "peak width=0.0085" "date=2014-01-23 23:40:08+01:00" "column=Waters Acquity BEH C18 1.7um x 2.1 x 150 mm" "retention time=414" "raw data file=C:\Data\Chan Man Ha\CCR1 20634 leaf Homo-1.d" "SPLASH=splash10-0002-0000000900-bbc4cb39b1232655cdd4" "submitter=Aiko Barsch (Bruker)" "MoNA Rating=4.444444444444445"
Num Peaks: 15
269.0452 2.302302
527.1038 3.403403
528.1052 0.700701
556.0020 1.001001
597.2392 1.401401
767.1455 3.003003
768.1487 1.001001
781.1268 0.700701
796.1454 0.600601
797.1565 100.000000
798.1600 40.240240
799.1625 11.311311
800.1651 1.901902
819.1381 2.202202
820.1403 0.800801


Name: 3-(Rha(1-2)Glu(1-2)Glu-28-Glu oleanolic acid
Synon: $:00in-source
DB#: MetaboBASE1128
InChIKey: NQRGKZPCORAPOM-LRUKXMSVSA-N
Precursor_type: [M-H]-
Spectrum_type: MS2
PrecursorMZ: 1087.639
Instrument_type: LC-ESI-TOF
Instrument: impact HD
Ion_mode: N
Collision_energy: 59.5365
Formula: C54H88O22
MW: 1088
ExactMass: 1088.576724456
Comments: "SMILES=C1[C@@H](C(C2[C@](C1)(C1[C@@](CC2)([C@]2(C(=CC1)[C@H]1[C@@](CC2)(CCC(C1)(C)C)C(=O)O[C@H]1[C@@H]([C@H]([C@@H]([C@H](O1)CO)O)O)O)C)C)C)(C)C)O[C@@H]1O[C@@H]([C@H]([C@@H]([C@H]1O[C@@H]1O[C@@H]([C@H]([C@@H]([C@H]1O[C@@H]1O[C@H]([C@@H]([C@H]([C@H]1O)O)O)C)O)O)CO)O)O)CO" "InChI=InChI=1S/C54H88O22/c1-23-32(58)36(62)40(66)44(69-23)74-43-39(65)35(61)28(22-57)72-47(43)75-42-38(64)34(60)27(21-56)71-46(42)73-31-12-13-51(6)29(50(31,4)5)11-14-53(8)30(51)10-9-24-25-19-49(2,3)15-17-54(25,18-16-52(24,53)7)48(68)76-45-41(67)37(63)33(59)26(20-55)70-45/h9,23,25-47,55-67H,10-22H2,1-8H3/t23-,25-,26+,27+,28+,29?,30?,31-,32-,33+,34+,35+,36+,37-,38-,39-,40+,41+,42+,43+,44-,45-,46-,47-,51-,52+,53+,54-/m0/s1" "computed SMILES=O=C(OC1OC(CO)C(O)C(O)C1O)C23CCC(C)(C)CC3C4=CCC5C6(C)CCC(OC7OC(CO)C(O)C(O)C7OC8OC(CO)C(O)C(O)C8OC9OC(C)C(O)C(O)C9O)C(C)(C)C6CCC5(C)C4(C)CC2" "license=License CC-BY-NC-SA 4.0 International" "author=Plant Biology, The Noble Foundation, Ardmore, OK, US/Dennis Fine, Daniel Wherritt, and Lloyd Sumner" "ionization=ESI" "isolation width=10.8764" "collision energy 2=99.2274" "peak width=0.018" "date=2014-06-03 20:53:11+02:00" "column=Waters Acquity BEH C18 1.7um x 2.1 x 150 mm" "retention time=861.6" "raw data file=C:\Data\BWatson\14Jun03_BW_HR1-D_MSMS_2-A,1_01_198.d" "computed mass accuracy=63.94726926855151" "computed mass error=0.0695515439999781" "SPLASH=splash10-004i-0000007809-528f32261bbd882e34ea" "submitter=Aiko Barsch (Bruker)" "MoNA Rating=4.545454545454546"
Num Peaks: 3
617.4076 80.280280
779.4578 89.989990
925.5139 100.000000


Name: 3-(Rha(1-2)Glu(1-2)Glu-28-Glu oleanolic acid
Synon: $:00in-source
DB#: MetaboBASE1129
InChIKey: NQRGKZPCORAPOM-LRUKXMSVSA-N
Instrument_type: LC-ESI-TOF
Instrument: impact HD
Ion_mode: N
Collision_energy: 10
Formula: C54H88O22
MW: 1088
ExactMass: 1088.576724456
Comments: "SMILES=C1[C@@H](C(C2[C@](C1)(C1[C@@](CC2)([C@]2(C(=CC1)[C@H]1[C@@](CC2)(CCC(C1)(C)C)C(=O)O[C@H]1[C@@H]([C@H]([C@@H]([C@H](O1)CO)O)O)O)C)C)C)(C)C)O[C@@H]1O[C@@H]([C@H]([C@@H]([C@H]1O[C@@H]1O[C@@H]([C@H]([C@@H]([C@H]1O[C@@H]1O[C@H]([C@@H]([C@H]([C@H]1O)O)O)C)O)O)CO)O)O)CO" "InChI=InChI=1S/C54H88O22/c1-23-32(58)36(62)40(66)44(69-23)74-43-39(65)35(61)28(22-57)72-47(43)75-42-38(64)34(60)27(21-56)71-46(42)73-31-12-13-51(6)29(50(31,4)5)11-14-53(8)30(51)10-9-24-25-19-49(2,3)15-17-54(25,18-16-52(24,53)7)48(68)76-45-41(67)37(63)33(59)26(20-55)70-45/h9,23,25-47,55-67H,10-22H2,1-8H3/t23-,25-,26+,27+,28+,29?,30?,31-,32-,33+,34+,35+,36+,37-,38-,39-,40+,41+,42+,43+,44-,45-,46-,47-,51-,52+,53+,54-/m0/s1" "computed SMILES=O=C(OC1OC(CO)C(O)C(O)C1O)C23CCC(C)(C)CC3C4=CCC5C6(C)CCC(OC7OC(CO)C(O)C(O)C7OC8OC(CO)C(O)C(O)C8OC9OC(C)C(O)C(O)C9O)C(C)(C)C6CCC5(C)C4(C)CC2" "license=License CC-BY-NC-SA 4.0 International" "author=Plant Biology, The Noble Foundation, Ardmore, OK, US/Dennis Fine, Daniel Wherritt, and Lloyd Sumner" "ionization=ESI" "peak width=0.016" "date=2014-11-14 00:11:23+01:00" "column=Waters Acquity BEH C18 1.7um x 2.1 x 150 mm" "retention time=861.6" "raw data file=C:\Data\2014Nov12_A-17 aerial root MS MSMS\A-17 root MS_1-A,3_01_1226.d" "SPLASH=splash10-001i-2900020002-aa46338024445045feef" "submitter=Aiko Barsch (Bruker)" "MoNA Rating=4.444444444444445"
Num Peaks: 52
112.9835 0.700701
116.9278 1.501502
128.0096 2.202202
174.9561 1.301301
462.2552 0.700701
556.0020 7.607608
566.2837 21.421421
566.7852 12.712713
567.2864 5.305305
589.2879 5.805806
589.7869 3.603604
765.4396 1.001001
865.4220 7.007007
866.4189 3.403403
867.4205 0.900901
925.5112 8.708709
926.5169 5.305305
927.5071 2.002002
928.4918 1.001001
955.4868 20.520521
955.9876 1.101101
956.4894 11.211211
957.4942 4.204204
971.4816 1.301301
973.4965 10.110110
974.5004 5.005005
998.4884 0.900901
998.9915 2.002002
1021.5281 2.602603
1022.0301 2.902903
1030.5277 0.900901
1031.0286 1.901902
1044.5293 4.404404
1045.0304 4.804805
1045.5420 1.801802
1087.5638 23.123123
1088.5664 14.014014
1089.5710 5.205205
1110.5728 4.504505
1111.0750 5.505506
1111.5731 3.803804
1112.0773 0.900901
1123.5435 4.204204
1124.5411 1.501502
1125.5370 2.502503
1133.5715 100.000000
1134.0723 5.005005
1134.5730 62.462462
1135.0688 0.900901
1135.5759 25.225225
1136.5762 6.906907
1137.5793 1.201201


Name: 3-(Rha(1-2)Glu(1-2)Glu-28-Glu oleanolic acid
Synon: $:00in-source
DB#: MetaboBASE1130
InChIKey: NQRGKZPCORAPOM-LRUKXMSVSA-N
Instrument_type: LC-ESI-TOF
Instrument: impact HD
Ion_mode: N
Formula: C54H88O22
MW: 1088
ExactMass: 1088.576724456
Comments: "SMILES=C1[C@@H](C(C2[C@](C1)(C1[C@@](CC2)([C@]2(C(=CC1)[C@H]1[C@@](CC2)(CCC(C1)(C)C)C(=O)O[C@H]1[C@@H]([C@H]([C@@H]([C@H](O1)CO)O)O)O)C)C)C)(C)C)O[C@@H]1O[C@@H]([C@H]([C@@H]([C@H]1O[C@@H]1O[C@@H]([C@H]([C@@H]([C@H]1O[C@@H]1O[C@H]([C@@H]([C@H]([C@H]1O)O)O)C)O)O)CO)O)O)CO" "InChI=InChI=1S/C54H88O22/c1-23-32(58)36(62)40(66)44(69-23)74-43-39(65)35(61)28(22-57)72-47(43)75-42-38(64)34(60)27(21-56)71-46(42)73-31-12-13-51(6)29(50(31,4)5)11-14-53(8)30(51)10-9-24-25-19-49(2,3)15-17-54(25,18-16-52(24,53)7)48(68)76-45-41(67)37(63)33(59)26(20-55)70-45/h9,23,25-47,55-67H,10-22H2,1-8H3/t23-,25-,26+,27+,28+,29?,30?,31-,32-,33+,34+,35+,36+,37-,38-,39-,40+,41+,42+,43+,44-,45-,46-,47-,51-,52+,53+,54-/m0/s1" "computed SMILES=O=C(OC1OC(CO)C(O)C(O)C1O)C23CCC(C)(C)CC3C4=CCC5C6(C)CCC(OC7OC(CO)C(O)C(O)C7OC8OC(CO)C(O)C(O)C8OC9OC(C)C(O)C(O)C9O)C(C)(C)C6CCC5(C)C4(C)CC2" "license=License CC-BY-NC-SA 4.0 International" "author=Plant Biology, The Noble Foundation, Ardmore, OK, US/Dennis Fine, Daniel Wherritt, and Lloyd Sumner" "ionization=ESI" "peak width=0.016" "date=2014-06-03 20:53:11+02:00" "column=Waters Acquity BEH C18 1.7um x 2.1 x 150 mm" "retention time=861.6" "raw data file=C:\Data\BWatson\14Jun03_BW_HR1-D_MSMS_2-A,1_01_198.d" "SPLASH=splash10-001i-2910010002-8d2ad642b911e3f3c8f6" "submitter=Aiko Barsch (Bruker)" "MoNA Rating=3.888888888888889"
Num Peaks: 24
128.0101 4.704705
566.2863 18.518519
566.7864 12.112112
925.5183 17.417417
926.5223 10.010010
953.4438 7.107107
955.4942 20.020020
956.4951 9.509510
973.4980 4.904905
1087.5706 28.728729
1088.5764 19.219219
1089.5804 7.707708
1110.5806 6.406406
1111.0750 7.807808
1111.5768 5.805806
1133.5786 100.000000
1134.0773 4.704705
1134.5814 63.563564
1135.5831 26.326326
1136.5840 6.506507
1201.5676 6.806807
1205.5112 5.005005
1216.5917 10.010010
1217.5958 7.207207


Name: 3-(Rha(1-2)Glu(1-2)Glu-28-Glu oleanolic acid
Synon: $:00in-source
DB#: MetaboBASE1131
InChIKey: NQRGKZPCORAPOM-LRUKXMSVSA-N
Precursor_type: [M+FA-H]-
Spectrum_type: MS2
PrecursorMZ: 1133.65
Instrument_type: LC-ESI-TOF
Instrument: impact HD
Ion_mode: N
Collision_energy: 61.2619
Formula: C54H88O22
MW: 1088
ExactMass: 1088.576724456
Comments: "SMILES=C1[C@@H](C(C2[C@](C1)(C1[C@@](CC2)([C@]2(C(=CC1)[C@H]1[C@@](CC2)(CCC(C1)(C)C)C(=O)O[C@H]1[C@@H]([C@H]([C@@H]([C@H](O1)CO)O)O)O)C)C)C)(C)C)O[C@@H]1O[C@@H]([C@H]([C@@H]([C@H]1O[C@@H]1O[C@@H]([C@H]([C@@H]([C@H]1O[C@@H]1O[C@H]([C@@H]([C@H]([C@H]1O)O)O)C)O)O)CO)O)O)CO" "InChI=InChI=1S/C54H88O22/c1-23-32(58)36(62)40(66)44(69-23)74-43-39(65)35(61)28(22-57)72-47(43)75-42-38(64)34(60)27(21-56)71-46(42)73-31-12-13-51(6)29(50(31,4)5)11-14-53(8)30(51)10-9-24-25-19-49(2,3)15-17-54(25,18-16-52(24,53)7)48(68)76-45-41(67)37(63)33(59)26(20-55)70-45/h9,23,25-47,55-67H,10-22H2,1-8H3/t23-,25-,26+,27+,28+,29?,30?,31-,32-,33+,34+,35+,36+,37-,38-,39-,40+,41+,42+,43+,44-,45-,46-,47-,51-,52+,53+,54-/m0/s1" "computed SMILES=O=C(OC1OC(CO)C(O)C(O)C1O)C23CCC(C)(C)CC3C4=CCC5C6(C)CCC(OC7OC(CO)C(O)C(O)C7OC8OC(CO)C(O)C(O)C8OC9OC(C)C(O)C(O)C9O)C(C)(C)C6CCC5(C)C4(C)CC2" "license=License CC-BY-NC-SA 4.0 International" "author=Plant Biology, The Noble Foundation, Ardmore, OK, US/Dennis Fine, Daniel Wherritt, and Lloyd Sumner" "ionization=ESI" "isolation width=11.3365" "collision energy 2=102.103" "peak width=0.016" "date=2014-06-03 20:53:11+02:00" "column=Waters Acquity BEH C18 1.7um x 2.1 x 150 mm" "retention time=861.6" "raw data file=C:\Data\BWatson\14Jun03_BW_HR1-D_MSMS_2-A,1_01_198.d" "computed mass accuracy=66.22374101355562" "computed mass error=0.07507454400001734" "SPLASH=splash10-004i-0000102309-f6a169f9ba0e8cf0619d" "submitter=Aiko Barsch (Bruker)" "MoNA Rating=4.545454545454546"
Num Peaks: 11
455.3535 25.825826
456.3540 6.706707
599.3942 7.907908
617.4058 40.340340
618.4097 16.616617
761.4499 10.110110
779.4590 41.841842
780.4654 20.620621
925.5164 100.000000
926.5194 55.055055
927.5215 18.418418


Name: 3-Rha-Gal-GluA-22-DDMP Soyasaponenol B
Synon: $:00in-source
DB#: MetaboBASE1132
InChIKey: ONAAMCDHQSWPDU-NVXZJFILSA-N
Precursor_type: [M+FA-H]-
Spectrum_type: MS2
PrecursorMZ: 1113.549
Instrument_type: LC-ESI-TOF
Instrument: impact HD
Ion_mode: N
Collision_energy: 60.5081
Formula: C54H84O21
MW: 1068
ExactMass: 1068.550509708
Comments: "SMILES=C1[C@@H]([C@@](C2[C@](C1)(C1[C@@](CC2)([C@]2(C(=CC1)[C@H]1[C@@](CC2)([C@@H](CC(C1)(C)C)OC1OC(=C(C(=O)C1)O)C)C)C)C)C)(CO)C)O[C@@H]1O[C@@H]([C@H]([C@@H]([C@H]1O[C@@H]1O[C@@H]([C@@H]([C@@H]([C@H]1O[C@@H]1O[C@H]([C@@H]([C@H]([C@H]1O)O)O)C)O)O)CO)O)O)C(=O)O" "InChI=InChI=1S/C54H84O21/c1-23-34(58)27(57)18-33(68-23)71-32-20-49(3,4)19-26-25-10-11-30-51(6)14-13-31(52(7,22-56)29(51)12-15-54(30,9)53(25,8)17-16-50(26,32)5)72-48-44(40(64)39(63)42(73-48)45(66)67)75-47-43(38(62)36(60)28(21-55)70-47)74-46-41(65)37(61)35(59)24(2)69-46/h10,24,26,28-33,35-44,46-48,55-56,58-65H,11-22H2,1-9H3,(H,66,67)/t24-,26-,28+,29?,30?,31-,32+,33?,35-,36-,37+,38-,39-,40-,41+,42-,43+,44+,46-,47-,48+,50+,51-,52+,53+,54+/m0/s1" "computed SMILES=O=C(O)C1OC(OC2CCC3(C)C4CC=C5C6CC(C)(C)CC(OC7OC(=C(O)C(=O)C7)C)C6(C)CCC5(C)C4(C)CCC3C2(C)CO)C(OC8OC(CO)C(O)C(O)C8OC9OC(C)C(O)C(O)C9O)C(O)C1O" "license=License CC-BY-NC-SA 4.0 International" "author=Plant Biology, The Noble Foundation, Ardmore, OK, US/Dennis Fine, Daniel Wherritt, and Lloyd Sumner" "ionization=ESI" "collision energy 2=100.847" "peak width=0.024" "date=2014-11-20 07:21:14+01:00" "column=Waters Acquity BEH C18 1.7um x 2.1 x 150 mm" "retention time=1143.6" "raw data file=C:\Data\2014Nov12_A-17 aerial root MS MSMS\A-17 root better MSMS_1-A,3_01_1296.d" "computed mass accuracy=0.2597927885831641" "computed mass error=2.892919999339938E-4" "SPLASH=splash10-014i-9000000000-e233d560922b9a468231" "submitter=Aiko Barsch (Bruker)" "MoNA Rating=4.615384615384616"
Num Peaks: 4
1067.542 100.000000
1068.544 55.655656
1069.552 18.318318
1070.553 3.603604


Name: 3-Rha-Gal-GluA-22-DDMP Soyasaponenol B
Synon: $:00in-source
DB#: MetaboBASE1133
InChIKey: ONAAMCDHQSWPDU-NVXZJFILSA-N
Instrument_type: LC-ESI-TOF
Instrument: impact HD
Ion_mode: N
Formula: C54H84O21
MW: 1068
ExactMass: 1068.550509708
Comments: "SMILES=C1[C@@H]([C@@](C2[C@](C1)(C1[C@@](CC2)([C@]2(C(=CC1)[C@H]1[C@@](CC2)([C@@H](CC(C1)(C)C)OC1OC(=C(C(=O)C1)O)C)C)C)C)C)(CO)C)O[C@@H]1O[C@@H]([C@H]([C@@H]([C@H]1O[C@@H]1O[C@@H]([C@@H]([C@@H]([C@H]1O[C@@H]1O[C@H]([C@@H]([C@H]([C@H]1O)O)O)C)O)O)CO)O)O)C(=O)O" "InChI=InChI=1S/C54H84O21/c1-23-34(58)27(57)18-33(68-23)71-32-20-49(3,4)19-26-25-10-11-30-51(6)14-13-31(52(7,22-56)29(51)12-15-54(30,9)53(25,8)17-16-50(26,32)5)72-48-44(40(64)39(63)42(73-48)45(66)67)75-47-43(38(62)36(60)28(21-55)70-47)74-46-41(65)37(61)35(59)24(2)69-46/h10,24,26,28-33,35-44,46-48,55-56,58-65H,11-22H2,1-9H3,(H,66,67)/t24-,26-,28+,29?,30?,31-,32+,33?,35-,36-,37+,38-,39-,40-,41+,42-,43+,44+,46-,47-,48+,50+,51-,52+,53+,54+/m0/s1" "computed SMILES=O=C(O)C1OC(OC2CCC3(C)C4CC=C5C6CC(C)(C)CC(OC7OC(=C(O)C(=O)C7)C)C6(C)CCC5(C)C4(C)CCC3C2(C)CO)C(OC8OC(CO)C(O)C(O)C8OC9OC(C)C(O)C(O)C9O)C(O)C1O" "license=License CC-BY-NC-SA 4.0 International" "author=Plant Biology, The Noble Foundation, Ardmore, OK, US/Dennis Fine, Daniel Wherritt, and Lloyd Sumner" "ionization=ESI" "peak width=0.024" "date=2014-11-20 07:21:14+01:00" "column=Waters Acquity BEH C18 1.7um x 2.1 x 150 mm" "retention time=1143.6" "raw data file=C:\Data\2014Nov12_A-17 aerial root MS MSMS\A-17 root better MSMS_1-A,3_01_1296.d" "SPLASH=splash10-014i-9400000000-d6c2e7bc4b358094db22" "submitter=Aiko Barsch (Bruker)" "MoNA Rating=3.888888888888889"
Num Peaks: 11
1067.544 100.000000
1068.547 62.362362
1069.549 21.521522
1070.552 5.605606
1083.538 5.905906
1084.545 4.904905
1113.549 48.248248
1114.552 29.729730
1115.555 10.310310
1135.530 10.910911
1136.533 6.906907


Name: 3-Rha-Gal-GluA-22-DDMP Soyasaponenol B
Synon: $:00in-source
DB#: MetaboBASE1134
InChIKey: ONAAMCDHQSWPDU-NVXZJFILSA-N
Instrument_type: LC-ESI-TOF
Instrument: impact HD
Ion_mode: N
Formula: C54H84O21
MW: 1068
ExactMass: 1068.550509708
Comments: "SMILES=C1[C@@H]([C@@](C2[C@](C1)(C1[C@@](CC2)([C@]2(C(=CC1)[C@H]1[C@@](CC2)([C@@H](CC(C1)(C)C)OC1OC(=C(C(=O)C1)O)C)C)C)C)C)(CO)C)O[C@@H]1O[C@@H]([C@H]([C@@H]([C@H]1O[C@@H]1O[C@@H]([C@@H]([C@@H]([C@H]1O[C@@H]1O[C@H]([C@@H]([C@H]([C@H]1O)O)O)C)O)O)CO)O)O)C(=O)O" "InChI=InChI=1S/C54H84O21/c1-23-34(58)27(57)18-33(68-23)71-32-20-49(3,4)19-26-25-10-11-30-51(6)14-13-31(52(7,22-56)29(51)12-15-54(30,9)53(25,8)17-16-50(26,32)5)72-48-44(40(64)39(63)42(73-48)45(66)67)75-47-43(38(62)36(60)28(21-55)70-47)74-46-41(65)37(61)35(59)24(2)69-46/h10,24,26,28-33,35-44,46-48,55-56,58-65H,11-22H2,1-9H3,(H,66,67)/t24-,26-,28+,29?,30?,31-,32+,33?,35-,36-,37+,38-,39-,40-,41+,42-,43+,44+,46-,47-,48+,50+,51-,52+,53+,54+/m0/s1" "computed SMILES=O=C(O)C1OC(OC2CCC3(C)C4CC=C5C6CC(C)(C)CC(OC7OC(=C(O)C(=O)C7)C)C6(C)CCC5(C)C4(C)CCC3C2(C)CO)C(OC8OC(CO)C(O)C(O)C8OC9OC(C)C(O)C(O)C9O)C(O)C1O" "license=License CC-BY-NC-SA 4.0 International" "author=Plant Biology, The Noble Foundation, Ardmore, OK, US/Dennis Fine, Daniel Wherritt, and Lloyd Sumner" "ionization=ESI" "peak width=0.017" "date=2014-06-03 20:53:11+02:00" "column=Waters Acquity BEH C18 1.7um x 2.1 x 150 mm" "retention time=1143.6" "raw data file=C:\Data\BWatson\14Jun03_BW_HR1-D_MSMS_2-A,1_01_198.d" "SPLASH=splash10-014i-9300000000-49f47f33e05720b482bf" "submitter=Aiko Barsch (Bruker)" "MoNA Rating=3.888888888888889"
Num Peaks: 19
128.0098 2.102102
939.4911 2.302302
1067.5453 100.000000
1068.5475 63.263263
1069.5507 23.323323
1070.5497 6.406406
1071.5426 2.202202
1083.5406 3.703704
1084.5359 2.702703
1103.5262 2.202202
1113.5499 33.833834
1114.5526 21.621622
1115.5549 8.408408
1116.5557 2.702703
1135.5328 5.305305
1136.5331 3.603604
1185.4851 2.602603
1196.5607 4.004004
1197.5570 2.702703


Name: 3-Rha-Gal-GluA-22-DDMP Soyasaponenol B
Synon: $:00in-source
DB#: MetaboBASE1135
InChIKey: ONAAMCDHQSWPDU-NVXZJFILSA-N
Precursor_type: [M-H]-
Spectrum_type: MS2
PrecursorMZ: 1067.544
Instrument_type: LC-ESI-TOF
Instrument: impact HD
Ion_mode: N
Collision_energy: 58.7829
Formula: C54H84O21
MW: 1068
ExactMass: 1068.550509708
Comments: "SMILES=C1[C@@H]([C@@](C2[C@](C1)(C1[C@@](CC2)([C@]2(C(=CC1)[C@H]1[C@@](CC2)([C@@H](CC(C1)(C)C)OC1OC(=C(C(=O)C1)O)C)C)C)C)C)(CO)C)O[C@@H]1O[C@@H]([C@H]([C@@H]([C@H]1O[C@@H]1O[C@@H]([C@@H]([C@@H]([C@H]1O[C@@H]1O[C@H]([C@@H]([C@H]([C@H]1O)O)O)C)O)O)CO)O)O)C(=O)O" "InChI=InChI=1S/C54H84O21/c1-23-34(58)27(57)18-33(68-23)71-32-20-49(3,4)19-26-25-10-11-30-51(6)14-13-31(52(7,22-56)29(51)12-15-54(30,9)53(25,8)17-16-50(26,32)5)72-48-44(40(64)39(63)42(73-48)45(66)67)75-47-43(38(62)36(60)28(21-55)70-47)74-46-41(65)37(61)35(59)24(2)69-46/h10,24,26,28-33,35-44,46-48,55-56,58-65H,11-22H2,1-9H3,(H,66,67)/t24-,26-,28+,29?,30?,31-,32+,33?,35-,36-,37+,38-,39-,40-,41+,42-,43+,44+,46-,47-,48+,50+,51-,52+,53+,54+/m0/s1" "computed SMILES=O=C(O)C1OC(OC2CCC3(C)C4CC=C5C6CC(C)(C)CC(OC7OC(=C(O)C(=O)C7)C)C6(C)CCC5(C)C4(C)CCC3C2(C)CO)C(OC8OC(CO)C(O)C(O)C8OC9OC(C)C(O)C(O)C9O)C(O)C1O" "license=License CC-BY-NC-SA 4.0 International" "author=Plant Biology, The Noble Foundation, Ardmore, OK, US/Dennis Fine, Daniel Wherritt, and Lloyd Sumner" "ionization=ESI" "collision energy 2=97.9715" "peak width=0.024" "date=2014-11-20 07:21:14+01:00" "column=Waters Acquity BEH C18 1.7um x 2.1 x 150 mm" "retention time=1143.6" "raw data file=C:\Data\2014Nov12_A-17 aerial root MS MSMS\A-17 root better MSMS_1-A,3_01_1296.d" "computed mass accuracy=0.7178083528244394" "computed mass error=7.662920002076135E-4" "SPLASH=splash10-014i-9000000000-1be3218c8a13908c709c" "submitter=Aiko Barsch (Bruker)" "MoNA Rating=4.615384615384616"
Num Peaks: 3
1067.540 100.000000
1068.547 56.156156
1069.553 19.019019


Name: 3-GluA Soyasapogenol B
Synon: $:00in-source
DB#: MetaboBASE1136
InChIKey: NARQRJFIZNOSJV-JMMGJMLBSA-N
Instrument_type: LC-ESI-TOF
Instrument: impact HD
Ion_mode: N
Collision_energy: 10
Formula: C36H58O9
MW: 634
ExactMass: 634.408083436
Comments: "SMILES=C1[C@@H]([C@@](C2[C@](C1)(C1[C@@](CC2)([C@]2(C(=CC1)[C@H]1[C@@](CC2)([C@@H](CC(C1)(C)C)O)C)C)C)C)(CO)C)O[C@@H]1O[C@@H]([C@H]([C@@H]([C@H]1O)O)O)C(=O)O" "InChI=InChI=1S/C36H58O9/c1-31(2)16-20-19-8-9-22-33(4)12-11-24(44-30-27(41)25(39)26(40)28(45-30)29(42)43)34(5,18-37)21(33)10-13-36(22,7)35(19,6)15-14-32(20,3)23(38)17-31/h8,20-28,30,37-41H,9-18H2,1-7H3,(H,42,43)/t20-,21?,22?,23+,24-,25-,26-,27+,28-,30+,32+,33-,34+,35+,36+/m0/s1" "computed SMILES=O=C(O)C1OC(OC2CCC3(C)C4CC=C5C6CC(C)(C)CC(O)C6(C)CCC5(C)C4(C)CCC3C2(C)CO)C(O)C(O)C1O" "license=License CC-BY-NC-SA 4.0 International" "author=Plant Biology, The Noble Foundation, Ardmore, OK, US/Dennis Fine, Daniel Wherritt, and Lloyd Sumner" "ionization=ESI" "peak width=0.012" "date=2014-06-03 18:50:43+02:00" "column=Waters Acquity BEH C18 1.7um x 2.1 x 150 mm" "retention time=1165.8" "raw data file=C:\Data\BWatson\14Jun03_BW_HR_1-12_2-A,3_01_195.d" "SPLASH=splash10-001i-0010009100-9d46494afa43cb546a26" "submitter=Aiko Barsch (Bruker)" "MoNA Rating=4.444444444444445"
Num Peaks: 33
128.0110 2.302302
279.0162 0.900901
556.0019 2.602603
633.4024 100.000000
634.4052 40.940941
635.4072 10.510511
636.4089 2.002002
647.3807 0.800801
685.4137 1.101101
701.3880 4.904905
702.3922 2.102102
703.4021 1.301301
733.3251 2.202202
734.3275 1.201201
751.3395 1.701702
752.3400 0.900901
763.3609 0.900901
769.3782 1.101101
773.3201 0.800801
784.4025 2.502503
785.4052 1.201201
852.3952 0.700701
1067.5667 2.702703
1068.5713 1.701702
1069.5728 0.700701
1113.5778 1.201201
1114.5739 0.800801
1115.5919 1.001001
1116.5968 0.700701
1267.8634 11.311311
1268.8658 9.209209
1269.8698 4.204204
1270.8704 1.501502


Name: 3-GluA Soyasapogenol B
Synon: $:00in-source
DB#: MetaboBASE1137
InChIKey: NARQRJFIZNOSJV-JMMGJMLBSA-N
Instrument_type: LC-ESI-TOF
Instrument: impact HD
Ion_mode: N
Formula: C36H58O9
MW: 634
ExactMass: 634.408083436
Comments: "SMILES=C1[C@@H]([C@@](C2[C@](C1)(C1[C@@](CC2)([C@]2(C(=CC1)[C@H]1[C@@](CC2)([C@@H](CC(C1)(C)C)O)C)C)C)C)(CO)C)O[C@@H]1O[C@@H]([C@H]([C@@H]([C@H]1O)O)O)C(=O)O" "InChI=InChI=1S/C36H58O9/c1-31(2)16-20-19-8-9-22-33(4)12-11-24(44-30-27(41)25(39)26(40)28(45-30)29(42)43)34(5,18-37)21(33)10-13-36(22,7)35(19,6)15-14-32(20,3)23(38)17-31/h8,20-28,30,37-41H,9-18H2,1-7H3,(H,42,43)/t20-,21?,22?,23+,24-,25-,26-,27+,28-,30+,32+,33-,34+,35+,36+/m0/s1" "computed SMILES=O=C(O)C1OC(OC2CCC3(C)C4CC=C5C6CC(C)(C)CC(O)C6(C)CCC5(C)C4(C)CCC3C2(C)CO)C(O)C(O)C1O" "license=License CC-BY-NC-SA 4.0 International" "author=Plant Biology, The Noble Foundation, Ardmore, OK, US/Dennis Fine, Daniel Wherritt, and Lloyd Sumner" "ionization=ESI" "peak width=0.017" "date=2014-06-03 20:53:11+02:00" "column=Waters Acquity BEH C18 1.7um x 2.1 x 150 mm" "retention time=1165.8" "raw data file=C:\Data\BWatson\14Jun03_BW_HR1-D_MSMS_2-A,1_01_198.d" "SPLASH=splash10-001i-0000009000-ba814b748a439d866380" "submitter=Aiko Barsch (Bruker)" "MoNA Rating=3.888888888888889"
Num Peaks: 19
128.0101 6.906907
279.0094 2.402402
556.0021 3.203203
633.4034 100.000000
634.4061 38.438438
635.4073 8.808809
636.4113 2.002002
701.3886 5.305305
702.3895 2.102102
784.4040 2.902903
1067.5436 8.508509
1068.5444 5.705706
1069.5439 2.202202
1113.5455 3.703704
1114.5551 2.302302
1115.5601 2.002002
1267.8098 4.104104
1268.8083 3.403403
1269.8232 1.801802


Name: 3-GluA Soyasapogenol B
Synon: $:00in-source
DB#: MetaboBASE1138
InChIKey: NARQRJFIZNOSJV-JMMGJMLBSA-N
Precursor_type: [M-H]-
Spectrum_type: MS2
PrecursorMZ: 633.4006
Instrument_type: LC-ESI-TOF
Instrument: impact HD
Ion_mode: N
Collision_energy: 42.5041
Formula: C36H58O9
MW: 634
ExactMass: 634.408083436
Comments: "SMILES=C1[C@@H]([C@@](C2[C@](C1)(C1[C@@](CC2)([C@]2(C(=CC1)[C@H]1[C@@](CC2)([C@@H](CC(C1)(C)C)O)C)C)C)C)(CO)C)O[C@@H]1O[C@@H]([C@H]([C@@H]([C@H]1O)O)O)C(=O)O" "InChI=InChI=1S/C36H58O9/c1-31(2)16-20-19-8-9-22-33(4)12-11-24(44-30-27(41)25(39)26(40)28(45-30)29(42)43)34(5,18-37)21(33)10-13-36(22,7)35(19,6)15-14-32(20,3)23(38)17-31/h8,20-28,30,37-41H,9-18H2,1-7H3,(H,42,43)/t20-,21?,22?,23+,24-,25-,26-,27+,28-,30+,32+,33-,34+,35+,36+/m0/s1" "computed SMILES=O=C(O)C1OC(OC2CCC3(C)C4CC=C5C6CC(C)(C)CC(O)C6(C)CCC5(C)C4(C)CCC3C2(C)CO)C(O)C(O)C1O" "license=License CC-BY-NC-SA 4.0 International" "author=Plant Biology, The Noble Foundation, Ardmore, OK, US/Dennis Fine, Daniel Wherritt, and Lloyd Sumner" "ionization=ESI" "isolation width=8.53377" "collision energy 2=70.8402" "peak width=0.016" "date=2014-06-03 20:53:11+02:00" "column=Waters Acquity BEH C18 1.7um x 2.1 x 150 mm" "retention time=1165.8" "raw data file=C:\Data\BWatson\14Jun03_BW_HR1-D_MSMS_2-A,1_01_198.d" "computed mass accuracy=0.3274957426133183" "computed mass error=-2.074359998687214E-4" "SPLASH=splash10-001i-0000009000-d7aab4c172fb2dcd7f96" "submitter=Aiko Barsch (Bruker)" "MoNA Rating=4.615384615384616"
Num Peaks: 4
113.0237 13.513514
633.4006 100.000000
634.4025 36.836837
635.4066 9.009009


Name: 3-Glucuronyl-22-DDMP Soyasapogenol B
Synon: $:00in-source
DB#: MetaboBASE1139
InChIKey: JNXGVLRHSYOTKM-AIGSDHBOSA-N
Precursor_type: [M-H]-
Spectrum_type: MS2
PrecursorMZ: 759.4344
Instrument_type: LC-ESI-TOF
Instrument: impact HD
Ion_mode: N
Collision_energy: 47.2306
Formula: C42H64O12
MW: 760
ExactMass: 760.4397774879999
Comments: "SMILES=C1[C@@H]([C@@](C2[C@](C1)(C1[C@@](CC2)([C@]2(C(=CC1)[C@H]1[C@@](CC2)([C@@H](CC(C1)(C)C)O[C@H]1OC(=C(C(=O)C1)O)C)C)C)C)C)(CO)C)O[C@@H]1O[C@@H]([C@H]([C@@H]([C@H]1O)O)O)C(=O)O" "InChI=InChI=1S/C42H64O12/c1-21-30(45)24(44)17-29(51-21)52-28-19-37(2,3)18-23-22-9-10-26-39(5)13-12-27(53-36-33(48)31(46)32(47)34(54-36)35(49)50)40(6,20-43)25(39)11-14-42(26,8)41(22,7)16-15-38(23,28)4/h9,23,25-29,31-34,36,43,45-48H,10-20H2,1-8H3,(H,49,50)/t23-,25?,26?,27-,28+,29+,31-,32-,33+,34-,36+,38+,39-,40+,41+,42+/m0/s1" "computed SMILES=O=C(O)C1OC(OC2CCC3(C)C4CC=C5C6CC(C)(C)CC(OC7OC(=C(O)C(=O)C7)C)C6(C)CCC5(C)C4(C)CCC3C2(C)CO)C(O)C(O)C1O" "license=License CC-BY-NC-SA 4.0 International" "author=Plant Biology, The Noble Foundation, Ardmore, OK, US/Dennis Fine, Daniel Wherritt, and Lloyd Sumner" "ionization=ESI" "isolation width=9.03793" "collision energy 2=78.7177" "peak width=0.015" "date=2014-06-03 20:53:11+02:00" "column=Waters Acquity BEH C18 1.7um x 2.1 x 150 mm" "retention time=1300.8" "raw data file=C:\Data\BWatson\14Jun03_BW_HR1-D_MSMS_2-A,1_01_198.d" "computed mass accuracy=2.4999025592452857" "computed mass error=0.0018985120001389078" "SPLASH=splash10-0bt9-0100000900-3f3971bb5b0737b3a4bb" "submitter=Aiko Barsch (Bruker)" "MoNA Rating=4.583333333333334"
Num Peaks: 7
113.0247 16.916917
125.0247 4.204204
175.0255 3.003003
659.4184 3.503504
759.4344 100.000000
760.4362 43.043043
761.4387 11.311311


Name: 3-Glucuronyl-22-DDMP Soyasapogenol B
Synon: $:00in-source
DB#: MetaboBASE1140
InChIKey: JNXGVLRHSYOTKM-AIGSDHBOSA-N
Instrument_type: LC-ESI-TOF
Instrument: impact HD
Ion_mode: N
Formula: C42H64O12
MW: 760
ExactMass: 760.4397774879999
Comments: "SMILES=C1[C@@H]([C@@](C2[C@](C1)(C1[C@@](CC2)([C@]2(C(=CC1)[C@H]1[C@@](CC2)([C@@H](CC(C1)(C)C)O[C@H]1OC(=C(C(=O)C1)O)C)C)C)C)C)(CO)C)O[C@@H]1O[C@@H]([C@H]([C@@H]([C@H]1O)O)O)C(=O)O" "InChI=InChI=1S/C42H64O12/c1-21-30(45)24(44)17-29(51-21)52-28-19-37(2,3)18-23-22-9-10-26-39(5)13-12-27(53-36-33(48)31(46)32(47)34(54-36)35(49)50)40(6,20-43)25(39)11-14-42(26,8)41(22,7)16-15-38(23,28)4/h9,23,25-29,31-34,36,43,45-48H,10-20H2,1-8H3,(H,49,50)/t23-,25?,26?,27-,28+,29+,31-,32-,33+,34-,36+,38+,39-,40+,41+,42+/m0/s1" "computed SMILES=O=C(O)C1OC(OC2CCC3(C)C4CC=C5C6CC(C)(C)CC(OC7OC(=C(O)C(=O)C7)C)C6(C)CCC5(C)C4(C)CCC3C2(C)CO)C(O)C(O)C1O" "license=License CC-BY-NC-SA 4.0 International" "author=Plant Biology, The Noble Foundation, Ardmore, OK, US/Dennis Fine, Daniel Wherritt, and Lloyd Sumner" "ionization=ESI" "peak width=0.018" "date=2014-06-03 20:53:11+02:00" "column=Waters Acquity BEH C18 1.7um x 2.1 x 150 mm" "retention time=1300.8" "raw data file=C:\Data\BWatson\14Jun03_BW_HR1-D_MSMS_2-A,1_01_198.d" "SPLASH=splash10-0bt9-0000000900-d136cb71a8502e0b393a" "submitter=Aiko Barsch (Bruker)" "MoNA Rating=3.888888888888889"
Num Peaks: 21
128.0100 1.801802
556.0021 1.201201
631.3835 1.501502
633.4020 1.501502
731.4004 2.102102
747.3963 1.001001
759.4346 100.000000
760.4385 43.243243
761.4397 11.611612
762.4429 2.602603
763.4297 1.201201
775.4275 2.902903
776.4313 1.401401
793.4366 1.601602
827.4199 4.104104
828.4225 2.002002
832.4493 1.001001
859.3567 1.201201
877.3674 1.301301
910.4296 2.202202
911.4373 1.301301


Name: 3-Glucuronyl-22-DDMP Soyasapogenol B
Synon: $:00in-source
DB#: MetaboBASE1141
InChIKey: JNXGVLRHSYOTKM-AIGSDHBOSA-N
Instrument_type: LC-ESI-TOF
Instrument: impact HD
Ion_mode: N
Collision_energy: 10
Formula: C42H64O12
MW: 760
ExactMass: 760.439777488
Comments: "SMILES=C1[C@@H]([C@@](C2[C@](C1)(C1[C@@](CC2)([C@]2(C(=CC1)[C@H]1[C@@](CC2)([C@@H](CC(C1)(C)C)O[C@H]1OC(=C(C(=O)C1)O)C)C)C)C)C)(CO)C)O[C@@H]1O[C@@H]([C@H]([C@@H]([C@H]1O)O)O)C(=O)O" "InChI=InChI=1S/C42H64O12/c1-21-30(45)24(44)17-29(51-21)52-28-19-37(2,3)18-23-22-9-10-26-39(5)13-12-27(53-36-33(48)31(46)32(47)34(54-36)35(49)50)40(6,20-43)25(39)11-14-42(26,8)41(22,7)16-15-38(23,28)4/h9,23,25-29,31-34,36,43,45-48H,10-20H2,1-8H3,(H,49,50)/t23-,25?,26?,27-,28+,29+,31-,32-,33+,34-,36+,38+,39-,40+,41+,42+/m0/s1" "computed SMILES=O=C(O)C1OC(OC2CCC3(C)C4CC=C5C6CC(C)(C)CC(OC7OC(=C(O)C(=O)C7)C)C6(C)CCC5(C)C4(C)CCC3C2(C)CO)C(O)C(O)C1O" "license=License CC-BY-NC-SA 4.0 International" "author=Plant Biology, The Noble Foundation, Ardmore, OK, US/Dennis Fine, Daniel Wherritt, and Lloyd Sumner" "ionization=ESI" "peak width=0.011" "date=2014-06-03 18:50:43+02:00" "column=Waters Acquity BEH C18 1.7um x 2.1 x 150 mm" "retention time=1300.8" "raw data file=C:\Data\BWatson\14Jun03_BW_HR_1-12_2-A,3_01_195.d" "SPLASH=splash10-0bt9-0000000900-18e86d85938f908e306a" "submitter=Aiko Barsch (Bruker)" "MoNA Rating=4.444444444444445"
Num Peaks: 27
128.0111 1.101101
556.0019 1.701702
631.3848 1.401401
633.4012 1.501502
731.4023 2.002002
732.4055 1.001001
747.3953 1.001001
759.4368 100.000000
760.4398 48.848849
761.4417 14.714715
762.4432 3.403403
763.4365 1.401401
775.4303 3.103103
776.4318 1.601602
791.4379 1.101101
793.4413 1.601602
811.4510 1.001001
827.4241 4.304304
828.4276 2.202202
832.4528 1.101101
859.3649 2.002002
860.3680 1.201201
877.3761 2.302302
878.3800 1.401401
895.4178 1.001001
910.4408 2.302302
911.4456 1.301301


Name: 3-(Glucosyl(1-2) glucuronyl)-22-DDMP Soyasapogenol B
Synon: $:00in-source
DB#: MetaboBASE1142
InChIKey: OJLGASCOGOIOJR-OASJHIPRSA-N
Instrument_type: LC-ESI-TOF
Instrument: impact HD
Ion_mode: N
Collision_energy: 10
Formula: C48H74O17
MW: 922
ExactMass: 922.492600908
Comments: "SMILES=C1[C@@H]([C@@](C2[C@](C1)(C1[C@@](CC2)([C@]2(C(=CC1)[C@H]1[C@@](CC2)([C@@H](CC(C1)(C)C)O[C@H]1OC(=C(C(=O)C1)O)C)C)C)C)C)(CO)C)O[C@@H]1O[C@@H]([C@H]([C@@H]([C@H]1O[C@@H]1O[C@@H]([C@H]([C@@H]([C@H]1O)O)O)CO)O)O)C(=O)O" "InChI=InChI=1S/C48H74O17/c1-22-32(52)25(51)17-31(60-22)62-30-19-43(2,3)18-24-23-9-10-28-45(5)13-12-29(46(6,21-50)27(45)11-14-48(28,8)47(23,7)16-15-44(24,30)4)63-42-39(36(56)35(55)38(64-42)40(58)59)65-41-37(57)34(54)33(53)26(20-49)61-41/h9,24,26-31,33-39,41-42,49-50,52-57H,10-21H2,1-8H3,(H,58,59)/t24-,26+,27?,28?,29-,30+,31+,33+,34-,35-,36-,37+,38-,39+,41-,42+,44+,45-,46+,47+,48+/m0/s1" "computed SMILES=O=C(O)C1OC(OC2CCC3(C)C4CC=C5C6CC(C)(C)CC(OC7OC(=C(O)C(=O)C7)C)C6(C)CCC5(C)C4(C)CCC3C2(C)CO)C(OC8OC(CO)C(O)C(O)C8O)C(O)C1O" "license=License CC-BY-NC-SA 4.0 International" "author=Plant Biology, The Noble Foundation, Ardmore, OK, US/Dennis Fine, Daniel Wherritt, and Lloyd Sumner" "ionization=ESI" "peak width=0.014" "date=2014-06-03 20:12:23+02:00" "column=Waters Acquity BEH C18 1.7um x 2.1 x 150 mm" "retention time=1198.2" "raw data file=C:\Data\BWatson\14Jun03_BW_HR_144-2-1_2-A,5_01_197.d" "SPLASH=splash10-00di-0000000009-6ad747e9cd66b13e9b07" "submitter=Aiko Barsch (Bruker)" "MoNA Rating=4.444444444444445"
Num Peaks: 55
128.0103 5.605606
279.0099 2.202202
430.0089 1.301301
446.2233 1.601602
446.7254 1.001001
454.2206 2.002002
454.7235 1.101101
556.0021 4.104104
793.4373 2.202202
794.4402 1.201201
795.4547 2.602603
796.4556 1.301301
823.4506 1.101101
893.4528 4.004004
894.4561 2.102102
895.4592 1.101101
909.4534 1.101101
911.4659 1.601602
912.4679 1.101101
915.4640 1.101101
915.9719 1.201201
921.4874 100.000000
922.4904 55.255255
923.4926 18.718719
924.4940 5.105105
925.4874 2.302302
926.4818 1.201201
937.4804 4.004004
938.4834 2.302302
939.4853 1.201201
955.4889 2.402402
956.4946 1.401401
957.4598 1.401401
973.4946 1.501502
989.4729 5.805806
990.4759 3.403403
991.4710 1.501502
994.5027 1.901902
995.4990 1.001001
1021.4063 1.201201
1039.4215 2.802803
1040.4222 1.901902
1041.4329 1.101101
1050.4999 1.401401
1051.4508 1.201201
1057.4628 1.601602
1058.4670 1.001001
1067.5359 1.201201
1072.4873 3.103103
1073.4893 2.002002
1074.4897 1.001001
1140.4786 1.201201
1223.4832 1.001001
1383.2264 1.001001
1383.7310 1.101101


Name: 3-(Glucosyl(1-2) glucuronyl)-22-DDMP Soyasapogenol B
Synon: $:00in-source
DB#: MetaboBASE1143
InChIKey: OJLGASCOGOIOJR-OASJHIPRSA-N
Precursor_type: [M-H]-
Spectrum_type: MS2
PrecursorMZ: 921.4949
Instrument_type: LC-ESI-TOF
Instrument: impact HD
Ion_mode: N
Collision_energy: 53.3081
Formula: C48H74O17
MW: 922
ExactMass: 922.492600908
Comments: "SMILES=C1[C@@H]([C@@](C2[C@](C1)(C1[C@@](CC2)([C@]2(C(=CC1)[C@H]1[C@@](CC2)([C@@H](CC(C1)(C)C)O[C@H]1OC(=C(C(=O)C1)O)C)C)C)C)C)(CO)C)O[C@@H]1O[C@@H]([C@H]([C@@H]([C@H]1O[C@@H]1O[C@@H]([C@H]([C@@H]([C@H]1O)O)O)CO)O)O)C(=O)O" "InChI=InChI=1S/C48H74O17/c1-22-32(52)25(51)17-31(60-22)62-30-19-43(2,3)18-24-23-9-10-28-45(5)13-12-29(46(6,21-50)27(45)11-14-48(28,8)47(23,7)16-15-44(24,30)4)63-42-39(36(56)35(55)38(64-42)40(58)59)65-41-37(57)34(54)33(53)26(20-49)61-41/h9,24,26-31,33-39,41-42,49-50,52-57H,10-21H2,1-8H3,(H,58,59)/t24-,26+,27?,28?,29-,30+,31+,33+,34-,35-,36-,37+,38-,39+,41-,42+,44+,45-,46+,47+,48+/m0/s1" "computed SMILES=O=C(O)C1OC(OC2CCC3(C)C4CC=C5C6CC(C)(C)CC(OC7OC(=C(O)C(=O)C7)C)C6(C)CCC5(C)C4(C)CCC3C2(C)CO)C(OC8OC(CO)C(O)C(O)C8O)C(O)C1O" "license=License CC-BY-NC-SA 4.0 International" "author=Plant Biology, The Noble Foundation, Ardmore, OK, US/Dennis Fine, Daniel Wherritt, and Lloyd Sumner" "ionization=ESI" "isolation width=9.6862" "collision energy 2=88.8469" "peak width=0.018" "date=2014-06-03 22:55:36+02:00" "column=Waters Acquity BEH C18 1.7um x 2.1 x 150 mm" "retention time=1198.2" "raw data file=C:\Data\BWatson\14Jun03_BW_HR144-2-5_MSMS_2-A,4_01_201.d" "computed mass accuracy=10.390824734994181" "computed mass error=0.00957509200009099" "SPLASH=splash10-00di-0000000009-4f94488be39f53b0db73" "submitter=Aiko Barsch (Bruker)" "MoNA Rating=4.545454545454546"
Num Peaks: 10
99.0094 4.004004
101.0257 3.703704
113.0257 6.206206
125.0257 3.603604
741.4374 2.502503
821.4822 2.502503
921.4949 100.000000
922.4988 53.353353
923.5018 14.214214
924.5069 2.302302


Name: 3-(Glucosyl(1-2) glucuronyl)-22-DDMP Soyasapogenol B
Synon: $:00in-source
DB#: MetaboBASE1144
InChIKey: OJLGASCOGOIOJR-OASJHIPRSA-N
Instrument_type: LC-ESI-TOF
Instrument: impact HD
Ion_mode: N
Formula: C48H74O17
MW: 922
ExactMass: 922.492600908
Comments: "SMILES=C1[C@@H]([C@@](C2[C@](C1)(C1[C@@](CC2)([C@]2(C(=CC1)[C@H]1[C@@](CC2)([C@@H](CC(C1)(C)C)O[C@H]1OC(=C(C(=O)C1)O)C)C)C)C)C)(CO)C)O[C@@H]1O[C@@H]([C@H]([C@@H]([C@H]1O[C@@H]1O[C@@H]([C@H]([C@@H]([C@H]1O)O)O)CO)O)O)C(=O)O" "InChI=InChI=1S/C48H74O17/c1-22-32(52)25(51)17-31(60-22)62-30-19-43(2,3)18-24-23-9-10-28-45(5)13-12-29(46(6,21-50)27(45)11-14-48(28,8)47(23,7)16-15-44(24,30)4)63-42-39(36(56)35(55)38(64-42)40(58)59)65-41-37(57)34(54)33(53)26(20-49)61-41/h9,24,26-31,33-39,41-42,49-50,52-57H,10-21H2,1-8H3,(H,58,59)/t24-,26+,27?,28?,29-,30+,31+,33+,34-,35-,36-,37+,38-,39+,41-,42+,44+,45-,46+,47+,48+/m0/s1" "computed SMILES=O=C(O)C1OC(OC2CCC3(C)C4CC=C5C6CC(C)(C)CC(OC7OC(=C(O)C(=O)C7)C)C6(C)CCC5(C)C4(C)CCC3C2(C)CO)C(OC8OC(CO)C(O)C(O)C8O)C(O)C1O" "license=License CC-BY-NC-SA 4.0 International" "author=Plant Biology, The Noble Foundation, Ardmore, OK, US/Dennis Fine, Daniel Wherritt, and Lloyd Sumner" "ionization=ESI" "peak width=0.018" "date=2014-06-03 22:55:36+02:00" "column=Waters Acquity BEH C18 1.7um x 2.1 x 150 mm" "retention time=1198.2" "raw data file=C:\Data\BWatson\14Jun03_BW_HR144-2-5_MSMS_2-A,4_01_201.d" "SPLASH=splash10-00di-0000000009-3b15994f9704fc2b8577" "submitter=Aiko Barsch (Bruker)" "MoNA Rating=3.888888888888889"
Num Peaks: 17
128.0117 1.601602
793.4434 1.901902
921.4982 100.000000
922.5001 55.355355
923.5040 18.818819
924.5048 4.704705
925.4913 1.701702
937.4903 3.503504
938.4994 2.202202
955.5020 1.901902
989.4833 4.904905
990.4865 2.602603
1039.4373 1.501502
1072.4901 1.901902
1382.7489 1.501502
1383.2499 2.302302
1383.7567 2.102102


Name: 3-(Galactosyl(1-2) glucuronyl)-22-DDMP Soyasapogenol B
Synon: $:00in-source
DB#: MetaboBASE1145
InChIKey: OJLGASCOGOIOJR-QRWYWMMOSA-N
Precursor_type: [M-H]-
Spectrum_type: MS2
PrecursorMZ: 921.4919
Instrument_type: LC-ESI-TOF
Instrument: impact HD
Ion_mode: N
Collision_energy: 53.3081
Formula: C48H74O17
MW: 922
ExactMass: 922.492600908
Comments: "SMILES=C1[C@@H]([C@@](C2[C@](C1)(C1[C@@](CC2)([C@]2(C(=CC1)[C@H]1[C@@](CC2)([C@@H](CC(C1)(C)C)O[C@H]1OC(=C(C(=O)C1)O)C)C)C)C)C)(CO)C)O[C@@H]1O[C@@H]([C@H]([C@@H]([C@H]1O[C@@H]1O[C@@H]([C@@H]([C@@H]([C@H]1O)O)O)CO)O)O)C(=O)O" "InChI=InChI=1S/C48H74O17/c1-22-32(52)25(51)17-31(60-22)62-30-19-43(2,3)18-24-23-9-10-28-45(5)13-12-29(46(6,21-50)27(45)11-14-48(28,8)47(23,7)16-15-44(24,30)4)63-42-39(36(56)35(55)38(64-42)40(58)59)65-41-37(57)34(54)33(53)26(20-49)61-41/h9,24,26-31,33-39,41-42,49-50,52-57H,10-21H2,1-8H3,(H,58,59)/t24-,26+,27?,28?,29-,30+,31+,33-,34-,35-,36-,37+,38-,39+,41-,42+,44+,45-,46+,47+,48+/m0/s1" "computed SMILES=O=C(O)C1OC(OC2CCC3(C)C4CC=C5C6CC(C)(C)CC(OC7OC(=C(O)C(=O)C7)C)C6(C)CCC5(C)C4(C)CCC3C2(C)CO)C(OC8OC(CO)C(O)C(O)C8O)C(O)C1O" "license=License CC-BY-NC-SA 4.0 International" "author=Plant Biology, The Noble Foundation, Ardmore, OK, US/Dennis Fine, Daniel Wherritt, and Lloyd Sumner" "ionization=ESI" "isolation width=9.6862" "collision energy 2=88.8469" "peak width=0.018" "date=2014-06-03 22:55:36+02:00" "column=Waters Acquity BEH C18 1.7um x 2.1 x 150 mm" "retention time=1189.2" "raw data file=C:\Data\BWatson\14Jun03_BW_HR144-2-5_MSMS_2-A,4_01_201.d" "computed mass accuracy=7.135268362150816" "computed mass error=0.006575092000048244" "SPLASH=splash10-00di-0000000009-4091f6df88997892b926" "submitter=Aiko Barsch (Bruker)" "MoNA Rating=4.545454545454546"
Num Peaks: 11
99.0100 3.403403
101.0251 3.703704
113.0250 5.005005
119.0352 3.603604
157.0154 2.902903
741.4218 2.402402
821.4692 1.901902
921.4919 100.000000
922.4941 51.951952
923.4956 15.015015
924.4849 2.802803


Name: 3-(Galactosyl(1-2) glucuronyl)-22-DDMP Soyasapogenol B
Synon: $:00in-source
DB#: MetaboBASE1146
InChIKey: OJLGASCOGOIOJR-QRWYWMMOSA-N
Instrument_type: LC-ESI-TOF
Instrument: impact HD
Ion_mode: N
Formula: C48H74O17
MW: 922
ExactMass: 922.492600908
Comments: "SMILES=C1[C@@H]([C@@](C2[C@](C1)(C1[C@@](CC2)([C@]2(C(=CC1)[C@H]1[C@@](CC2)([C@@H](CC(C1)(C)C)O[C@H]1OC(=C(C(=O)C1)O)C)C)C)C)C)(CO)C)O[C@@H]1O[C@@H]([C@H]([C@@H]([C@H]1O[C@@H]1O[C@@H]([C@@H]([C@@H]([C@H]1O)O)O)CO)O)O)C(=O)O" "InChI=InChI=1S/C48H74O17/c1-22-32(52)25(51)17-31(60-22)62-30-19-43(2,3)18-24-23-9-10-28-45(5)13-12-29(46(6,21-50)27(45)11-14-48(28,8)47(23,7)16-15-44(24,30)4)63-42-39(36(56)35(55)38(64-42)40(58)59)65-41-37(57)34(54)33(53)26(20-49)61-41/h9,24,26-31,33-39,41-42,49-50,52-57H,10-21H2,1-8H3,(H,58,59)/t24-,26+,27?,28?,29-,30+,31+,33-,34-,35-,36-,37+,38-,39+,41-,42+,44+,45-,46+,47+,48+/m0/s1" "computed SMILES=O=C(O)C1OC(OC2CCC3(C)C4CC=C5C6CC(C)(C)CC(OC7OC(=C(O)C(=O)C7)C)C6(C)CCC5(C)C4(C)CCC3C2(C)CO)C(OC8OC(CO)C(O)C(O)C8O)C(O)C1O" "license=License CC-BY-NC-SA 4.0 International" "author=Plant Biology, The Noble Foundation, Ardmore, OK, US/Dennis Fine, Daniel Wherritt, and Lloyd Sumner" "ionization=ESI" "peak width=0.018" "date=2014-06-03 22:55:36+02:00" "column=Waters Acquity BEH C18 1.7um x 2.1 x 150 mm" "retention time=1189.2" "raw data file=C:\Data\BWatson\14Jun03_BW_HR144-2-5_MSMS_2-A,4_01_201.d" "SPLASH=splash10-00di-0000000009-3d32ef4f43dae2b781e5" "submitter=Aiko Barsch (Bruker)" "MoNA Rating=3.888888888888889"
Num Peaks: 12
128.0104 4.104104
279.0095 1.501502
793.4389 3.303303
921.4868 100.000000
922.4898 53.953954
923.4908 18.418418
924.4925 4.104104
937.4810 5.605606
938.4864 3.103103
955.4877 2.902903
989.4714 5.605606
990.4689 3.003003


Name: 3-(Galactosyl(1-2) glucuronyl)-22-DDMP Soyasapogenol B
Synon: $:00in-source
DB#: MetaboBASE1147
InChIKey: OJLGASCOGOIOJR-QRWYWMMOSA-N
Instrument_type: LC-ESI-TOF
Instrument: impact HD
Ion_mode: N
Collision_energy: 10
Formula: C48H74O17
MW: 922
ExactMass: 922.492600908
Comments: "SMILES=C1[C@@H]([C@@](C2[C@](C1)(C1[C@@](CC2)([C@]2(C(=CC1)[C@H]1[C@@](CC2)([C@@H](CC(C1)(C)C)O[C@H]1OC(=C(C(=O)C1)O)C)C)C)C)C)(CO)C)O[C@@H]1O[C@@H]([C@H]([C@@H]([C@H]1O[C@@H]1O[C@@H]([C@@H]([C@@H]([C@H]1O)O)O)CO)O)O)C(=O)O" "InChI=InChI=1S/C48H74O17/c1-22-32(52)25(51)17-31(60-22)62-30-19-43(2,3)18-24-23-9-10-28-45(5)13-12-29(46(6,21-50)27(45)11-14-48(28,8)47(23,7)16-15-44(24,30)4)63-42-39(36(56)35(55)38(64-42)40(58)59)65-41-37(57)34(54)33(53)26(20-49)61-41/h9,24,26-31,33-39,41-42,49-50,52-57H,10-21H2,1-8H3,(H,58,59)/t24-,26+,27?,28?,29-,30+,31+,33-,34-,35-,36-,37+,38-,39+,41-,42+,44+,45-,46+,47+,48+/m0/s1" "computed SMILES=O=C(O)C1OC(OC2CCC3(C)C4CC=C5C6CC(C)(C)CC(OC7OC(=C(O)C(=O)C7)C)C6(C)CCC5(C)C4(C)CCC3C2(C)CO)C(OC8OC(CO)C(O)C(O)C8O)C(O)C1O" "license=License CC-BY-NC-SA 4.0 International" "author=Plant Biology, The Noble Foundation, Ardmore, OK, US/Dennis Fine, Daniel Wherritt, and Lloyd Sumner" "ionization=ESI" "peak width=0.014" "date=2014-06-03 20:12:23+02:00" "column=Waters Acquity BEH C18 1.7um x 2.1 x 150 mm" "retention time=1189.2" "raw data file=C:\Data\BWatson\14Jun03_BW_HR_144-2-1_2-A,5_01_197.d" "SPLASH=splash10-00di-0000000009-b993d47436754f3c4c46" "submitter=Aiko Barsch (Bruker)" "MoNA Rating=4.444444444444445"
Num Peaks: 51
128.0103 4.404404
279.0096 1.701702
430.0090 1.001001
446.2243 1.501502
454.2219 1.501502
556.0021 3.503504
793.4368 2.302302
794.4420 1.301301
795.4512 2.402402
796.4576 1.301301
893.4551 3.203203
894.4559 1.901902
909.4458 1.001001
911.4611 1.401401
915.4683 1.301301
915.9681 1.201201
916.4757 1.201201
921.4875 100.000000
922.4910 55.455455
923.4928 19.019019
924.4949 5.105105
925.4882 2.102102
926.4828 1.401401
937.4819 4.104104
938.4835 2.602603
939.4872 1.301301
953.4725 1.101101
955.4887 2.502503
956.4941 1.501502
957.4629 1.401401
973.4955 1.501502
974.5014 1.101101
989.4734 5.605606
990.4778 3.303303
991.4769 1.501502
994.5000 2.202202
995.5038 1.501502
1021.4127 1.301301
1039.4203 2.502503
1040.4260 1.601602
1041.4286 1.201201
1050.5052 1.201201
1051.4415 1.301301
1057.4595 1.601602
1058.4670 1.201201
1067.5378 1.401401
1072.4843 3.003003
1073.4907 2.002002
1074.4872 0.900901
1140.4729 1.101101
1223.4818 1.001001


Name: 3-Gal(1-2)GluA Soyasapogenol B
Synon: $:00in-source
DB#: MetaboBASE1148
InChIKey: OKIHRVKXRCAJFQ-VAJUJSSWSA-N
Instrument_type: LC-ESI-TOF
Instrument: impact HD
Ion_mode: N
Collision_energy: 10
Formula: C42H68O14
MW: 796
ExactMass: 796.460906856
Comments: "SMILES=C1[C@@H]([C@@](C2[C@](C1)(C1[C@@](CC2)([C@]2(C(=CC1)[C@H]1[C@@](CC2)([C@@H](CC(C1)(C)C)O)C)C)C)C)(CO)C)O[C@@H]1O[C@@H]([C@H]([C@@H]([C@H]1O[C@@H]1O[C@@H]([C@@H]([C@@H]([C@H]1O)O)O)CO)O)O)C(=O)O" "InChI=InChI=1S/C42H68O14/c1-37(2)16-21-20-8-9-24-39(4)12-11-26(40(5,19-44)23(39)10-13-42(24,7)41(20,6)15-14-38(21,3)25(45)17-37)54-36-33(30(49)29(48)32(55-36)34(51)52)56-35-31(50)28(47)27(46)22(18-43)53-35/h8,21-33,35-36,43-50H,9-19H2,1-7H3,(H,51,52)/t21-,22+,23?,24?,25+,26-,27-,28-,29-,30-,31+,32-,33+,35-,36+,38+,39-,40+,41+,42+/m0/s1" "computed SMILES=O=C(O)C1OC(OC2CCC3(C)C(CCC4(C)C3CC=C5C6CC(C)(C)CC(O)C6(C)CCC54C)C2(C)CO)C(OC7OC(CO)C(O)C(O)C7O)C(O)C1O" "license=License CC-BY-NC-SA 4.0 International" "author=Plant Biology, The Noble Foundation, Ardmore, OK, US/Dennis Fine, Daniel Wherritt, and Lloyd Sumner" "ionization=ESI" "peak width=0.034" "date=2014-12-12 20:57:07+01:00" "column=Waters Acquity BEH C18 1.7um x 2.1 x 150 mm" "retention time=1060.8" "raw data file=C:\Data\Noble-Bruker MS libr eval complex mix\2014Dec_A17 aer rt mix MSMS_1-A,2_01_1447.d" "SPLASH=splash10-0002-0000000900-84935a65362aeb7dc136" "submitter=Aiko Barsch (Bruker)" "MoNA Rating=4.444444444444445"
Num Peaks: 13
795.454 100.000000
796.458 40.440440
797.459 9.509510
798.463 1.601602
863.441 7.707708
864.446 3.603604
865.448 1.101101
913.394 1.101101
931.428 1.901902
932.436 1.001001
1591.928 3.203203
1592.935 2.902903
1593.939 1.301301


Name: 3-Gal(1-2)GluA Soyasapogenol B
Synon: $:00in-source
DB#: MetaboBASE1149
InChIKey: OKIHRVKXRCAJFQ-VAJUJSSWSA-N
Precursor_type: [M-H]-
Spectrum_type: MS2
PrecursorMZ: 795.4482
Instrument_type: LC-ESI-TOF
Instrument: impact HD
Ion_mode: N
Collision_energy: 48.5799
Formula: C42H68O14
MW: 796
ExactMass: 796.460906856
Comments: "SMILES=C1[C@@H]([C@@](C2[C@](C1)(C1[C@@](CC2)([C@]2(C(=CC1)[C@H]1[C@@](CC2)([C@@H](CC(C1)(C)C)O)C)C)C)C)(CO)C)O[C@@H]1O[C@@H]([C@H]([C@@H]([C@H]1O[C@@H]1O[C@@H]([C@@H]([C@@H]([C@H]1O)O)O)CO)O)O)C(=O)O" "InChI=InChI=1S/C42H68O14/c1-37(2)16-21-20-8-9-24-39(4)12-11-26(40(5,19-44)23(39)10-13-42(24,7)41(20,6)15-14-38(21,3)25(45)17-37)54-36-33(30(49)29(48)32(55-36)34(51)52)56-35-31(50)28(47)27(46)22(18-43)53-35/h8,21-33,35-36,43-50H,9-19H2,1-7H3,(H,51,52)/t21-,22+,23?,24?,25+,26-,27-,28-,29-,30-,31+,32-,33+,35-,36+,38+,39-,40+,41+,42+/m0/s1" "computed SMILES=O=C(O)C1OC(OC2CCC3(C)C(CCC4(C)C3CC=C5C6CC(C)(C)CC(O)C6(C)CCC54C)C2(C)CO)C(OC7OC(CO)C(O)C(O)C7O)C(O)C1O" "license=License CC-BY-NC-SA 4.0 International" "author=Plant Biology, The Noble Foundation, Ardmore, OK, US/Dennis Fine, Daniel Wherritt, and Lloyd Sumner" "ionization=ESI" "collision energy 2=80.9665" "peak width=0.013" "date=2014-12-12 20:57:07+01:00" "column=Waters Acquity BEH C18 1.7um x 2.1 x 150 mm" "retention time=1060.8" "raw data file=C:\Data\Noble-Bruker MS libr eval complex mix\2014Dec_A17 aer rt mix MSMS_1-A,2_01_1447.d" "computed mass accuracy=6.827416291672677" "computed mass error=-0.005430855999861706" "SPLASH=splash10-0002-0000000900-fda3c8966f004dc0d527" "submitter=Aiko Barsch (Bruker)" "MoNA Rating=4.545454545454546"
Num Peaks: 3
795.4529 100.000000
796.4564 42.842843
797.4594 4.504505


Name: 3-Glu(1-2)GluA Soyasapogenol B
Synon: $:00in-source
DB#: MetaboBASE1150
InChIKey: OKIHRVKXRCAJFQ-OFOMSTTESA-N
Precursor_type: [M-H]-
Spectrum_type: MS2
PrecursorMZ: 795.4572
Instrument_type: LC-ESI-TOF
Instrument: impact HD
Ion_mode: N
Collision_energy: 48.5816
Formula: C42H68O14
MW: 796
ExactMass: 796.460906856
Comments: "SMILES=C1[C@@H]([C@@](C2[C@](C1)(C1[C@@](CC2)([C@]2(C(=CC1)[C@H]1[C@@](CC2)([C@@H](CC(C1)(C)C)O)C)C)C)C)(CO)C)O[C@@H]1O[C@@H]([C@H]([C@@H]([C@H]1O[C@@H]1O[C@@H]([C@H]([C@@H]([C@H]1O)O)O)CO)O)O)C(=O)O" "InChI=InChI=1S/C42H68O14/c1-37(2)16-21-20-8-9-24-39(4)12-11-26(40(5,19-44)23(39)10-13-42(24,7)41(20,6)15-14-38(21,3)25(45)17-37)54-36-33(30(49)29(48)32(55-36)34(51)52)56-35-31(50)28(47)27(46)22(18-43)53-35/h8,21-33,35-36,43-50H,9-19H2,1-7H3,(H,51,52)/t21-,22+,23?,24?,25+,26-,27+,28-,29-,30-,31+,32-,33+,35-,36+,38+,39-,40+,41+,42+/m0/s1" "computed SMILES=O=C(O)C1OC(OC2CCC3(C)C(CCC4(C)C3CC=C5C6CC(C)(C)CC(O)C6(C)CCC54C)C2(C)CO)C(OC7OC(CO)C(O)C(O)C7O)C(O)C1O" "license=License CC-BY-NC-SA 4.0 International" "author=Plant Biology, The Noble Foundation, Ardmore, OK, US/Dennis Fine, Daniel Wherritt, and Lloyd Sumner" "ionization=ESI" "isolation width=9.18203" "collision energy 2=80.9693" "peak width=0.018" "date=2014-06-03 22:55:36+02:00" "column=Waters Acquity BEH C18 1.7um x 2.1 x 150 mm" "retention time=1078.2" "raw data file=C:\Data\BWatson\14Jun03_BW_HR144-2-5_MSMS_2-A,4_01_201.d" "computed mass accuracy=4.486908912307488" "computed mass error=0.0035691440000391594" "SPLASH=splash10-0002-0000000900-d17f5133383024a542f0" "submitter=Aiko Barsch (Bruker)" "MoNA Rating=4.583333333333334"
Num Peaks: 3
795.4572 100.000000
796.4595 44.044044
797.4607 9.509510


Name: 3-Glu(1-2)GluA Soyasapogenol B
Synon: $:00in-source
DB#: MetaboBASE1151
InChIKey: OKIHRVKXRCAJFQ-OFOMSTTESA-N
Instrument_type: LC-ESI-TOF
Instrument: impact HD
Ion_mode: N
Formula: C42H68O14
MW: 796
ExactMass: 796.460906856
Comments: "SMILES=C1[C@@H]([C@@](C2[C@](C1)(C1[C@@](CC2)([C@]2(C(=CC1)[C@H]1[C@@](CC2)([C@@H](CC(C1)(C)C)O)C)C)C)C)(CO)C)O[C@@H]1O[C@@H]([C@H]([C@@H]([C@H]1O[C@@H]1O[C@@H]([C@H]([C@@H]([C@H]1O)O)O)CO)O)O)C(=O)O" "InChI=InChI=1S/C42H68O14/c1-37(2)16-21-20-8-9-24-39(4)12-11-26(40(5,19-44)23(39)10-13-42(24,7)41(20,6)15-14-38(21,3)25(45)17-37)54-36-33(30(49)29(48)32(55-36)34(51)52)56-35-31(50)28(47)27(46)22(18-43)53-35/h8,21-33,35-36,43-50H,9-19H2,1-7H3,(H,51,52)/t21-,22+,23?,24?,25+,26-,27+,28-,29-,30-,31+,32-,33+,35-,36+,38+,39-,40+,41+,42+/m0/s1" "computed SMILES=O=C(O)C1OC(OC2CCC3(C)C(CCC4(C)C3CC=C5C6CC(C)(C)CC(O)C6(C)CCC54C)C2(C)CO)C(OC7OC(CO)C(O)C(O)C7O)C(O)C1O" "license=License CC-BY-NC-SA 4.0 International" "author=Plant Biology, The Noble Foundation, Ardmore, OK, US/Dennis Fine, Daniel Wherritt, and Lloyd Sumner" "ionization=ESI" "peak width=0.018" "date=2014-06-03 22:55:36+02:00" "column=Waters Acquity BEH C18 1.7um x 2.1 x 150 mm" "retention time=1078.2" "raw data file=C:\Data\BWatson\14Jun03_BW_HR144-2-5_MSMS_2-A,4_01_201.d" "SPLASH=splash10-0002-0000000900-d60c400a1ab8e59febbe" "submitter=Aiko Barsch (Bruker)" "MoNA Rating=3.888888888888889"
Num Peaks: 11
128.0099 7.107107
279.0103 2.202202
556.0022 2.402402
795.4557 100.000000
796.4584 46.046046
797.4611 13.113113
798.4623 3.003003
863.4438 5.705706
864.4470 3.103103
913.3949 1.701702
946.4542 2.202202


Name: 3-Glu(1-2)Glu-28-Glu Hederagenin
Synon: $:00in-source
DB#: MetaboBASE1152
InChIKey: GOIICROVOYDKKG-RMOCACDQSA-N
Instrument_type: LC-ESI-TOF
Instrument: impact HD
Ion_mode: N
Formula: C48H78O19
MW: 958
ExactMass: 958.5137302759999
Comments: "SMILES=C1[C@@H]([C@@](C2[C@](C1)(C1[C@@](CC2)([C@]2(C(=CC1)[C@H]1[C@@](CC2)(CCC(C1)(C)C)C(=O)O[C@H]1[C@@H]([C@H]([C@@H]([C@H](O1)CO)O)O)O)C)C)C)(C)CO)O[C@@H]1O[C@@H]([C@H]([C@@H]([C@H]1O[C@@H]1O[C@@H]([C@H]([C@@H]([C@H]1O)O)O)CO)O)O)CO" "InChI=InChI=1S/C48H78O19/c1-43(2)13-15-48(42(61)67-40-37(60)34(57)31(54)25(19-50)63-40)16-14-46(5)22(23(48)17-43)7-8-28-44(3)11-10-29(45(4,21-52)27(44)9-12-47(28,46)6)65-41-38(35(58)32(55)26(20-51)64-41)66-39-36(59)33(56)30(53)24(18-49)62-39/h7,23-41,49-60H,8-21H2,1-6H3/t23-,24+,25+,26+,27?,28?,29-,30+,31+,32+,33-,34-,35-,36+,37+,38+,39-,40-,41-,44-,45-,46+,47+,48-/m0/s1" "computed SMILES=O=C(OC1OC(CO)C(O)C(O)C1O)C23CCC(C)(C)CC3C4=CCC5C6(C)CCC(OC7OC(CO)C(O)C(O)C7OC8OC(CO)C(O)C(O)C8O)C(C)(CO)C6CCC5(C)C4(C)CC2" "license=License CC-BY-NC-SA 4.0 International" "author=Plant Biology, The Noble Foundation, Ardmore, OK, US/Dennis Fine, Daniel Wherritt, and Lloyd Sumner" "ionization=ESI" "peak width=0.018" "date=2014-06-03 22:55:36+02:00" "column=Waters Acquity BEH C18 1.7um x 2.1 x 150 mm" "retention time=789.6" "raw data file=C:\Data\BWatson\14Jun03_BW_HR144-2-5_MSMS_2-A,4_01_201.d" "SPLASH=splash10-0zfr-9000000005-51237a2d1f90d1c8d655" "submitter=Aiko Barsch (Bruker)" "MoNA Rating=3.888888888888889"
Num Peaks: 21
128.0100 6.106106
795.4509 17.217217
796.4523 8.308308
957.5034 66.266266
958.0049 21.721722
958.5059 39.139139
959.0061 6.506507
959.5051 9.309309
980.5085 4.404404
981.0078 4.904905
1003.5098 100.000000
1004.5110 57.557558
1005.5150 19.419419
1006.5143 5.505506
1071.4946 11.711712
1072.5082 7.407407
1073.5087 3.403403
1075.4357 6.406406
1076.4342 4.304304
1086.5209 11.711712
1087.5209 6.906907


Name: 3-Glu(1-2)Glu-28-Glu Hederagenin
Synon: $:00in-source
DB#: MetaboBASE1153
InChIKey: GOIICROVOYDKKG-RMOCACDQSA-N
Precursor_type: [M+FA-H]-
Spectrum_type: MS2
PrecursorMZ: 1003.58
Instrument_type: LC-ESI-TOF
Instrument: impact HD
Ion_mode: N
Collision_energy: 56.3842
Formula: C48H78O19
MW: 958
ExactMass: 958.5137302759999
Comments: "SMILES=C1[C@@H]([C@@](C2[C@](C1)(C1[C@@](CC2)([C@]2(C(=CC1)[C@H]1[C@@](CC2)(CCC(C1)(C)C)C(=O)O[C@H]1[C@@H]([C@H]([C@@H]([C@H](O1)CO)O)O)O)C)C)C)(C)CO)O[C@@H]1O[C@@H]([C@H]([C@@H]([C@H]1O[C@@H]1O[C@@H]([C@H]([C@@H]([C@H]1O)O)O)CO)O)O)CO" "InChI=InChI=1S/C48H78O19/c1-43(2)13-15-48(42(61)67-40-37(60)34(57)31(54)25(19-50)63-40)16-14-46(5)22(23(48)17-43)7-8-28-44(3)11-10-29(45(4,21-52)27(44)9-12-47(28,46)6)65-41-38(35(58)32(55)26(20-51)64-41)66-39-36(59)33(56)30(53)24(18-49)62-39/h7,23-41,49-60H,8-21H2,1-6H3/t23-,24+,25+,26+,27?,28?,29-,30+,31+,32+,33-,34-,35-,36+,37+,38+,39-,40-,41-,44-,45-,46+,47+,48-/m0/s1" "computed SMILES=O=C(OC1OC(CO)C(O)C(O)C1O)C23CCC(C)(C)CC3C4=CCC5C6(C)CCC(OC7OC(CO)C(O)C(O)C7OC8OC(CO)C(O)C(O)C8O)C(C)(CO)C6CCC5(C)C4(C)CC2" "license=License CC-BY-NC-SA 4.0 International" "author=Plant Biology, The Noble Foundation, Ardmore, OK, US/Dennis Fine, Daniel Wherritt, and Lloyd Sumner" "ionization=ESI" "isolation width=10.0358" "collision energy 2=93.9737" "peak width=0.018" "date=2014-06-03 22:55:36+02:00" "column=Waters Acquity BEH C18 1.7um x 2.1 x 150 mm" "retention time=789.6" "raw data file=C:\Data\BWatson\14Jun03_BW_HR144-2-5_MSMS_2-A,4_01_201.d" "computed mass accuracy=67.82590725215073" "computed mass error=0.06806872400011343" "SPLASH=splash10-0002-0000202900-aa11cbccc9945e3cd4de" "submitter=Aiko Barsch (Bruker)" "MoNA Rating=4.545454545454546"
Num Peaks: 9
471.3453 32.932933
472.3499 9.409409
615.3918 5.905906
633.3979 33.333333
634.3993 11.111111
795.4487 100.000000
796.4502 45.245245
797.4531 12.112112
837.4583 5.505506


Name: 3-Glu(1-2)Glu-28-Glu Hederagenin
Synon: $:00in-source
DB#: MetaboBASE1154
InChIKey: GOIICROVOYDKKG-RMOCACDQSA-N
Precursor_type: [M-H]-
Spectrum_type: MS2
PrecursorMZ: 957.5701
Instrument_type: LC-ESI-TOF
Instrument: impact HD
Ion_mode: N
Collision_energy: 54.6589
Formula: C48H78O19
MW: 958
ExactMass: 958.513730276
Comments: "SMILES=C1[C@@H]([C@@](C2[C@](C1)(C1[C@@](CC2)([C@]2(C(=CC1)[C@H]1[C@@](CC2)(CCC(C1)(C)C)C(=O)O[C@H]1[C@@H]([C@H]([C@@H]([C@H](O1)CO)O)O)O)C)C)C)(C)CO)O[C@@H]1O[C@@H]([C@H]([C@@H]([C@H]1O[C@@H]1O[C@@H]([C@H]([C@@H]([C@H]1O)O)O)CO)O)O)CO" "InChI=InChI=1S/C48H78O19/c1-43(2)13-15-48(42(61)67-40-37(60)34(57)31(54)25(19-50)63-40)16-14-46(5)22(23(48)17-43)7-8-28-44(3)11-10-29(45(4,21-52)27(44)9-12-47(28,46)6)65-41-38(35(58)32(55)26(20-51)64-41)66-39-36(59)33(56)30(53)24(18-49)62-39/h7,23-41,49-60H,8-21H2,1-6H3/t23-,24+,25+,26+,27?,28?,29-,30+,31+,32+,33-,34-,35-,36+,37+,38+,39-,40-,41-,44-,45-,46+,47+,48-/m0/s1" "computed SMILES=O=C(OC1OC(CO)C(O)C(O)C1O)C23CCC(C)(C)CC3C4=CCC5C6(C)CCC(OC7OC(CO)C(O)C(O)C7OC8OC(CO)C(O)C(O)C8O)C(C)(CO)C6CCC5(C)C4(C)CC2" "license=License CC-BY-NC-SA 4.0 International" "author=Plant Biology, The Noble Foundation, Ardmore, OK, US/Dennis Fine, Daniel Wherritt, and Lloyd Sumner" "ionization=ESI" "isolation width=9.83028" "collision energy 2=91.0981" "peak width=0.018" "date=2014-06-03 22:55:36+02:00" "column=Waters Acquity BEH C18 1.7um x 2.1 x 150 mm" "retention time=789.6" "raw data file=C:\Data\BWatson\14Jun03_BW_HR144-2-5_MSMS_2-A,4_01_201.d" "computed mass accuracy=66.46586396131775" "computed mass error=0.06364572400002544" "SPLASH=splash10-0002-0000304900-9369c174585070d93e91" "submitter=Aiko Barsch (Bruker)" "MoNA Rating=4.545454545454546"
Num Peaks: 6
471.3429 43.143143
472.3481 17.917918
633.3990 51.251251
634.3991 18.118118
795.4498 100.000000
796.4531 43.043043


Name: 3-Rha(1-2)Gal(1-2)GluA-Soyasaponenol E
Synon: $:00in-source
DB#: MetaboBASE1155
InChIKey: CROUPKILZUPLQA-SXXIBTJASA-N
Instrument_type: LC-ESI-TOF
Instrument: impact HD
Ion_mode: N
Formula: C48H76O18
MW: 940
ExactMass: 940.503165592
Comments: "SMILES=C1[C@@H]([C@@](C2[C@](C1)(C1[C@@](CC2)([C@]2(C(=CC1)[C@H]1[C@@](CC2)(C(=O)CC(C1)(C)C)C)C)C)C)(CO)C)O[C@@H]1O[C@@H]([C@H]([C@@H]([C@H]1O[C@@H]1O[C@@H]([C@@H]([C@@H]([C@H]1O[C@@H]1O[C@H]([C@@H]([C@H]([C@H]1O)O)O)C)O)O)CO)O)O)C(=O)O" "InChI=InChI=1S/C48H76O18/c1-21-29(52)31(54)35(58)40(61-21)65-37-32(55)30(53)24(19-49)62-41(37)66-38-34(57)33(56)36(39(59)60)64-42(38)63-28-12-13-45(5)25(46(28,6)20-50)11-14-48(8)26(45)10-9-22-23-17-43(2,3)18-27(51)44(23,4)15-16-47(22,48)7/h9,21,23-26,28-38,40-42,49-50,52-58H,10-20H2,1-8H3,(H,59,60)/t21-,23-,24+,25?,26?,28-,29-,30-,31+,32-,33-,34-,35+,36-,37+,38+,40-,41-,42+,44+,45-,46+,47+,48+/m0/s1" "computed SMILES=O=C(O)C1OC(OC2CCC3(C)C4CC=C5C6CC(C)(C)CC(=O)C6(C)CCC5(C)C4(C)CCC3C2(C)CO)C(OC7OC(CO)C(O)C(O)C7OC8OC(C)C(O)C(O)C8O)C(O)C1O" "synonym=3-Rha-Gal-GluA-Soyasaponenol E" "license=License CC-BY-NC-SA 4.0 International" "author=Plant Biology, The Noble Foundation, Ardmore, OK, US/Dennis Fine, Daniel Wherritt, and Lloyd Sumner" "ionization=ESI" "peak width=0.034" "date=2014-12-12 20:57:07+01:00" "column=Waters Acquity BEH C18 1.7um x 2.1 x 150 mm" "retention time=1123.2" "raw data file=C:\Data\Noble-Bruker MS libr eval complex mix\2014Dec_A17 aer rt mix MSMS_1-A,2_01_1447.d" "SPLASH=splash10-000l-0000000009-69e8f3a3f2b419a78dff" "submitter=Aiko Barsch (Bruker)" "MoNA Rating=3.888888888888889"
Num Peaks: 38
939.333 0.100100
939.387 0.200200
939.496 100.000000
940.500 53.753754
941.503 14.114114
942.504 2.502503
975.471 0.900901
976.479 0.400400
977.471 0.400400
985.502 10.110110
986.504 4.704705
987.507 1.301301
1007.483 10.210210
1008.486 4.304304
1009.489 1.201201
1057.433 1.301301
1058.437 0.700701
1069.450 0.700701
1075.470 1.201201
1076.474 0.600601
1143.455 0.600601
1409.752 2.402402
1410.252 4.104104
1410.753 3.503504
1411.214 0.100100
1411.251 2.002002
1411.754 0.900901
1412.257 0.400400
1412.754 0.200200
1420.683 0.100100
1420.746 0.300300
1421.239 0.700701
1421.744 0.500501
1422.234 0.300300
1422.741 0.200200
1880.514 0.200200
1880.989 0.500501
1881.505 0.200200


Name: 3-Rha(1-2)Gal(1-2)GluA-Soyasaponenol E
Synon: $:00in-source
DB#: MetaboBASE1156
InChIKey: CROUPKILZUPLQA-SXXIBTJASA-N
Precursor_type: [M-H]-
Spectrum_type: MS2
PrecursorMZ: 939.4902
Instrument_type: LC-ESI-TOF
Instrument: impact HD
Ion_mode: N
Collision_energy: 53.9815
Formula: C48H76O18
MW: 940
ExactMass: 940.503165592
Comments: "SMILES=C1[C@@H]([C@@](C2[C@](C1)(C1[C@@](CC2)([C@]2(C(=CC1)[C@H]1[C@@](CC2)(C(=O)CC(C1)(C)C)C)C)C)C)(CO)C)O[C@@H]1O[C@@H]([C@H]([C@@H]([C@H]1O[C@@H]1O[C@@H]([C@@H]([C@@H]([C@H]1O[C@@H]1O[C@H]([C@@H]([C@H]([C@H]1O)O)O)C)O)O)CO)O)O)C(=O)O" "InChI=InChI=1S/C48H76O18/c1-21-29(52)31(54)35(58)40(61-21)65-37-32(55)30(53)24(19-49)62-41(37)66-38-34(57)33(56)36(39(59)60)64-42(38)63-28-12-13-45(5)25(46(28,6)20-50)11-14-48(8)26(45)10-9-22-23-17-43(2,3)18-27(51)44(23,4)15-16-47(22,48)7/h9,21,23-26,28-38,40-42,49-50,52-58H,10-20H2,1-8H3,(H,59,60)/t21-,23-,24+,25?,26?,28-,29-,30-,31+,32-,33-,34-,35+,36-,37+,38+,40-,41-,42+,44+,45-,46+,47+,48+/m0/s1" "computed SMILES=O=C(O)C1OC(OC2CCC3(C)C4CC=C5C6CC(C)(C)CC(=O)C6(C)CCC5(C)C4(C)CCC3C2(C)CO)C(OC7OC(CO)C(O)C(O)C7OC8OC(C)C(O)C(O)C8O)C(O)C1O" "synonym=3-Rha-Gal-GluA-Soyasaponenol E" "license=License CC-BY-NC-SA 4.0 International" "author=Plant Biology, The Noble Foundation, Ardmore, OK, US/Dennis Fine, Daniel Wherritt, and Lloyd Sumner" "ionization=ESI" "collision energy 2=89.9692" "peak width=0.014" "date=2014-12-12 20:57:07+01:00" "column=Waters Acquity BEH C18 1.7um x 2.1 x 150 mm" "retention time=1123.2" "raw data file=C:\Data\Noble-Bruker MS libr eval complex mix\2014Dec_A17 aer rt mix MSMS_1-A,2_01_1447.d" "computed mass accuracy=6.056041883090783" "computed mass error=-0.005689591999953336" "SPLASH=splash10-000l-0000000009-5396a41a4afa0a614e61" "submitter=Aiko Barsch (Bruker)" "MoNA Rating=4.545454545454546"
Num Peaks: 53
99.0082 2.302302
101.0238 2.302302
103.0396 0.600601
112.0164 0.200200
113.0238 3.003003
115.0027 0.100100
115.0396 0.900901
119.0347 1.001001
125.0223 0.100100
131.0348 1.401401
139.0035 0.900901
143.0347 1.901902
144.0388 0.100100
145.0498 0.200200
157.0142 1.301301
161.0456 0.700701
163.0605 2.402402
205.0715 2.902903
206.0733 0.100100
231.0515 0.100100
247.0825 1.201201
257.0673 0.200200
265.0947 0.200200
277.4310 0.100100
307.1030 0.100100
325.1134 0.100100
391.2983 1.101101
392.3015 0.100100
407.3320 3.203203
408.3335 0.800801
435.3262 0.400400
455.3507 1.201201
456.3530 0.200200
569.3832 0.100100
595.3590 0.500501
596.3691 0.100100
613.3729 2.802803
614.3747 0.800801
731.4373 1.401401
732.4407 0.100100
749.4422 0.300300
793.4273 0.100100
877.4924 1.601602
878.4982 0.700701
921.4828 2.802803
922.4843 1.301301
923.4889 0.200200
939.4955 100.000000
939.6485 0.100100
940.3956 0.100100
940.4988 51.551552
941.5010 14.514515
942.5013 2.402402


Name: 3-Rha(1-2)Gal(1-2)GluA-Soyasaponenol E
Synon: $:00in-source
DB#: MetaboBASE1157
InChIKey: CROUPKILZUPLQA-SXXIBTJASA-N
Precursor_type: [M-H]-
Spectrum_type: MS2
PrecursorMZ: 939.496
Instrument_type: LC-ESI-TOF
Instrument: impact HD
Ion_mode: N
Collision_energy: 52.5
Formula: C48H76O18
MW: 940
ExactMass: 940.503165592
Comments: "SMILES=C1[C@@H]([C@@](C2[C@](C1)(C1[C@@](CC2)([C@]2(C(=CC1)[C@H]1[C@@](CC2)(C(=O)CC(C1)(C)C)C)C)C)C)(CO)C)O[C@@H]1O[C@@H]([C@H]([C@@H]([C@H]1O[C@@H]1O[C@@H]([C@@H]([C@@H]([C@H]1O[C@@H]1O[C@H]([C@@H]([C@H]([C@H]1O)O)O)C)O)O)CO)O)O)C(=O)O" "InChI=InChI=1S/C48H76O18/c1-21-29(52)31(54)35(58)40(61-21)65-37-32(55)30(53)24(19-49)62-41(37)66-38-34(57)33(56)36(39(59)60)64-42(38)63-28-12-13-45(5)25(46(28,6)20-50)11-14-48(8)26(45)10-9-22-23-17-43(2,3)18-27(51)44(23,4)15-16-47(22,48)7/h9,21,23-26,28-38,40-42,49-50,52-58H,10-20H2,1-8H3,(H,59,60)/t21-,23-,24+,25?,26?,28-,29-,30-,31+,32-,33-,34-,35+,36-,37+,38+,40-,41-,42+,44+,45-,46+,47+,48+/m0/s1" "computed SMILES=O=C(O)C1OC(OC2CCC3(C)C4CC=C5C6CC(C)(C)CC(=O)C6(C)CCC5(C)C4(C)CCC3C2(C)CO)C(OC7OC(CO)C(O)C(O)C7OC8OC(C)C(O)C(O)C8O)C(O)C1O" "synonym=3-Rha-Gal-GluA-Soyasaponenol E" "license=License CC-BY-NC-SA 4.0 International" "author=Plant Biology, The Noble Foundation, Ardmore, OK, US/Dennis Fine, Daniel Wherritt, and Lloyd Sumner" "ionization=ESI" "peak width=0.039" "date=2014-12-12 20:57:07+01:00" "column=Waters Acquity BEH C18 1.7um x 2.1 x 150 mm" "retention time=1123.2" "raw data file=C:\Data\Noble-Bruker MS libr eval complex mix\2014Dec_A17 aer rt mix MSMS_1-A,2_01_1447.d" "computed mass accuracy=0.11751832904948353" "computed mass error=1.1040800006867357E-4" "SPLASH=splash10-000l-0000000009-5bc38bbb0b76a7df2cca" "submitter=Aiko Barsch (Bruker)" "MoNA Rating=4.615384615384616"
Num Peaks: 49
99.009 1.901902
101.024 2.302302
103.040 0.300300
111.008 0.300300
112.984 0.300300
113.024 2.602603
119.032 0.600601
131.033 1.101101
139.003 1.101101
143.036 0.900901
143.041 0.400400
157.012 0.500501
161.046 0.400400
163.060 1.801802
205.073 1.301301
221.064 0.400400
239.057 0.300300
247.071 0.300300
247.086 0.700701
391.305 0.300300
392.295 0.300300
407.335 2.102102
408.348 0.500501
435.317 0.400400
453.326 0.400400
455.354 1.801802
456.363 1.001001
465.128 0.300300
520.446 0.300300
532.787 0.300300
547.733 0.300300
613.371 1.901902
614.382 0.400400
615.382 0.300300
731.439 0.400400
877.488 0.300300
921.481 1.201201
921.507 1.001001
922.482 0.400400
923.497 0.400400
939.441 1.201201
939.494 100.000000
940.399 0.500501
940.497 47.747748
941.501 14.214214
942.508 3.003003
943.520 0.400400
1201.246 0.300300
1278.415 0.300300


Name: 7-Glu tricin
Synon: $:00in-source
DB#: MetaboBASE1158
InChIKey: JGXFMIJHKASCIZ-LDBVRRDLSA-N
Precursor_type: [M-H]-
Spectrum_type: MS2
PrecursorMZ: 491.1277
Instrument_type: LC-ESI-TOF
Instrument: impact HD
Ion_mode: N
Collision_energy: 37.001
Formula: C23H24O12
MW: 492
ExactMass: 492.12677620799997
Comments: "SMILES=c1(cc(c2c(c1)oc(cc2=O)c1cc(c(c(c1)OC)O)OC)O)O[C@@H]1O[C@@H]([C@H]([C@@H]([C@H]1O)O)O)CO" "InChI=InChI=1S/C23H24O12/c1-31-15-3-9(4-16(32-2)19(15)27)13-7-12(26)18-11(25)5-10(6-14(18)34-13)33-23-22(30)21(29)20(28)17(8-24)35-23/h3-7,17,20-25,27-30H,8H2,1-2H3/t17-,20-,21+,22-,23-/m1/s1" "computed SMILES=O=C1C=C(OC2=CC(OC3OC(CO)C(O)C(O)C3O)=CC(O)=C12)C=4C=C(OC)C(O)=C(OC)C4" "license=License CC-BY-NC-SA 4.0 International" "author=Plant Biology, The Noble Foundation, Ardmore, OK, US/Dennis Fine, Daniel Wherritt, and Lloyd Sumner" "ionization=ESI" "collision energy 2=61.6683" "peak width=0.014" "date=2014-12-12 20:57:07+01:00" "column=Waters Acquity BEH C18 1.7um x 2.1 x 150 mm" "retention time=433.2" "raw data file=C:\Data\Noble-Bruker MS libr eval complex mix\2014Dec_A17 aer rt mix MSMS_1-A,2_01_1447.d" "computed mass accuracy=16.69584509289056" "computed mass error=0.008199792000027628" "SPLASH=splash10-03fr-0077900000-5c874f5bd065f3a9ad36" "submitter=Aiko Barsch (Bruker)" "MoNA Rating=4.545454545454546"
Num Peaks: 13
226.0275 45.245245
227.0339 13.013013
243.0282 12.812813
270.0121 11.511512
271.0274 16.216216
285.0377 43.343343
313.0330 100.000000
314.0395 11.111111
328.0591 22.222222
461.0706 70.470470
476.0921 71.271271
477.1078 10.910911
491.1147 13.313313


Name: 7-Glu tricin
Synon: $:00in-source
DB#: MetaboBASE1159
InChIKey: JGXFMIJHKASCIZ-LDBVRRDLSA-N
Instrument_type: LC-ESI-TOF
Instrument: impact HD
Ion_mode: N
Collision_energy: 10
Formula: C23H24O12
MW: 492
ExactMass: 492.12677620799997
Comments: "SMILES=c1(cc(c2c(c1)oc(cc2=O)c1cc(c(c(c1)OC)O)OC)O)O[C@@H]1O[C@@H]([C@H]([C@@H]([C@H]1O)O)O)CO" "InChI=InChI=1S/C23H24O12/c1-31-15-3-9(4-16(32-2)19(15)27)13-7-12(26)18-11(25)5-10(6-14(18)34-13)33-23-22(30)21(29)20(28)17(8-24)35-23/h3-7,17,20-25,27-30H,8H2,1-2H3/t17-,20-,21+,22-,23-/m1/s1" "computed SMILES=O=C1C=C(OC2=CC(OC3OC(CO)C(O)C(O)C3O)=CC(O)=C12)C=4C=C(OC)C(O)=C(OC)C4" "license=License CC-BY-NC-SA 4.0 International" "author=Plant Biology, The Noble Foundation, Ardmore, OK, US/Dennis Fine, Daniel Wherritt, and Lloyd Sumner" "ionization=ESI" "peak width=0.018" "date=2014-11-13 23:30:24+01:00" "column=Waters Acquity BEH C18 1.7um x 2.1 x 150 mm" "retention time=433.8" "raw data file=C:\Data\2014Nov12_A-17 aerial root MS MSMS\A-17 aerial MS_1-A,2_01_1225.d" "SPLASH=splash10-0006-0000900000-c1963897553faa564dd6" "submitter=Aiko Barsch (Bruker)" "MoNA Rating=4.444444444444445"
Num Peaks: 15
112.9853 1.601602
116.9276 0.500501
128.0096 2.302302
174.9561 1.401401
239.1275 3.503504
471.0874 1.901902
471.5877 0.100100
491.1195 100.000000
492.1221 26.026026
493.1232 5.005005
503.2484 1.601602
506.1011 0.600601
556.0020 0.200200
559.1046 5.905906
783.1758 0.400400


Name: 7-Glu tricin
Synon: $:00in-source
DB#: MetaboBASE1160
InChIKey: JGXFMIJHKASCIZ-LDBVRRDLSA-N
Instrument_type: LC-ESI-TOF
Instrument: impact HD
Ion_mode: N
Formula: C23H24O12
MW: 492
ExactMass: 492.12677620799997
Comments: "SMILES=c1(cc(c2c(c1)oc(cc2=O)c1cc(c(c(c1)OC)O)OC)O)O[C@@H]1O[C@@H]([C@H]([C@@H]([C@H]1O)O)O)CO" "InChI=InChI=1S/C23H24O12/c1-31-15-3-9(4-16(32-2)19(15)27)13-7-12(26)18-11(25)5-10(6-14(18)34-13)33-23-22(30)21(29)20(28)17(8-24)35-23/h3-7,17,20-25,27-30H,8H2,1-2H3/t17-,20-,21+,22-,23-/m1/s1" "computed SMILES=O=C1C=C(OC2=CC(OC3OC(CO)C(O)C(O)C3O)=CC(O)=C12)C=4C=C(OC)C(O)=C(OC)C4" "license=License CC-BY-NC-SA 4.0 International" "author=Plant Biology, The Noble Foundation, Ardmore, OK, US/Dennis Fine, Daniel Wherritt, and Lloyd Sumner" "ionization=ESI" "peak width=0.015" "date=2014-12-12 20:57:07+01:00" "column=Waters Acquity BEH C18 1.7um x 2.1 x 150 mm" "retention time=433.2" "raw data file=C:\Data\Noble-Bruker MS libr eval complex mix\2014Dec_A17 aer rt mix MSMS_1-A,2_01_1447.d" "SPLASH=splash10-0006-0000900000-f38b021a7684d5df78f5" "submitter=Aiko Barsch (Bruker)" "MoNA Rating=3.888888888888889"
Num Peaks: 18
269.0446 1.001001
328.0562 2.002002
417.1549 5.105105
433.1115 1.401401
433.2437 1.201201
463.2199 1.001001
487.1604 2.102102
491.1188 100.000000
492.1211 23.723724
493.1248 4.704705
507.0823 1.201201
559.1048 4.104104
579.2063 3.003003
621.0804 2.202202
673.1235 1.401401
753.1525 1.201201
983.2458 3.903904
997.2142 3.603604


Name: (Z)-3-Hydroxyhexadec-7-enoic acid
Synon: $:00in-source
DB#: MetaboBASE1161
InChIKey: CBHANIXDPMXBGZ-KTKRTIGZSA-N
Instrument_type: LC-ESI-TOF
Instrument: impact HD
Ion_mode: N
Collision_energy: 10
Formula: C16H30O3
MW: 270
ExactMass: 270.21949482
Comments: "SMILES=C(=O)(CC(CCC/C=C\CCCCCCCC)O)O" "InChI=InChI=1S/C16H30O3/c1-2-3-4-5-6-7-8-9-10-11-12-13-15(17)14-16(18)19/h9-10,15,17H,2-8,11-14H2,1H3,(H,18,19)/b10-9-" "computed SMILES=O=C(O)CC(O)CCCC=CCCCCCCCC" "license=License CC-BY-NC-SA 4.0 International" "author=Plant Biology, The Noble Foundation, Ardmore, OK, US/Dennis Fine, Daniel Wherritt, and Lloyd Sumner" "ionization=ESI" "peak width=0.013" "date=2014-08-25 19:06:16+02:00" "column=Waters Acquity BEH C18 1.7um x 2.1 x 150 mm" "retention time=1446.6" "raw data file=G:\Sumner Lab Data Management Workspace Jun2013\Projects\NSF-JST Metabolomics Nov2011-Sep2014\UPLC-MS-MSMS\Pstab\2014Aug25_Pstab_chromatogram_1-C,1_01_697.d" "SPLASH=splash10-014i-0090010100-1bd6b8aa4c63a9d13f2a" "submitter=Aiko Barsch (Bruker)" "MoNA Rating=4.444444444444445"
Num Peaks: 20
187.1335 1.201201
250.1444 2.202202
269.2124 100.000000
270.2155 21.121121
271.2183 3.203203
297.2426 3.103103
337.1987 1.701702
369.1363 3.703704
370.1385 1.101101
445.2587 2.702703
556.0020 5.005005
561.4128 10.210210
562.4152 4.204204
706.3836 1.401401
720.3996 1.201201
731.5302 7.507508
732.5337 3.403403
733.5176 1.801802
853.6130 2.202202
854.6166 1.201201


Name: 3-Hydroxyhexadecanoic acid
Synon: $:00in-source
DB#: MetaboBASE1162
InChIKey: CBWALJHXHCJYTE-UHFFFAOYSA-N
Instrument_type: LC-ESI-TOF
Instrument: impact HD
Ion_mode: N
Collision_energy: 10
Formula: C16H32O3
MW: 272
ExactMass: 272.23514488399996
Comments: "SMILES=CCCCCCCCCCCCCC(CC(=O)O)O" "InChI=InChI=1S/C16H32O3/c1-2-3-4-5-6-7-8-9-10-11-12-13-15(17)14-16(18)19/h15,17H,2-14H2,1H3,(H,18,19)" "computed SMILES=O=C(O)CC(O)CCCCCCCCCCCCC" "license=License CC-BY-NC-SA 4.0 International" "author=Plant Biology, The Noble Foundation, Ardmore, OK, US/Dennis Fine, Daniel Wherritt, and Lloyd Sumner" "ionization=ESI" "peak width=0.012" "date=2014-08-25 19:06:16+02:00" "column=Waters Acquity BEH C18 1.7um x 2.1 x 150 mm" "retention time=1605" "raw data file=G:\Sumner Lab Data Management Workspace Jun2013\Projects\NSF-JST Metabolomics Nov2011-Sep2014\UPLC-MS-MSMS\Pstab\2014Aug25_Pstab_chromatogram_1-C,1_01_697.d" "SPLASH=splash10-00di-0090000000-c4f61f86f8bc38c456a7" "submitter=Aiko Barsch (Bruker)" "MoNA Rating=4.444444444444445"
Num Peaks: 9
271.2286 100.000000
271.7494 1.401401
272.2318 17.617618
273.2342 2.502503
371.1534 4.304304
372.1549 1.401401
445.2624 1.001001
565.4450 4.004004
566.4481 1.601602


Name: (Z)-3-Hydroxyoctadec-7-enoic acid
Synon: $:00in-source
DB#: MetaboBASE1163
InChIKey: FDASJJZDUIYPQA-QXMHVHEDSA-N
Instrument_type: LC-ESI-TOF
Instrument: impact HD
Ion_mode: N
Collision_energy: 10
Formula: C18H34O3
MW: 298
ExactMass: 298.250794948
Comments: "SMILES=C(=O)(CC(CCC/C=C\CCCCCCCCCC)O)O" "InChI=InChI=1S/C18H34O3/c1-2-3-4-5-6-7-8-9-10-11-12-13-14-15-17(19)16-18(20)21/h11-12,17,19H,2-10,13-16H2,1H3,(H,20,21)/b12-11-" "computed SMILES=O=C(O)CC(O)CCCC=CCCCCCCCCCC" "license=License CC-BY-NC-SA 4.0 International" "author=Plant Biology, The Noble Foundation, Ardmore, OK, US/Dennis Fine, Daniel Wherritt, and Lloyd Sumner" "ionization=ESI" "peak width=0.011" "date=2014-08-25 19:06:16+02:00" "column=Waters Acquity BEH C18 1.7um x 2.1 x 150 mm" "retention time=1657.8" "raw data file=G:\Sumner Lab Data Management Workspace Jun2013\Projects\NSF-JST Metabolomics Nov2011-Sep2014\UPLC-MS-MSMS\Pstab\2014Aug25_Pstab_chromatogram_1-C,1_01_697.d" "SPLASH=splash10-0002-0090000000-d60d0f59ec0e24085317" "submitter=Aiko Barsch (Bruker)" "MoNA Rating=4.444444444444445"
Num Peaks: 10
297.2441 100.000000
297.7888 1.301301
298.2473 21.321321
299.2495 2.902903
353.1996 2.302302
397.1683 3.803804
398.1703 1.301301
617.4764 4.204204
618.4794 1.901902
937.7073 1.101101


Name: 3-Glu-(1-2)Ara-28-Glu Hederagenin
Synon: $:00in-source
DB#: MetaboBASE1164
InChIKey: MFUIQYJWLPDASM-JVXCVNMSSA-N
Instrument_type: LC-ESI-TOF
Instrument: impact HD
Ion_mode: N
Formula: C48H78O17
MW: 926
ExactMass: 926.523901036
Comments: "SMILES=C1[C@@H]([C@@](C2[C@](C1)(C1[C@@](CC2)([C@]2(C(=CC1)[C@H]1[C@@](CC2)(CCC(C1)(C)C)C(=O)O[C@H]1[C@@H]([C@H]([C@@H]([C@H](O1)CO)O)O)O)C)C)C)(C)CO)O[C@@H]1OC[C@@H]([C@@H]([C@H]1C[C@@H]1O[C@@H]([C@H]([C@@H]([C@H]1O)O)O)CO)O)O" "InChI=InChI=1S/C48H78O17/c1-43(2)13-15-48(42(60)65-41-39(59)38(58)36(56)29(20-50)63-41)16-14-46(5)24(25(48)18-43)7-8-31-44(3)11-10-32(45(4,22-51)30(44)9-12-47(31,46)6)64-40-23(33(53)26(52)21-61-40)17-27-34(54)37(57)35(55)28(19-49)62-27/h7,23,25-41,49-59H,8-22H2,1-6H3/t23-,25+,26+,27+,28-,29-,30?,31?,32+,33-,34+,35-,36-,37-,38+,39-,40+,41+,44+,45+,46-,47-,48+/m1/s1" "computed SMILES=O=C(OC1OC(CO)C(O)C(O)C1O)C23CCC(C)(C)CC3C4=CCC5C6(C)CCC(OC7OCC(O)C(O)C7CC8OC(CO)C(O)C(O)C8O)C(C)(CO)C6CCC5(C)C4(C)CC2" "synonym=3-Glu(1-2)Ara-28-Glu Hederagenin (NMR)" "license=License CC-BY-NC-SA 4.0 International" "author=Plant Biology, The Noble Foundation, Ardmore, OK, US/Dennis Fine, Daniel Wherritt, and Lloyd Sumner" "ionization=ESI" "peak width=0.014" "date=2014-12-12 20:57:07+01:00" "column=Waters Acquity BEH C18 1.7um x 2.1 x 150 mm" "retention time=875.4" "raw data file=C:\Data\Noble-Bruker MS libr eval complex mix\2014Dec_A17 aer rt mix MSMS_1-A,2_01_1447.d" "annotformula=557.2595;        C27H41O12" "annotformula=973.5020;        C48H77O20" "SPLASH=splash10-00fr-1000100009-585ee88d1534ffb88d84" "submitter=Aiko Barsch (Bruker)" "MoNA Rating=3.888888888888889"
Num Peaks: 159
557.0043 0.400400
557.2595 1.201201
557.7607 0.700701
765.4437 11.711712
765.7336 0.100100
766.3743 0.100100
766.4462 5.105105
767.4462 1.501502
795.4512 1.101101
845.9567 0.100100
846.4696 3.203203
846.9730 2.902903
847.3558 0.100100
847.4719 1.601602
847.5829 0.100100
847.9725 0.700701
927.2174 0.100100
927.4146 0.200200
927.4980 48.248248
927.6658 0.100100
927.7138 0.100100
927.8585 0.100100
927.9997 32.232232
928.1345 0.100100
928.1995 0.100100
928.3494 0.100100
928.4077 0.100100
928.5009 31.631632
928.6033 0.100100
928.6946 0.100100
929.0016 7.907908
929.3636 0.100100
929.5021 6.706707
930.0039 0.900901
930.5032 1.201201
939.4795 0.800801
939.6775 0.100100
939.9779 0.800801
940.4784 0.500501
940.9826 0.200200
950.5001 10.910911
950.8339 0.100100
951.0007 10.410410
951.4612 0.500501
951.5025 7.007007
952.0046 3.103103
952.4272 0.100100
952.4585 0.800801
952.5030 1.001001
952.9985 0.300300
962.9924 0.400400
963.4742 2.302302
963.9911 0.100100
964.4019 0.100100
964.4767 1.201201
964.5541 0.100100
964.9906 0.100100
973.0115 0.500501
973.2333 0.100100
973.3088 0.100100
973.3815 0.300300
973.5020 100.000000
973.7678 0.100100
973.9818 0.100100
974.0126 0.100100
974.3453 0.100100
974.5047 57.857858
974.7073 0.100100
975.1729 0.100100
975.5076 19.419419
975.6606 0.100100
975.8196 0.100100
976.4249 0.100100
976.5098 5.105105
976.9423 0.300300
976.9797 0.100100
984.3342 0.100100
984.4908 2.002002
984.9976 1.901902
985.4969 2.002002
985.9999 1.501502
986.4688 1.701702
986.5060 0.300300
986.9628 1.601602
987.4665 0.100100
992.4561 0.100100
992.4850 1.201201
992.9893 1.101101
1021.5134 1.101101
1022.0126 1.101101
1022.5156 0.600601
1023.0179 0.400400
1041.4878 9.609610
1041.9879 0.100100
1042.4067 0.100100
1042.4908 5.505506
1042.9598 0.100100
1043.5035 11.711712
1043.6749 0.100100
1044.5099 6.206206
1044.6678 0.100100
1045.3444 0.100100
1045.4305 10.210210
1045.5062 0.800801
1046.3555 0.100100
1046.4331 6.406406
1046.5317 0.100100
1047.4332 2.602603
1048.4423 0.100100
1109.4747 1.401401
1110.4791 1.001001
1111.4856 1.301301
1112.4521 0.100100
1112.4893 0.700701
1113.4139 0.300300
1391.7502 5.305305
1391.9209 0.100100
1392.1331 0.100100
1392.2507 8.008008
1392.7504 6.206206
1393.2527 4.404404
1393.7538 2.202202
1394.2454 0.800801
1414.2418 0.100100
1414.7524 4.004004
1415.2526 6.406406
1415.7548 5.505506
1415.9370 0.100100
1416.2499 3.303303
1416.5911 0.100100
1416.7632 1.701702
1417.2491 0.600601
1437.7595 0.900901
1438.1997 0.100100
1438.2532 1.201201
1438.4697 0.100100
1438.6818 0.200200
1438.7633 1.101101
1439.2550 0.500501
1449.2488 1.601602
1449.7518 2.502503
1450.2427 2.602603
1450.7085 0.100100
1450.7452 2.202202
1451.2363 2.002002
1451.3688 0.100100
1451.6880 0.100100
1451.7313 1.201201
1451.8153 0.100100
1452.2256 0.900901
1472.2360 0.700701
1472.7561 1.101101
1472.8536 0.100100
1473.2595 1.601602
1473.7534 1.501502
1474.2083 0.200200
1474.2478 1.101101
1474.7325 0.900901
1475.2335 0.500501


Name: 3-Glu-(1-2)Ara-28-Glu Hederagenin
Synon: $:00in-source
DB#: MetaboBASE1165
InChIKey: MFUIQYJWLPDASM-JVXCVNMSSA-N
Spectrum_type: MS2
PrecursorMZ: 973.498
Instrument_type: LC-ESI-TOF
Instrument: impact HD
Ion_mode: N
Collision_energy: 55.2569
Formula: C48H78O17
MW: 926
ExactMass: 926.523901036
Comments: "SMILES=C1[C@@H]([C@@](C2[C@](C1)(C1[C@@](CC2)([C@]2(C(=CC1)[C@H]1[C@@](CC2)(CCC(C1)(C)C)C(=O)O[C@H]1[C@@H]([C@H]([C@@H]([C@H](O1)CO)O)O)O)C)C)C)(C)CO)O[C@@H]1OC[C@@H]([C@@H]([C@H]1C[C@@H]1O[C@@H]([C@H]([C@@H]([C@H]1O)O)O)CO)O)O" "InChI=InChI=1S/C48H78O17/c1-43(2)13-15-48(42(60)65-41-39(59)38(58)36(56)29(20-50)63-41)16-14-46(5)24(25(48)18-43)7-8-31-44(3)11-10-32(45(4,22-51)30(44)9-12-47(31,46)6)64-40-23(33(53)26(52)21-61-40)17-27-34(54)37(57)35(55)28(19-49)62-27/h7,23,25-41,49-59H,8-22H2,1-6H3/t23-,25+,26+,27+,28-,29-,30?,31?,32+,33-,34+,35-,36-,37-,38+,39-,40+,41+,44+,45+,46-,47-,48+/m1/s1" "computed SMILES=O=C(OC1OC(CO)C(O)C(O)C1O)C23CCC(C)(C)CC3C4=CCC5C6(C)CCC(OC7OCC(O)C(O)C7CC8OC(CO)C(O)C(O)C8O)C(C)(CO)C6CCC5(C)C4(C)CC2" "synonym=3-Glu(1-2)Ara-28-Glu Hederagenin (NMR)" "license=License CC-BY-NC-SA 4.0 International" "author=Plant Biology, The Noble Foundation, Ardmore, OK, US/Dennis Fine, Daniel Wherritt, and Lloyd Sumner" "ionization=ESI" "collision energy 2=92.0949" "peak width=0.032" "date=2014-12-12 20:57:07+01:00" "column=Waters Acquity BEH C18 1.7um x 2.1 x 150 mm" "retention time=875.4" "raw data file=C:\Data\Noble-Bruker MS libr eval complex mix\2014Dec_A17 aer rt mix MSMS_1-A,2_01_1447.d" "annotformula=113.024;        C27H41O12" "SPLASH=splash10-014i-0000002900-004a29237eb93da7399f" "submitter=Aiko Barsch (Bruker)" "MoNA Rating=3.125"
Num Peaks: 42
101.024 1.801802
113.024 1.201201
119.035 1.201201
131.035 0.300300
149.046 0.200200
161.046 0.600601
179.054 0.100100
423.325 1.901902
424.331 0.500501
439.321 0.500501
453.332 0.100100
469.329 0.300300
471.347 9.009009
472.352 2.802803
473.353 0.100100
485.359 0.700701
486.371 0.100100
525.358 1.101101
526.357 0.100100
567.376 0.100100
585.378 7.607608
586.352 0.100100
586.384 2.702703
587.381 0.100100
603.390 27.027027
603.480 0.100100
604.392 9.609610
605.395 1.501502
617.403 0.300300
645.401 1.101101
646.412 0.100100
765.353 0.300300
765.443 100.000000
766.446 44.044044
766.659 0.100100
767.448 10.510511
768.450 1.601602
780.465 0.100100
807.451 6.406406
808.453 2.602603
809.457 0.800801
837.451 0.100100


Name: 3-Glu-(1-2)Ara-28-Glu Hederagenin
Synon: $:00in-source
DB#: MetaboBASE1166
InChIKey: MFUIQYJWLPDASM-JVXCVNMSSA-N
Spectrum_type: MS2
PrecursorMZ: 927.494
Instrument_type: LC-ESI-TOF
Instrument: impact HD
Ion_mode: N
Collision_energy: 53.5317
Formula: C48H78O17
MW: 926
ExactMass: 926.523901036
Comments: "SMILES=C1[C@@H]([C@@](C2[C@](C1)(C1[C@@](CC2)([C@]2(C(=CC1)[C@H]1[C@@](CC2)(CCC(C1)(C)C)C(=O)O[C@H]1[C@@H]([C@H]([C@@H]([C@H](O1)CO)O)O)O)C)C)C)(C)CO)O[C@@H]1OC[C@@H]([C@@H]([C@H]1C[C@@H]1O[C@@H]([C@H]([C@@H]([C@H]1O)O)O)CO)O)O" "InChI=InChI=1S/C48H78O17/c1-43(2)13-15-48(42(60)65-41-39(59)38(58)36(56)29(20-50)63-41)16-14-46(5)24(25(48)18-43)7-8-31-44(3)11-10-32(45(4,22-51)30(44)9-12-47(31,46)6)64-40-23(33(53)26(52)21-61-40)17-27-34(54)37(57)35(55)28(19-49)62-27/h7,23,25-41,49-59H,8-22H2,1-6H3/t23-,25+,26+,27+,28-,29-,30?,31?,32+,33-,34+,35-,36-,37-,38+,39-,40+,41+,44+,45+,46-,47-,48+/m1/s1" "computed SMILES=O=C(OC1OC(CO)C(O)C(O)C1O)C23CCC(C)(C)CC3C4=CCC5C6(C)CCC(OC7OCC(O)C(O)C7CC8OC(CO)C(O)C(O)C8O)C(C)(CO)C6CCC5(C)C4(C)CC2" "synonym=3-Glu(1-2)Ara-28-Glu Hederagenin (NMR)" "license=License CC-BY-NC-SA 4.0 International" "author=Plant Biology, The Noble Foundation, Ardmore, OK, US/Dennis Fine, Daniel Wherritt, and Lloyd Sumner" "ionization=ESI" "collision energy 2=89.2195" "peak width=0.036" "date=2014-12-12 20:57:07+01:00" "column=Waters Acquity BEH C18 1.7um x 2.1 x 150 mm" "retention time=875.4" "raw data file=C:\Data\Noble-Bruker MS libr eval complex mix\2014Dec_A17 aer rt mix MSMS_1-A,2_01_1447.d" "annotformula=113.025;        C27H41O12" "SPLASH=splash10-014i-0000102900-e2a86cc1955bcb84232f" "submitter=Aiko Barsch (Bruker)" "MoNA Rating=3.125"
Num Peaks: 22
101.024 1.701702
113.025 0.900901
119.035 1.001001
149.044 0.300300
179.054 0.300300
423.323 3.003003
471.346 13.713714
472.351 3.503504
525.358 1.201201
585.378 10.810811
586.378 4.204204
603.389 35.435435
604.393 12.312312
605.392 2.502503
617.415 0.300300
645.386 0.600601
765.442 100.000000
766.446 43.343343
767.450 10.910911
768.448 2.102102
807.446 3.303303
808.446 0.700701


Name: 3-Glu-(1-2)Ara-28-Glu Hederagenin
Synon: $:00in-source
DB#: MetaboBASE1167
InChIKey: MFUIQYJWLPDASM-JVXCVNMSSA-N
Instrument_type: LC-ESI-TOF
Instrument: impact HD
Ion_mode: N
Collision_energy: 10
Formula: C48H78O17
MW: 926
ExactMass: 926.523901036
Comments: "SMILES=C1[C@@H]([C@@](C2[C@](C1)(C1[C@@](CC2)([C@]2(C(=CC1)[C@H]1[C@@](CC2)(CCC(C1)(C)C)C(=O)O[C@H]1[C@@H]([C@H]([C@@H]([C@H](O1)CO)O)O)O)C)C)C)(C)CO)O[C@@H]1OC[C@@H]([C@@H]([C@H]1C[C@@H]1O[C@@H]([C@H]([C@@H]([C@H]1O)O)O)CO)O)O" "InChI=InChI=1S/C48H78O17/c1-43(2)13-15-48(42(60)65-41-39(59)38(58)36(56)29(20-50)63-41)16-14-46(5)24(25(48)18-43)7-8-31-44(3)11-10-32(45(4,22-51)30(44)9-12-47(31,46)6)64-40-23(33(53)26(52)21-61-40)17-27-34(54)37(57)35(55)28(19-49)62-27/h7,23,25-41,49-59H,8-22H2,1-6H3/t23-,25+,26+,27+,28-,29-,30?,31?,32+,33-,34+,35-,36-,37-,38+,39-,40+,41+,44+,45+,46-,47-,48+/m1/s1" "computed SMILES=O=C(OC1OC(CO)C(O)C(O)C1O)C23CCC(C)(C)CC3C4=CCC5C6(C)CCC(OC7OCC(O)C(O)C7CC8OC(CO)C(O)C(O)C8O)C(C)(CO)C6CCC5(C)C4(C)CC2" "synonym=3-Glu(1-2)Ara-28-Glu Hederagenin (NMR)" "license=License CC-BY-NC-SA 4.0 International" "author=Plant Biology, The Noble Foundation, Ardmore, OK, US/Dennis Fine, Daniel Wherritt, and Lloyd Sumner" "ionization=ESI" "peak width=0.016" "date=2014-06-24 18:58:59+02:00" "column=Waters Acquity BEH C18 1.7um x 2.1 x 150 mm" "retention time=875.4" "raw data file=C:\Data\A17 root\14Jun24_Mtroot_80%_SPE_1-F,4_01_297.d" "SPLASH=splash10-00fr-3320000009-4239bbf2ced7e8da6c4b" "submitter=Aiko Barsch (Bruker)" "MoNA Rating=4.444444444444445"
Num Peaks: 40
116.9276 4.404404
128.0102 54.654655
129.0105 1.301301
146.9610 1.801802
161.0249 4.504505
174.9565 3.003003
195.9976 2.302302
217.9794 1.301301
243.8790 3.103103
248.9721 1.201201
279.0089 30.730731
279.9493 4.104104
280.0103 2.302302
285.9673 2.402402
340.9838 1.101101
347.9372 3.903904
368.9778 2.902903
430.0090 13.913914
431.0085 1.101101
557.0060 4.704705
749.0326 2.102102
765.4460 5.305305
766.4475 1.501502
927.4960 16.216216
928.4995 8.408408
929.4977 1.101101
963.4733 2.302302
973.5020 100.000000
974.5048 52.552553
975.5068 16.716717
976.5115 4.204204
1041.4868 10.310310
1042.4908 4.904905
1045.4308 8.608609
1046.4362 4.604605
1056.5146 23.023023
1057.5176 13.913914
1058.5173 4.504505
1059.5319 2.102102
1124.5016 2.802803


Name: 3-Glu(1-3)Glu-28-Glu Medicagenic acid
Synon: $:00in-source
DB#: MetaboBASE1168
InChIKey: SMFAQKPDVMYQGA-KHJSPLTRSA-N
Spectrum_type: MS2
PrecursorMZ: 987.4766
Instrument_type: LC-ESI-TOF
Instrument: impact HD
Ion_mode: N
Collision_energy: 55.782
Formula: C47H75O19
MW: 943
ExactMass: 943.49025518
Comments: "SMILES=[C@H]1([C@@H]([C@@](C2[C@](C1)(C1[C@@](CC2)([C@]2(C(=CC1)[C@H]1[C@@](CC2)(CCC(C1)(C)C)C(=O)O[C@H]1[C@@H]([C@H]([C@@H]([C@H](O1)CO)O)O)O)C)C)C)(C)C(=O)O)O[C@@H]1O[C@@H]([C@H]([C@@H]([C@H]1O)O[C@@H]1O[C@@H]([C@H]([C@@H]([C@H]1O)O)O)CO)O)CO)O" "InChI=InChI=1S/C48H76O21/c1-43(2)11-13-48(42(63)69-39-34(59)32(57)29(54)24(18-50)65-39)14-12-45(4)20(21(48)15-43)7-8-26-44(3)16-22(52)37(47(6,41(61)62)27(44)9-10-46(26,45)5)68-40-35(60)36(30(55)25(19-51)66-40)67-38-33(58)31(56)28(53)23(17-49)64-38/h7,21-40,49-60H,8-19H2,1-6H3,(H,61,62)/t21-,22-,23+,24+,25+,26?,27?,28+,29+,30+,31-,32-,33+,34+,35+,36-,37-,38-,39-,40-,44+,45+,46+,47-,48-/m0/s1" "computed SMILES=*C1(C)C(OC2OC(CO)C(O)C(OC3OC(CO)C(O)C(O)C3O)C2O)C(O)CC4(C)C1CCC5(C)C4CC=C6C7CC(C)(C)CCC7(C(=O)OC8OC(CO)C(O)C(O)C8O)CCC65C" "license=License CC-BY-NC-SA 4.0 International" "author=Plant Biology, The Noble Foundation, Ardmore, OK, US/Dennis Fine, Daniel Wherritt, and Lloyd Sumner" "ionization=ESI" "collision energy 2=92.9699" "peak width=0.018" "date=2014-12-10 21:06:23+01:00" "column=Waters Acquity BEH C18 1.7um x 2.1 x 150 mm" "retention time=759" "raw data file=C:\Data\Noble-Bruker MS libr eval complex mix\2014Dec_A17 aer rt mix MSMS_1-A,2_01_1415.d" "SPLASH=splash10-03di-0900000000-fdc460446be4598d6116" "submitter=Aiko Barsch (Bruker)" "MoNA Rating=2.380952380952381"
Num Peaks: 25
101.0233 5.005005
112.0135 0.100100
113.0239 100.000000
114.0270 5.305305
115.0266 0.500501
119.0344 5.205205
125.0256 0.200200
131.0345 1.101101
143.0342 4.204204
149.0436 0.900901
161.0451 47.847848
162.0481 2.602603
179.0557 13.713714
180.0565 0.400400
181.0630 0.200200
439.3176 3.803804
440.3192 0.600601
812.5507 0.100100
987.4747 12.412412
988.4791 6.006006
989.4712 1.601602
1283.2113 0.100100
1308.0964 0.200200
1310.4382 0.100100
1405.8962 0.100100


Name: 3-Glu(1-3)Glu-28-Glu Medicagenic acid
Synon: $:00in-source
DB#: MetaboBASE1169
InChIKey: SMFAQKPDVMYQGA-KHJSPLTRSA-N
Instrument_type: LC-ESI-TOF
Instrument: impact HD
Ion_mode: N
Formula: C47H75O19
MW: 943
ExactMass: 943.4902551800001
Comments: "SMILES=[C@H]1([C@@H]([C@@](C2[C@](C1)(C1[C@@](CC2)([C@]2(C(=CC1)[C@H]1[C@@](CC2)(CCC(C1)(C)C)C(=O)O[C@H]1[C@@H]([C@H]([C@@H]([C@H](O1)CO)O)O)O)C)C)C)(C)C(=O)O)O[C@@H]1O[C@@H]([C@H]([C@@H]([C@H]1O)O[C@@H]1O[C@@H]([C@H]([C@@H]([C@H]1O)O)O)CO)O)CO)O" "InChI=InChI=1S/C48H76O21/c1-43(2)11-13-48(42(63)69-39-34(59)32(57)29(54)24(18-50)65-39)14-12-45(4)20(21(48)15-43)7-8-26-44(3)16-22(52)37(47(6,41(61)62)27(44)9-10-46(26,45)5)68-40-35(60)36(30(55)25(19-51)66-40)67-38-33(58)31(56)28(53)23(17-49)64-38/h7,21-40,49-60H,8-19H2,1-6H3,(H,61,62)/t21-,22-,23+,24+,25+,26?,27?,28+,29+,30+,31-,32-,33+,34+,35+,36-,37-,38-,39-,40-,44+,45+,46+,47-,48-/m0/s1" "computed SMILES=*C1(C)C(OC2OC(CO)C(O)C(OC3OC(CO)C(O)C(O)C3O)C2O)C(O)CC4(C)C1CCC5(C)C4CC=C6C7CC(C)(C)CCC7(C(=O)OC8OC(CO)C(O)C(O)C8O)CCC65C" "license=License CC-BY-NC-SA 4.0 International" "author=Plant Biology, The Noble Foundation, Ardmore, OK, US/Dennis Fine, Daniel Wherritt, and Lloyd Sumner" "ionization=ESI" "peak width=0.012" "date=2014-12-10 21:06:23+01:00" "column=Waters Acquity BEH C18 1.7um x 2.1 x 150 mm" "retention time=759" "raw data file=C:\Data\Noble-Bruker MS libr eval complex mix\2014Dec_A17 aer rt mix MSMS_1-A,2_01_1415.d" "SPLASH=splash10-000i-1000100009-feb09ed4b4a415c7f6db" "submitter=Aiko Barsch (Bruker)" "MoNA Rating=2.5"
Num Peaks: 30
979.4772 1.201201
979.9819 1.301301
987.4784 100.000000
987.9818 29.729730
988.4817 59.059059
988.9819 8.108108
989.4828 17.317317
990.4833 3.903904
1021.4714 3.403403
1021.9729 4.004004
1022.4731 2.402402
1022.9819 1.001001
1046.4471 1.001001
1055.4646 8.308308
1056.4636 4.904905
1057.4670 1.701702
1083.4545 1.001001
1087.4006 2.302302
1088.4053 1.501502
1117.4313 1.201201
1123.4474 1.201201
1481.7181 4.804805
1482.2202 7.507508
1482.7233 6.506507
1483.2240 4.304304
1483.7260 2.202202
1484.2192 1.001001
1492.7085 1.001001
1493.2106 1.501502
1493.7145 1.401401


Name: 3-Glu(1-3)Glu-28-Glu Medicagenic acid
Synon: $:00in-source
DB#: MetaboBASE1170
InChIKey: SMFAQKPDVMYQGA-KHJSPLTRSA-N
Instrument_type: LC-ESI-TOF
Instrument: impact HD
Ion_mode: N
Collision_energy: 10
Formula: C47H75O19
MW: 943
ExactMass: 943.4902551800001
Comments: "SMILES=[C@H]1([C@@H]([C@@](C2[C@](C1)(C1[C@@](CC2)([C@]2(C(=CC1)[C@H]1[C@@](CC2)(CCC(C1)(C)C)C(=O)O[C@H]1[C@@H]([C@H]([C@@H]([C@H](O1)CO)O)O)O)C)C)C)(C)C(=O)O)O[C@@H]1O[C@@H]([C@H]([C@@H]([C@H]1O)O[C@@H]1O[C@@H]([C@H]([C@@H]([C@H]1O)O)O)CO)O)CO)O" "InChI=InChI=1S/C48H76O21/c1-43(2)11-13-48(42(63)69-39-34(59)32(57)29(54)24(18-50)65-39)14-12-45(4)20(21(48)15-43)7-8-26-44(3)16-22(52)37(47(6,41(61)62)27(44)9-10-46(26,45)5)68-40-35(60)36(30(55)25(19-51)66-40)67-38-33(58)31(56)28(53)23(17-49)64-38/h7,21-40,49-60H,8-19H2,1-6H3,(H,61,62)/t21-,22-,23+,24+,25+,26?,27?,28+,29+,30+,31-,32-,33+,34+,35+,36-,37-,38-,39-,40-,44+,45+,46+,47-,48-/m0/s1" "computed SMILES=*C1(C)C(OC2OC(CO)C(O)C(OC3OC(CO)C(O)C(O)C3O)C2O)C(O)CC4(C)C1CCC5(C)C4CC=C6C7CC(C)(C)CCC7(C(=O)OC8OC(CO)C(O)C(O)C8O)CCC65C" "license=License CC-BY-NC-SA 4.0 International" "author=Plant Biology, The Noble Foundation, Ardmore, OK, US/Dennis Fine, Daniel Wherritt, and Lloyd Sumner" "ionization=ESI" "peak width=0.013" "date=2014-12-10 20:25:33+01:00" "column=Waters Acquity BEH C18 1.7um x 2.1 x 150 mm" "retention time=759" "raw data file=C:\Data\Noble-Bruker MS libr eval complex mix\2014Dec_A17 aerial root mix_1-A,2_01_1414.d" "SPLASH=splash10-000i-1000100009-a9aeffccecb92e72a3dc" "submitter=Aiko Barsch (Bruker)" "MoNA Rating=2.8571428571428568"
Num Peaks: 33
556.0020 4.704705
971.4833 1.201201
987.4818 100.000000
987.9849 32.232232
988.4847 59.159159
988.9872 8.808809
989.4855 16.916917
989.9846 1.001001
990.4869 3.903904
1021.4747 3.503504
1021.9760 3.803804
1022.4774 2.402402
1022.9791 1.101101
1046.4480 1.301301
1046.9506 1.301301
1047.4513 1.101101
1055.4645 7.307307
1056.4686 4.104104
1057.4669 1.701702
1083.4651 1.001001
1087.4034 2.702703
1088.4083 1.701702
1123.4521 1.201201
1481.7239 5.705706
1482.2263 9.209209
1482.7294 7.907908
1483.2300 5.005005
1483.7308 2.402402
1484.2256 1.101101
1492.7157 1.101101
1493.2157 1.701702
1493.7175 1.501502
1494.2192 1.101101


Name: 3-Glu-28-Glu-Bayogenin
Synon: $:00in-source
DB#: MetaboBASE1171
InChIKey: ZUILGDNVKPMVIA-YRTOFAGUSA-N
Precursor_type: [M+FA-H]-
Spectrum_type: MS2
PrecursorMZ: 857.4518
Instrument_type: LC-ESI-TOF
Instrument: impact HD
Ion_mode: N
Collision_energy: 50.9057
Formula: C42H68O15
MW: 812
ExactMass: 812.455821476
Comments: "SMILES=[C@H]1([C@@H]([C@@](C2[C@](C1)(C1[C@@](CC2)([C@]2(C(=CC1)[C@H]1[C@@](CC2)(CCC(C1)(C)C)C(=O)O[C@H]1[C@@H]([C@H]([C@@H]([C@H](O1)CO)O)O)O)C)C)C)(C)CO)O[C@@H]1O[C@@H]([C@H]([C@@H]([C@H]1O)O)O)CO)O" "InChI=InChI=1S/C42H68O15/c1-37(2)11-13-42(36(53)57-35-32(52)30(50)28(48)24(18-44)55-35)14-12-40(5)20(21(42)15-37)7-8-26-38(3)16-22(46)33(39(4,19-45)25(38)9-10-41(26,40)6)56-34-31(51)29(49)27(47)23(17-43)54-34/h7,21-35,43-52H,8-19H2,1-6H3/t21-,22-,23+,24+,25?,26?,27+,28+,29-,30-,31+,32+,33-,34-,35-,38-,39-,40+,41+,42-/m0/s1" "computed SMILES=O=C(OC1OC(CO)C(O)C(O)C1O)C23CCC(C)(C)CC3C4=CCC5C6(C)CC(O)C(OC7OC(CO)C(O)C(O)C7O)C(C)(CO)C6CCC5(C)C4(C)CC2" "license=License CC-BY-NC-SA 4.0 International" "author=Plant Biology, The Noble Foundation, Ardmore, OK, US/Dennis Fine, Daniel Wherritt, and Lloyd Sumner" "ionization=ESI" "collision energy 2=84.8428" "peak width=0.015" "date=2014-12-10 21:06:23+01:00" "column=Waters Acquity BEH C18 1.7um x 2.1 x 150 mm" "retention time=763.2" "raw data file=C:\Data\Noble-Bruker MS libr eval complex mix\2014Dec_A17 aer rt mix MSMS_1-A,2_01_1415.d" "computed mass accuracy=2.591954439805216" "computed mass error=-0.0022224759999289745" "SPLASH=splash10-0002-0000009000-59644d29a04e3b798ee3" "submitter=Aiko Barsch (Bruker)" "MoNA Rating=4.583333333333334"
Num Peaks: 13
101.0228 0.800801
113.0223 0.700701
113.0254 0.500501
487.3428 4.104104
488.3461 0.800801
529.3480 0.400400
649.3958 100.000000
650.3989 38.838839
651.4000 8.308308
652.4066 0.400400
663.4109 1.001001
691.4022 3.403403
692.4069 1.201201


Name: 3-Glu-28-Glu-Bayogenin
Synon: $:00in-source
DB#: MetaboBASE1172
InChIKey: ZUILGDNVKPMVIA-YRTOFAGUSA-N
Instrument_type: LC-ESI-TOF
Instrument: impact HD
Ion_mode: N
Collision_energy: 10
Formula: C42H68O15
MW: 812
ExactMass: 812.455821476
Comments: "SMILES=[C@H]1([C@@H]([C@@](C2[C@](C1)(C1[C@@](CC2)([C@]2(C(=CC1)[C@H]1[C@@](CC2)(CCC(C1)(C)C)C(=O)O[C@H]1[C@@H]([C@H]([C@@H]([C@H](O1)CO)O)O)O)C)C)C)(C)CO)O[C@@H]1O[C@@H]([C@H]([C@@H]([C@H]1O)O)O)CO)O" "InChI=InChI=1S/C42H68O15/c1-37(2)11-13-42(36(53)57-35-32(52)30(50)28(48)24(18-44)55-35)14-12-40(5)20(21(42)15-37)7-8-26-38(3)16-22(46)33(39(4,19-45)25(38)9-10-41(26,40)6)56-34-31(51)29(49)27(47)23(17-43)54-34/h7,21-35,43-52H,8-19H2,1-6H3/t21-,22-,23+,24+,25?,26?,27+,28+,29-,30-,31+,32+,33-,34-,35-,38-,39-,40+,41+,42-/m0/s1" "computed SMILES=O=C(OC1OC(CO)C(O)C(O)C1O)C23CCC(C)(C)CC3C4=CCC5C6(C)CC(O)C(OC7OC(CO)C(O)C(O)C7O)C(C)(CO)C6CCC5(C)C4(C)CC2" "license=License CC-BY-NC-SA 4.0 International" "author=Plant Biology, The Noble Foundation, Ardmore, OK, US/Dennis Fine, Daniel Wherritt, and Lloyd Sumner" "ionization=ESI" "peak width=0.014" "date=2014-12-10 20:25:33+01:00" "column=Waters Acquity BEH C18 1.7um x 2.1 x 150 mm" "retention time=763.2" "raw data file=C:\Data\Noble-Bruker MS libr eval complex mix\2014Dec_A17 aerial root mix_1-A,2_01_1414.d" "SPLASH=splash10-0a4i-0000000091-7ad535ab297a9513965d" "submitter=Aiko Barsch (Bruker)" "MoNA Rating=4.444444444444445"
Num Peaks: 64
112.9852 0.800801
116.9277 0.800801
174.9560 0.800801
242.9419 0.400400
297.0762 1.601602
556.0020 10.710711
557.0048 1.301301
649.3952 3.603604
650.3982 1.401401
666.0149 0.800801
730.4244 0.600601
730.9248 0.300300
753.4261 0.500501
753.9283 0.600601
811.4488 4.204204
811.9494 2.302302
812.4522 1.801802
812.9540 0.200200
818.4372 0.600601
818.9388 0.300300
819.4407 0.200200
825.4259 1.501502
826.4249 0.500501
834.4504 3.303303
834.9536 3.103103
835.4537 1.801802
835.9583 0.500501
847.4216 2.802803
848.4246 1.301301
849.4243 1.201201
857.4537 100.000000
857.9538 0.700701
858.4567 49.749750
859.4581 15.615616
860.4617 3.603604
861.4642 0.300300
874.4374 1.301301
899.4488 0.300300
901.4746 0.800801
925.4384 10.410410
926.4410 5.205205
927.4443 1.801802
929.3818 5.605606
930.3851 3.403403
931.3882 1.401401
940.4590 0.300300
956.3677 0.300300
958.4731 0.200200
985.4639 0.700701
987.4039 0.800801
987.4734 1.101101
993.4198 1.501502
994.4227 0.200200
1015.5118 0.300300
1059.5000 2.302302
1060.5000 1.401401
1061.4991 0.300300
1109.5237 0.300300
1110.5287 0.300300
1217.6736 1.301301
1218.1738 1.501502
1218.6760 1.201201
1219.1827 0.300300
1241.1747 0.300300


Name: 3-Glu-28-Glu-Bayogenin
Synon: $:00in-source
DB#: MetaboBASE1173
InChIKey: ZUILGDNVKPMVIA-YRTOFAGUSA-N
Instrument_type: LC-ESI-TOF
Instrument: impact HD
Ion_mode: N
Formula: C42H68O15
MW: 812
ExactMass: 812.455821476
Comments: "SMILES=[C@H]1([C@@H]([C@@](C2[C@](C1)(C1[C@@](CC2)([C@]2(C(=CC1)[C@H]1[C@@](CC2)(CCC(C1)(C)C)C(=O)O[C@H]1[C@@H]([C@H]([C@@H]([C@H](O1)CO)O)O)O)C)C)C)(C)CO)O[C@@H]1O[C@@H]([C@H]([C@@H]([C@H]1O)O)O)CO)O" "InChI=InChI=1S/C42H68O15/c1-37(2)11-13-42(36(53)57-35-32(52)30(50)28(48)24(18-44)55-35)14-12-40(5)20(21(42)15-37)7-8-26-38(3)16-22(46)33(39(4,19-45)25(38)9-10-41(26,40)6)56-34-31(51)29(49)27(47)23(17-43)54-34/h7,21-35,43-52H,8-19H2,1-6H3/t21-,22-,23+,24+,25?,26?,27+,28+,29-,30-,31+,32+,33-,34-,35-,38-,39-,40+,41+,42-/m0/s1" "computed SMILES=O=C(OC1OC(CO)C(O)C(O)C1O)C23CCC(C)(C)CC3C4=CCC5C6(C)CC(O)C(OC7OC(CO)C(O)C(O)C7O)C(C)(CO)C6CCC5(C)C4(C)CC2" "license=License CC-BY-NC-SA 4.0 International" "author=Plant Biology, The Noble Foundation, Ardmore, OK, US/Dennis Fine, Daniel Wherritt, and Lloyd Sumner" "ionization=ESI" "peak width=0.013" "date=2014-12-10 21:06:23+01:00" "column=Waters Acquity BEH C18 1.7um x 2.1 x 150 mm" "retention time=763.2" "raw data file=C:\Data\Noble-Bruker MS libr eval complex mix\2014Dec_A17 aer rt mix MSMS_1-A,2_01_1415.d" "SPLASH=splash10-0a4i-0000000091-e40fef6a42d986786e1f" "submitter=Aiko Barsch (Bruker)" "MoNA Rating=3.888888888888889"
Num Peaks: 28
297.0770 1.801802
649.3970 4.004004
650.3994 1.801802
811.4504 3.603604
811.9542 2.302302
812.4531 2.302302
825.4238 1.501502
834.4526 3.003003
834.9539 2.602603
835.4539 1.401401
847.4254 2.902903
848.4248 1.501502
849.4235 1.401401
857.4556 100.000000
858.4584 48.948949
859.4595 15.515516
860.4632 3.903904
874.4443 1.401401
901.4791 1.201201
925.4394 11.111111
926.4410 5.405405
927.4470 1.901902
929.3811 4.904905
930.3855 2.902903
931.3864 1.201201
993.4310 1.401401
1109.5293 1.101101
1218.1863 1.401401


Name: 3-(Rha(1-2)Glu(1-2)Glu-28-Glu Hederagenin
Synon: $:00in-source
DB#: MetaboBASE1174
InChIKey: RJAYNHZZCRJAEA-BUZSGSMCSA-N
Precursor_type: [M+FA-H]-
Spectrum_type: MS2
PrecursorMZ: 1149.563
Instrument_type: LC-ESI-TOF
Instrument: impact HD
Ion_mode: N
Collision_energy: 61.8604
Formula: C54H88O23
MW: 1104
ExactMass: 1104.5716390759999
Comments: "SMILES=C1[C@@H]([C@@](C2[C@](C1)(C1[C@@](CC2)([C@]2(C(=CC1)[C@H]1[C@@](CC2)(CCC(C1)(C)C)C(=O)O[C@H]1[C@@H]([C@H]([C@@H]([C@H](O1)CO)O)O)O)C)C)C)(C)CO)O[C@@H]1O[C@@H]([C@H]([C@@H]([C@H]1O[C@@H]1O[C@@H]([C@H]([C@@H]([C@H]1O[C@@H]1O[C@H]([C@@H]([C@H]([C@H]1O)O)O)C)O)O)CO)O)O)CO" "InChI=InChI=1S/C54H88O23/c1-23-32(59)36(63)40(67)44(70-23)75-43-39(66)35(62)28(21-57)73-47(43)76-42-38(65)34(61)27(20-56)72-46(42)74-31-11-12-50(4)29(51(31,5)22-58)10-13-53(7)30(50)9-8-24-25-18-49(2,3)14-16-54(25,17-15-52(24,53)6)48(69)77-45-41(68)37(64)33(60)26(19-55)71-45/h8,23,25-47,55-68H,9-22H2,1-7H3/t23-,25-,26+,27+,28+,29?,30?,31-,32-,33+,34+,35+,36+,37-,38-,39-,40+,41+,42+,43+,44-,45-,46-,47-,50-,51-,52+,53+,54-/m0/s1" "computed SMILES=O=C(OC1OC(CO)C(O)C(O)C1O)C23CCC(C)(C)CC3C4=CCC5C6(C)CCC(OC7OC(CO)C(O)C(O)C7OC8OC(CO)C(O)C(O)C8OC9OC(C)C(O)C(O)C9O)C(C)(CO)C6CCC5(C)C4(C)CC2" "license=License CC-BY-NC-SA 4.0 International" "author=Plant Biology, The Noble Foundation, Ardmore, OK, US/Dennis Fine, Daniel Wherritt, and Lloyd Sumner" "ionization=ESI" "collision energy 2=103.101" "peak width=0.015" "date=2014-12-10 21:06:23+01:00" "column=Waters Acquity BEH C18 1.7um x 2.1 x 150 mm" "retention time=769.8" "raw data file=C:\Data\Noble-Bruker MS libr eval complex mix\2014Dec_A17 aer rt mix MSMS_1-A,2_01_1415.d" "computed mass accuracy=5.95015323204509" "computed mass error=-0.00684007599988945" "SPLASH=splash10-0006-0000304509-c1e2dcc6f2aa02c71670" "submitter=Aiko Barsch (Bruker)" "MoNA Rating=4.545454545454546"
Num Peaks: 51
101.0216 0.400400
101.0248 2.002002
113.0245 1.601602
119.0341 1.401401
119.0376 0.300300
131.0351 0.600601
143.0343 1.401401
161.0442 1.101101
163.0598 0.600601
181.2959 0.200200
205.0724 0.700701
247.0814 1.301301
248.0884 0.200200
272.8733 0.300300
276.1642 0.400400
276.2003 0.300300
276.3092 0.200200
276.4985 0.200200
282.7889 0.300300
307.1057 0.500501
439.3185 0.500501
471.3475 52.352352
472.3494 14.214214
473.3525 2.102102
476.3886 0.300300
485.3657 0.500501
525.3618 1.901902
615.3895 15.815816
616.3927 4.304304
617.3997 0.400400
633.4014 46.546547
634.4048 14.914915
635.4055 3.803804
675.4082 0.400400
777.4393 13.013013
778.4445 4.304304
795.4529 56.556557
796.4556 24.124124
797.4558 6.706707
798.4598 0.900901
837.4555 1.201201
941.4026 0.500501
941.5097 100.000000
941.7158 0.400400
942.5125 50.450450
943.5161 15.515516
944.5087 2.802803
983.5152 0.900901
984.5110 0.900901
1265.3430 0.300300
1483.8208 0.300300


Name: 3-(Rha(1-2)Glu(1-2)Glu-28-Glu Hederagenin
Synon: $:00in-source
DB#: MetaboBASE1175
InChIKey: RJAYNHZZCRJAEA-BUZSGSMCSA-N
Instrument_type: LC-ESI-TOF
Instrument: impact HD
Ion_mode: N
Formula: C54H88O23
MW: 1104
ExactMass: 1104.5716390759999
Comments: "SMILES=C1[C@@H]([C@@](C2[C@](C1)(C1[C@@](CC2)([C@]2(C(=CC1)[C@H]1[C@@](CC2)(CCC(C1)(C)C)C(=O)O[C@H]1[C@@H]([C@H]([C@@H]([C@H](O1)CO)O)O)O)C)C)C)(C)CO)O[C@@H]1O[C@@H]([C@H]([C@@H]([C@H]1O[C@@H]1O[C@@H]([C@H]([C@@H]([C@H]1O[C@@H]1O[C@H]([C@@H]([C@H]([C@H]1O)O)O)C)O)O)CO)O)O)CO" "InChI=InChI=1S/C54H88O23/c1-23-32(59)36(63)40(67)44(70-23)75-43-39(66)35(62)28(21-57)73-47(43)76-42-38(65)34(61)27(20-56)72-46(42)74-31-11-12-50(4)29(51(31,5)22-58)10-13-53(7)30(50)9-8-24-25-18-49(2,3)14-16-54(25,17-15-52(24,53)6)48(69)77-45-41(68)37(64)33(60)26(19-55)71-45/h8,23,25-47,55-68H,9-22H2,1-7H3/t23-,25-,26+,27+,28+,29?,30?,31-,32-,33+,34+,35+,36+,37-,38-,39-,40+,41+,42+,43+,44-,45-,46-,47-,50-,51-,52+,53+,54-/m0/s1" "computed SMILES=O=C(OC1OC(CO)C(O)C(O)C1O)C23CCC(C)(C)CC3C4=CCC5C6(C)CCC(OC7OC(CO)C(O)C(O)C7OC8OC(CO)C(O)C(O)C8OC9OC(C)C(O)C(O)C9O)C(C)(CO)C6CCC5(C)C4(C)CC2" "license=License CC-BY-NC-SA 4.0 International" "author=Plant Biology, The Noble Foundation, Ardmore, OK, US/Dennis Fine, Daniel Wherritt, and Lloyd Sumner" "ionization=ESI" "peak width=0.014" "date=2014-12-10 21:06:23+01:00" "column=Waters Acquity BEH C18 1.7um x 2.1 x 150 mm" "retention time=769.8" "raw data file=C:\Data\Noble-Bruker MS libr eval complex mix\2014Dec_A17 aer rt mix MSMS_1-A,2_01_1415.d" "SPLASH=splash10-0udj-0910010000-022a2c91a3cb43e84ed5" "submitter=Aiko Barsch (Bruker)" "MoNA Rating=3.888888888888889"
Num Peaks: 77
328.1763 1.201201
328.7156 1.001001
329.4948 1.001001
331.6997 1.101101
331.7599 1.101101
331.7776 1.001001
331.8806 1.101101
331.9247 1.001001
332.3550 1.201201
332.4045 1.001001
470.2542 1.301301
574.2834 21.321321
574.7856 12.912913
575.2838 5.605606
575.7884 1.901902
597.2821 5.005005
597.7871 3.403403
598.2877 1.401401
623.7438 1.601602
624.2386 1.001001
690.2953 7.507508
690.7969 5.505506
691.2988 2.802803
691.8000 1.301301
713.2956 2.002002
713.7971 1.301301
867.4385 2.302302
868.4465 1.201201
941.5069 8.308308
942.5107 4.304304
943.5149 1.601602
1007.4953 1.001001
1007.9891 1.101101
1103.5618 26.626627
1104.0624 3.103103
1104.5656 17.417417
1105.5686 6.206206
1106.5648 1.201201
1126.5736 7.607608
1127.0701 9.809810
1127.5690 6.406406
1128.0707 3.103103
1128.5748 1.301301
1139.5411 3.403403
1140.5391 2.002002
1141.5342 1.801802
1149.5692 100.000000
1150.0750 6.806807
1150.5718 66.066066
1151.0787 2.202202
1151.5748 25.025025
1152.5754 7.607608
1153.5778 1.801802
1160.5603 1.501502
1161.0634 1.701702
1161.5640 1.401401
1183.5658 1.501502
1184.0680 2.002002
1184.5656 1.501502
1185.0625 1.001001
1193.5898 1.101101
1217.5535 8.608609
1218.5575 5.805806
1221.4999 6.506507
1222.5005 3.903904
1223.4999 2.102102
1242.5793 5.705706
1243.0819 6.806807
1243.5819 5.805806
1244.0822 2.702703
1244.5769 1.601602
1285.5477 1.601602
1381.5903 10.810811
1382.5891 7.907908
1383.5941 3.603604
1384.5907 1.401401
1403.5522 1.001001


Name: 3-(Rha(1-2)Glu(1-2)Glu-28-Glu Hederagenin
Synon: $:00in-source
DB#: MetaboBASE1176
InChIKey: RJAYNHZZCRJAEA-BUZSGSMCSA-N
Instrument_type: LC-ESI-TOF
Instrument: impact HD
Ion_mode: N
Collision_energy: 10
Formula: C54H88O23
MW: 1104
ExactMass: 1104.5716390759999
Comments: "SMILES=C1[C@@H]([C@@](C2[C@](C1)(C1[C@@](CC2)([C@]2(C(=CC1)[C@H]1[C@@](CC2)(CCC(C1)(C)C)C(=O)O[C@H]1[C@@H]([C@H]([C@@H]([C@H](O1)CO)O)O)O)C)C)C)(C)CO)O[C@@H]1O[C@@H]([C@H]([C@@H]([C@H]1O[C@@H]1O[C@@H]([C@H]([C@@H]([C@H]1O[C@@H]1O[C@H]([C@@H]([C@H]([C@H]1O)O)O)C)O)O)CO)O)O)CO" "InChI=InChI=1S/C54H88O23/c1-23-32(59)36(63)40(67)44(70-23)75-43-39(66)35(62)28(21-57)73-47(43)76-42-38(65)34(61)27(20-56)72-46(42)74-31-11-12-50(4)29(51(31,5)22-58)10-13-53(7)30(50)9-8-24-25-18-49(2,3)14-16-54(25,17-15-52(24,53)6)48(69)77-45-41(68)37(64)33(60)26(19-55)71-45/h8,23,25-47,55-68H,9-22H2,1-7H3/t23-,25-,26+,27+,28+,29?,30?,31-,32-,33+,34+,35+,36+,37-,38-,39-,40+,41+,42+,43+,44-,45-,46-,47-,50-,51-,52+,53+,54-/m0/s1" "computed SMILES=O=C(OC1OC(CO)C(O)C(O)C1O)C23CCC(C)(C)CC3C4=CCC5C6(C)CCC(OC7OC(CO)C(O)C(O)C7OC8OC(CO)C(O)C(O)C8OC9OC(C)C(O)C(O)C9O)C(C)(CO)C6CCC5(C)C4(C)CC2" "license=License CC-BY-NC-SA 4.0 International" "author=Plant Biology, The Noble Foundation, Ardmore, OK, US/Dennis Fine, Daniel Wherritt, and Lloyd Sumner" "ionization=ESI" "peak width=0.015" "date=2014-12-10 20:25:33+01:00" "column=Waters Acquity BEH C18 1.7um x 2.1 x 150 mm" "retention time=769.8" "raw data file=C:\Data\Noble-Bruker MS libr eval complex mix\2014Dec_A17 aerial root mix_1-A,2_01_1414.d" "SPLASH=splash10-0udj-0910020000-68d1b6522b1ee475a1fd" "submitter=Aiko Barsch (Bruker)" "MoNA Rating=4.444444444444445"
Num Peaks: 62
174.9570 0.700701
470.2520 1.201201
556.0020 12.412412
557.0028 1.801802
574.2829 24.324324
574.7839 14.714715
575.2854 5.905906
575.7866 2.002002
597.2851 5.505506
597.7861 3.503504
598.2874 1.601602
623.7414 1.101101
690.2931 6.006006
690.7946 4.404404
691.2974 1.801802
713.2969 1.801802
713.7982 1.401401
867.4368 2.402402
941.5099 7.107107
942.5145 3.803804
943.5175 0.900901
987.4742 1.201201
1007.9954 1.201201
1103.5625 24.324324
1104.0667 2.802803
1104.5654 15.415415
1105.5693 5.405405
1106.5719 1.501502
1126.5686 8.708709
1127.0698 10.610611
1127.5696 7.207207
1128.0737 3.703704
1128.5709 1.201201
1139.5382 3.203203
1140.5421 1.901902
1141.5287 1.701702
1149.5687 100.000000
1150.0719 7.807808
1150.5715 65.265265
1151.0742 2.602603
1151.5730 24.624625
1152.5750 6.806807
1153.5626 1.201201
1160.5599 1.501502
1161.0591 1.701702
1183.5604 2.002002
1184.0677 2.102102
1184.5667 1.101101
1217.5552 8.108108
1218.5566 4.904905
1219.5546 2.302302
1221.4967 6.406406
1222.4968 4.604605
1223.5007 2.302302
1242.5758 5.605606
1243.0792 7.107107
1243.5798 5.105105
1244.0831 2.902903
1285.5411 1.201201
1381.5872 8.608609
1382.5911 6.706707
1383.5959 2.702703


Name: 3-Glu(1,3)Glu-28-Glu Bayogenin
Synon: $:00in-source
DB#: MetaboBASE1177
InChIKey: MWAZVBLWMOGSFL-IRLZNWNJSA-N
Instrument_type: LC-ESI-TOF
Instrument: impact HD
Ion_mode: N
Formula: C48H78O20
MW: 974
ExactMass: 974.508644896
Comments: "SMILES=[C@H]1([C@@H]([C@@](C2[C@](C1)(C1[C@@](CC2)([C@]2(C(=CC1)[C@H]1[C@@](CC2)(CCC(C1)(C)C)C(=O)O[C@H]1[C@@H]([C@H]([C@@H]([C@H](O1)CO)O)O)O)C)C)C)(C)CO)O[C@@H]1O[C@@H]([C@H]([C@@H]([C@H]1O)O[C@@H]1O[C@@H]([C@H]([C@@H]([C@H]1O)O)O)CO)O)CO)O" "InChI=InChI=1S/C48H78O20/c1-43(2)11-13-48(42(62)68-40-35(60)33(58)30(55)25(18-50)64-40)14-12-46(5)21(22(48)15-43)7-8-28-44(3)16-23(53)38(45(4,20-52)27(44)9-10-47(28,46)6)67-41-36(61)37(31(56)26(19-51)65-41)66-39-34(59)32(57)29(54)24(17-49)63-39/h7,22-41,49-61H,8-20H2,1-6H3/t22-,23-,24+,25+,26+,27?,28?,29+,30+,31+,32-,33-,34+,35+,36+,37-,38-,39-,40-,41-,44-,45-,46+,47+,48-/m0/s1" "computed SMILES=O=C(OC1OC(CO)C(O)C(O)C1O)C23CCC(C)(C)CC3C4=CCC5C6(C)CC(O)C(OC7OC(CO)C(O)C(OC8OC(CO)C(O)C(O)C8O)C7O)C(C)(CO)C6CCC5(C)C4(C)CC2" "license=License CC-BY-NC-SA 4.0 International" "author=Plant Biology, The Noble Foundation, Ardmore, OK, US/Dennis Fine, Daniel Wherritt, and Lloyd Sumner" "ionization=ESI" "peak width=0.014" "date=2014-12-12 20:57:07+01:00" "column=Waters Acquity BEH C18 1.7um x 2.1 x 150 mm" "retention time=743.4" "raw data file=C:\Data\Noble-Bruker MS libr eval complex mix\2014Dec_A17 aer rt mix MSMS_1-A,2_01_1447.d" "SPLASH=splash10-00di-9000200007-91ba309047de3411bf7f" "submitter=Aiko Barsch (Bruker)" "MoNA Rating=3.888888888888889"
Num Peaks: 71
509.2493 1.301301
811.4465 8.508509
812.4495 3.303303
813.4542 1.301301
892.4681 1.801802
892.9758 1.901902
893.4801 1.201201
973.5031 59.059059
974.0048 29.129129
974.5061 40.640641
975.0071 7.707708
975.5095 10.010010
976.0072 1.001001
976.5065 2.102102
979.4867 1.401401
979.9867 1.301301
991.4889 1.201201
991.9897 1.401401
996.5053 15.315315
997.0073 17.717718
997.5082 10.210210
998.0079 4.904905
998.5058 1.901902
1007.4994 1.401401
1007.9928 1.801802
1008.4960 1.201201
1009.4794 2.402402
1010.4803 1.501502
1011.4785 1.101101
1015.5103 1.001001
1016.5079 2.002002
1017.0065 1.101101
1017.5080 1.101101
1019.5077 100.000000
1020.5103 55.155155
1021.5131 22.822823
1022.5135 6.106106
1023.5095 1.401401
1030.4999 3.403403
1030.9999 3.003003
1031.5049 2.102102
1032.0054 1.101101
1032.4780 2.202202
1032.9701 2.602603
1033.4753 1.701702
1063.5282 1.601602
1087.4926 11.211211
1088.4934 6.406406
1089.5017 2.502503
1091.4352 11.011011
1092.4392 7.207207
1093.4398 3.003003
1117.5377 1.301301
1149.4590 1.701702
1155.4790 1.501502
1159.4221 1.101101
1163.5455 3.803804
1164.5568 2.202202
1460.7578 10.610611
1461.2587 16.016016
1461.7612 13.913914
1462.2623 9.109109
1462.7664 4.604605
1463.2579 1.601602
1467.2404 1.301301
1467.7411 1.101101
1484.2532 1.001001
1494.7416 2.102102
1495.2506 3.203203
1495.7426 2.102102
1496.2477 1.301301


Name: 3-Glu(1,3)Glu-28-Glu Bayogenin
Synon: $:00in-source
DB#: MetaboBASE1178
InChIKey: MWAZVBLWMOGSFL-IRLZNWNJSA-N
Precursor_type: [M-H]-
Spectrum_type: MS2
PrecursorMZ: 973.499
Instrument_type: LC-ESI-TOF
Instrument: impact HD
Ion_mode: N
Collision_energy: 55.2568
Formula: C48H78O20
MW: 974
ExactMass: 974.508644896
Comments: "SMILES=[C@H]1([C@@H]([C@@](C2[C@](C1)(C1[C@@](CC2)([C@]2(C(=CC1)[C@H]1[C@@](CC2)(CCC(C1)(C)C)C(=O)O[C@H]1[C@@H]([C@H]([C@@H]([C@H](O1)CO)O)O)O)C)C)C)(C)CO)O[C@@H]1O[C@@H]([C@H]([C@@H]([C@H]1O)O[C@@H]1O[C@@H]([C@H]([C@@H]([C@H]1O)O)O)CO)O)CO)O" "InChI=InChI=1S/C48H78O20/c1-43(2)11-13-48(42(62)68-40-35(60)33(58)30(55)25(18-50)64-40)14-12-46(5)21(22(48)15-43)7-8-28-44(3)16-23(53)38(45(4,20-52)27(44)9-10-47(28,46)6)67-41-36(61)37(31(56)26(19-51)65-41)66-39-34(59)32(57)29(54)24(17-49)63-39/h7,22-41,49-61H,8-20H2,1-6H3/t22-,23-,24+,25+,26+,27?,28?,29+,30+,31+,32-,33-,34+,35+,36+,37-,38-,39-,40-,41-,44-,45-,46+,47+,48-/m0/s1" "computed SMILES=O=C(OC1OC(CO)C(O)C(O)C1O)C23CCC(C)(C)CC3C4=CCC5C6(C)CC(O)C(OC7OC(CO)C(O)C(OC8OC(CO)C(O)C(O)C8O)C7O)C(C)(CO)C6CCC5(C)C4(C)CC2" "license=License CC-BY-NC-SA 4.0 International" "author=Plant Biology, The Noble Foundation, Ardmore, OK, US/Dennis Fine, Daniel Wherritt, and Lloyd Sumner" "ionization=ESI" "collision energy 2=92.0947" "peak width=0.015" "date=2014-12-12 20:57:07+01:00" "column=Waters Acquity BEH C18 1.7um x 2.1 x 150 mm" "retention time=743.4" "raw data file=C:\Data\Noble-Bruker MS libr eval complex mix\2014Dec_A17 aer rt mix MSMS_1-A,2_01_1447.d" "computed mass accuracy=2.4333830850299165" "computed mass error=-0.002368895999893539" "SPLASH=splash10-03dr-0000505090-8fd470ba5051047633f8" "submitter=Aiko Barsch (Bruker)" "MoNA Rating=4.583333333333334"
Num Peaks: 21
101.0248 2.102102
113.0246 3.703704
119.0348 2.102102
179.0557 1.801802
439.3226 6.906907
440.3164 1.101101
455.3163 1.001001
487.3423 63.563564
488.3432 16.716717
488.3559 2.202202
631.3853 18.118118
632.3887 4.004004
649.3946 49.249249
650.3997 18.318318
651.4001 4.604605
811.4481 100.000000
812.3892 0.700701
812.4528 45.545546
813.4537 11.611612
814.4545 1.201201
853.4450 1.201201


Name: 3-Glu(1,3)Glu-28-Glu Bayogenin
Synon: $:00in-source
DB#: MetaboBASE1179
InChIKey: MWAZVBLWMOGSFL-IRLZNWNJSA-N
Precursor_type: [M+FA-H]-
Spectrum_type: MS2
PrecursorMZ: 1019.502
Instrument_type: LC-ESI-TOF
Instrument: impact HD
Ion_mode: N
Collision_energy: 56.9821
Formula: C48H78O20
MW: 974
ExactMass: 974.508644896
Comments: "SMILES=[C@H]1([C@@H]([C@@](C2[C@](C1)(C1[C@@](CC2)([C@]2(C(=CC1)[C@H]1[C@@](CC2)(CCC(C1)(C)C)C(=O)O[C@H]1[C@@H]([C@H]([C@@H]([C@H](O1)CO)O)O)O)C)C)C)(C)CO)O[C@@H]1O[C@@H]([C@H]([C@@H]([C@H]1O)O[C@@H]1O[C@@H]([C@H]([C@@H]([C@H]1O)O)O)CO)O)CO)O" "InChI=InChI=1S/C48H78O20/c1-43(2)11-13-48(42(62)68-40-35(60)33(58)30(55)25(18-50)64-40)14-12-46(5)21(22(48)15-43)7-8-28-44(3)16-23(53)38(45(4,20-52)27(44)9-10-47(28,46)6)67-41-36(61)37(31(56)26(19-51)65-41)66-39-34(59)32(57)29(54)24(17-49)63-39/h7,22-41,49-61H,8-20H2,1-6H3/t22-,23-,24+,25+,26+,27?,28?,29+,30+,31+,32-,33-,34+,35+,36+,37-,38-,39-,40-,41-,44-,45-,46+,47+,48-/m0/s1" "computed SMILES=O=C(OC1OC(CO)C(O)C(O)C1O)C23CCC(C)(C)CC3C4=CCC5C6(C)CC(O)C(OC7OC(CO)C(O)C(OC8OC(CO)C(O)C(O)C8O)C7O)C(C)(CO)C6CCC5(C)C4(C)CC2" "license=License CC-BY-NC-SA 4.0 International" "author=Plant Biology, The Noble Foundation, Ardmore, OK, US/Dennis Fine, Daniel Wherritt, and Lloyd Sumner" "ionization=ESI" "collision energy 2=94.9701" "peak width=0.015" "date=2014-12-12 20:57:07+01:00" "column=Waters Acquity BEH C18 1.7um x 2.1 x 150 mm" "retention time=743.4" "raw data file=C:\Data\Noble-Bruker MS libr eval complex mix\2014Dec_A17 aer rt mix MSMS_1-A,2_01_1447.d" "computed mass accuracy=4.7531991109445375" "computed mass error=-0.004845896000006178" "SPLASH=splash10-03di-0000303090-2f83690de3045b14107a" "submitter=Aiko Barsch (Bruker)" "MoNA Rating=4.583333333333334"
Num Peaks: 44
101.0242 1.901902
102.0255 0.100100
113.0247 2.702703
119.0353 1.601602
143.0328 0.200200
149.0391 0.100100
149.0459 0.200200
161.0458 0.900901
179.0558 1.301301
323.0916 0.100100
437.3056 0.500501
439.3215 4.304304
440.3241 1.401401
455.3162 1.401401
456.3210 0.200200
467.3168 0.900901
469.3339 0.800801
485.3320 0.500501
487.3431 40.540541
488.3459 11.611612
489.3384 0.500501
489.3524 1.001001
529.3569 0.500501
530.3564 0.100100
631.3840 11.711712
632.3868 4.204204
633.3918 0.700701
649.3957 30.630631
650.3980 11.311311
651.4031 2.102102
663.3956 0.200200
664.4087 0.200200
691.4042 0.900901
793.4278 0.700701
794.4543 0.200200
811.3736 0.300300
811.4490 100.000000
811.6279 0.200200
812.4523 45.645646
813.4542 11.611612
814.4609 1.501502
853.4583 2.702703
854.4625 1.201201
855.4822 0.200200


Name: 3-Ara-28-Glu Hederagenin
Synon: $:00in-source
DB#: MetaboBASE1180
InChIKey: UCVNVSOIAFGLPL-FBTWDWMFSA-N
Instrument_type: LC-ESI-TOF
Instrument: impact HD
Ion_mode: N
Formula: C41H66O13
MW: 766
ExactMass: 766.450342172
Comments: "SMILES=C1[C@@H]([C@@](C2[C@](C1)(C1[C@@](CC2)([C@]2(C(=CC1)[C@H]1[C@@](CC2)(CCC(C1)(C)C)C(=O)O[C@H]1[C@@H]([C@H]([C@@H]([C@H](O1)CO)O)O)O)C)C)C)(C)CO)O[C@@H]1OC[C@@H]([C@@H]([C@H]1O)O)O" "InChI=InChI=1S/C41H66O13/c1-36(2)13-15-41(35(50)54-34-32(49)30(47)29(46)24(18-42)52-34)16-14-39(5)21(22(41)17-36)7-8-26-37(3)11-10-27(53-33-31(48)28(45)23(44)19-51-33)38(4,20-43)25(37)9-12-40(26,39)6/h7,22-34,42-49H,8-20H2,1-6H3/t22-,23-,24+,25?,26?,27-,28-,29+,30-,31+,32+,33-,34-,37-,38-,39+,40+,41-/m0/s1" "computed SMILES=O=C(OC1OC(CO)C(O)C(O)C1O)C23CCC(C)(C)CC3C4=CCC5C6(C)CCC(OC7OCC(O)C(O)C7O)C(C)(CO)C6CCC5(C)C4(C)CC2" "license=License CC-BY-NC-SA 4.0 International" "author=Plant Biology, The Noble Foundation, Ardmore, OK, US/Dennis Fine, Daniel Wherritt, and Lloyd Sumner" "ionization=ESI" "peak width=0.014" "date=2014-12-12 20:57:07+01:00" "column=Waters Acquity BEH C18 1.7um x 2.1 x 150 mm" "retention time=926.4" "raw data file=C:\Data\Noble-Bruker MS libr eval complex mix\2014Dec_A17 aer rt mix MSMS_1-A,2_01_1447.d" "SPLASH=splash10-03di-0000000090-5b3914472545fe0784ca" "submitter=Aiko Barsch (Bruker)" "MoNA Rating=3.888888888888889"
Num Peaks: 33
112.9860 1.101101
116.9281 1.501502
635.2982 3.203203
635.8014 2.102102
636.3035 0.900901
636.8040 0.200200
801.4197 3.003003
802.4247 1.801802
803.0724 0.100100
803.4225 1.501502
811.4512 100.000000
811.6666 0.200200
812.4533 46.146146
812.7480 0.100100
813.4566 14.614615
813.9695 0.100100
814.4568 3.403403
828.4374 2.002002
879.4362 8.308308
880.4401 4.104104
883.3815 6.606607
884.3836 4.204204
884.4717 0.100100
884.9749 0.100100
885.3835 0.200200
911.3664 0.200200
911.4636 4.004004
912.3754 0.100100
912.4662 2.802803
913.3810 0.100100
955.4917 4.604605
956.4932 2.502503
1001.4973 0.900901


Name: 3-Ara-28-Glu Hederagenin
Synon: $:00in-source
DB#: MetaboBASE1181
InChIKey: UCVNVSOIAFGLPL-FBTWDWMFSA-N
Precursor_type: [M+FA-H]-
Spectrum_type: MS2
PrecursorMZ: 811.4452
Instrument_type: LC-ESI-TOF
Instrument: impact HD
Ion_mode: N
Collision_energy: 49.1798
Formula: C41H66O13
MW: 766
ExactMass: 766.450342172
Comments: "SMILES=C1[C@@H]([C@@](C2[C@](C1)(C1[C@@](CC2)([C@]2(C(=CC1)[C@H]1[C@@](CC2)(CCC(C1)(C)C)C(=O)O[C@H]1[C@@H]([C@H]([C@@H]([C@H](O1)CO)O)O)O)C)C)C)(C)CO)O[C@@H]1OC[C@@H]([C@@H]([C@H]1O)O)O" "InChI=InChI=1S/C41H66O13/c1-36(2)13-15-41(35(50)54-34-32(49)30(47)29(46)24(18-42)52-34)16-14-39(5)21(22(41)17-36)7-8-26-37(3)11-10-27(53-33-31(48)28(45)23(44)19-51-33)38(4,20-43)25(37)9-12-40(26,39)6/h7,22-34,42-49H,8-20H2,1-6H3/t22-,23-,24+,25?,26?,27-,28-,29+,30-,31+,32+,33-,34-,37-,38-,39+,40+,41-/m0/s1" "computed SMILES=O=C(OC1OC(CO)C(O)C(O)C1O)C23CCC(C)(C)CC3C4=CCC5C6(C)CCC(OC7OCC(O)C(O)C7O)C(C)(CO)C6CCC5(C)C4(C)CC2" "license=License CC-BY-NC-SA 4.0 International" "author=Plant Biology, The Noble Foundation, Ardmore, OK, US/Dennis Fine, Daniel Wherritt, and Lloyd Sumner" "ionization=ESI" "collision energy 2=81.9664" "peak width=0.016" "date=2014-12-12 20:57:07+01:00" "column=Waters Acquity BEH C18 1.7um x 2.1 x 150 mm" "retention time=926.4" "raw data file=C:\Data\Noble-Bruker MS libr eval complex mix\2014Dec_A17 aer rt mix MSMS_1-A,2_01_1447.d" "computed mass accuracy=4.1200219065595345" "computed mass error=-0.003343171999972583" "SPLASH=splash10-0udi-0000009000-b65607bb6e1ec086fd4f" "submitter=Aiko Barsch (Bruker)" "MoNA Rating=4.583333333333334"
Num Peaks: 3
603.3907 100.000000
604.3940 32.732733
605.3963 5.005005


Name: 3-Glu(1-3)Glu-28-Xyl(1-4)[Api(1-3)]Rha(1-2)Ara Zanhic acid
Synon: $:00in-source
DB#: MetaboBASE1182
InChIKey: VCIIUHJUYQIBSQ-LOCYOFRUSA-N
Instrument_type: LC-ESI-TOF
Instrument: impact HD
Ion_mode: N
Formula: C63H100O33
MW: 1384
ExactMass: 1384.6146856599999
Comments: "SMILES=[C@H]1([C@@H]([C@@](C2[C@](C1)(C1[C@@](CC2)([C@]2(C(=CC1)[C@H]1[C@@]([C@@H](C2)O)(CCC(C1)(C)C)C(=O)O[C@H]1[C@@H]([C@H]([C@H](CO1)O)O)O[C@H]1[C@@H]([C@@H]([C@H]([C@@H](O1)C)O[C@H]1[C@@H]([C@H]([C@@H](CO1)O)O)O)O[C@@H]1OC[C@]([C@H]1O)(O)CO)O)C)C)C)(C)C(=O)O)O[C@@H]1O[C@@H]([C@H]([C@@H]([C@H]1O)O[C@@H]1O[C@@H]([C@H]([C@@H]([C@H]1O)O)O)CO)O)CO)O" "InChI=InChI=1S/C63H100O33/c1-23-43(91-49-39(76)34(71)27(68)19-85-49)45(93-54-47(80)62(84,21-66)22-87-54)42(79)51(88-23)94-46-35(72)28(69)20-86-53(46)96-56(83)63-13-12-57(2,3)14-25(63)24-8-9-31-58(4)15-26(67)48(61(7,55(81)82)32(58)10-11-59(31,5)60(24,6)16-33(63)70)95-52-41(78)44(37(74)30(18-65)90-52)92-50-40(77)38(75)36(73)29(17-64)89-50/h8,23,25-54,64-80,84H,9-22H2,1-7H3,(H,81,82)/t23-,25-,26-,27+,28-,29+,30+,31?,32?,33+,34-,35-,36+,37+,38-,39+,40+,41+,42+,43-,44-,45-,46+,47-,48-,49-,50-,51-,52-,53-,54-,58+,59+,60+,61-,62+,63+/m0/s1" "computed SMILES=O=C(O)C1(C)C(OC2OC(CO)C(O)C(OC3OC(CO)C(O)C(O)C3O)C2O)C(O)CC4(C)C1CCC5(C)C4CC=C6C7CC(C)(C)CCC7(C(=O)OC8OCC(O)C(O)C8OC9OC(C)C(OC%10OCC(O)C(O)C%10O)C(OC%11OCC(O)(CO)C%11O)C9O)C(O)CC65C" "license=License CC-BY-NC-SA 4.0 International" "author=Plant Biology, The Noble Foundation, Ardmore, OK, US/Dennis Fine, Daniel Wherritt, and Lloyd Sumner" "ionization=ESI" "peak width=0.014" "date=2014-12-12 20:57:07+01:00" "column=Waters Acquity BEH C18 1.7um x 2.1 x 150 mm" "retention time=688.8" "raw data file=C:\Data\Noble-Bruker MS libr eval complex mix\2014Dec_A17 aer rt mix MSMS_1-A,2_01_1447.d" "SPLASH=splash10-001i-0009010000-d886c02c55c52c9f4eb7" "submitter=Aiko Barsch (Bruker)" "MoNA Rating=3.888888888888889"
Num Peaks: 23
283.0607 6.606607
549.1984 7.307307
556.0020 6.406406
556.2537 4.404404
556.7549 2.202202
557.0049 2.602603
557.2552 3.303303
590.2464 3.703704
590.7461 2.102102
991.5136 9.309309
992.5142 6.506507
1113.5125 8.208208
1114.5170 3.203203
1248.5237 1.101101
1249.0715 2.002002
1383.6067 100.000000
1384.1052 5.905906
1384.6107 70.670671
1385.0980 1.901902
1385.6205 29.029029
1386.6105 10.610611
1451.6003 10.810811
1452.6007 8.308308


Name: 3-Glu(1-3)Glu-28-Xyl(1-4)[Api(1-3)]Rha(1-2)Ara Zanhic acid
Synon: $:00in-source
DB#: MetaboBASE1183
InChIKey: VCIIUHJUYQIBSQ-LOCYOFRUSA-N
Precursor_type: [M-H]-
Spectrum_type: MS2
PrecursorMZ: 1383.597
Instrument_type: LC-ESI-TOF
Instrument: impact HD
Ion_mode: N
Collision_energy: 70.6357
Formula: C63H100O33
MW: 1384
ExactMass: 1384.6146856599999
Comments: "SMILES=[C@H]1([C@@H]([C@@](C2[C@](C1)(C1[C@@](CC2)([C@]2(C(=CC1)[C@H]1[C@@]([C@@H](C2)O)(CCC(C1)(C)C)C(=O)O[C@H]1[C@@H]([C@H]([C@H](CO1)O)O)O[C@H]1[C@@H]([C@@H]([C@H]([C@@H](O1)C)O[C@H]1[C@@H]([C@H]([C@@H](CO1)O)O)O)O[C@@H]1OC[C@]([C@H]1O)(O)CO)O)C)C)C)(C)C(=O)O)O[C@@H]1O[C@@H]([C@H]([C@@H]([C@H]1O)O[C@@H]1O[C@@H]([C@H]([C@@H]([C@H]1O)O)O)CO)O)CO)O" "InChI=InChI=1S/C63H100O33/c1-23-43(91-49-39(76)34(71)27(68)19-85-49)45(93-54-47(80)62(84,21-66)22-87-54)42(79)51(88-23)94-46-35(72)28(69)20-86-53(46)96-56(83)63-13-12-57(2,3)14-25(63)24-8-9-31-58(4)15-26(67)48(61(7,55(81)82)32(58)10-11-59(31,5)60(24,6)16-33(63)70)95-52-41(78)44(37(74)30(18-65)90-52)92-50-40(77)38(75)36(73)29(17-64)89-50/h8,23,25-54,64-80,84H,9-22H2,1-7H3,(H,81,82)/t23-,25-,26-,27+,28-,29+,30+,31?,32?,33+,34-,35-,36+,37+,38-,39+,40+,41+,42+,43-,44-,45-,46+,47-,48-,49-,50-,51-,52-,53-,54-,58+,59+,60+,61-,62+,63+/m0/s1" "computed SMILES=O=C(O)C1(C)C(OC2OC(CO)C(O)C(OC3OC(CO)C(O)C(O)C3O)C2O)C(O)CC4(C)C1CCC5(C)C4CC=C6C7CC(C)(C)CCC7(C(=O)OC8OCC(O)C(O)C8OC9OC(C)C(OC%10OCC(O)C(O)C%10O)C(OC%11OCC(O)(CO)C%11O)C9O)C(O)CC65C" "license=License CC-BY-NC-SA 4.0 International" "author=Plant Biology, The Noble Foundation, Ardmore, OK, US/Dennis Fine, Daniel Wherritt, and Lloyd Sumner" "ionization=ESI" "collision energy 2=117.726" "peak width=0.013" "date=2014-12-12 20:57:07+01:00" "column=Waters Acquity BEH C18 1.7um x 2.1 x 150 mm" "retention time=688.8" "raw data file=C:\Data\Noble-Bruker MS libr eval complex mix\2014Dec_A17 aer rt mix MSMS_1-A,2_01_1447.d" "computed mass accuracy=7.523621401190453" "computed mass error=-0.010409659999822907" "SPLASH=splash10-001i-0009200000-2ca675992aae28d377ff" "submitter=Aiko Barsch (Bruker)" "MoNA Rating=4.545454545454546"
Num Peaks: 10
113.0240 8.408408
337.1154 4.304304
393.3087 1.801802
455.3170 34.834835
456.3173 9.609610
469.1593 9.709710
1383.6072 100.000000
1384.6101 55.655656
1385.6072 26.826827
1386.6124 3.303303


Name: 3-Glu-28-Glu Medicagenic acid
Synon: $:00in-source
DB#: MetaboBASE1184
InChIKey: LFWLYNKBYSIXAH-UFPRFPELSA-N
Instrument_type: LC-ESI-TOF
Instrument: impact HD
Ion_mode: N
Formula: C42H66O16
MW: 826
ExactMass: 826.435086032
Comments: "SMILES=[C@H]1([C@@H]([C@@](C2[C@](C1)(C1[C@@](CC2)([C@]2(C(=CC1)[C@H]1[C@@](CC2)(CCC(C1)(C)C)C(=O)O[C@H]1[C@@H]([C@H]([C@@H]([C@H](O1)CO)O)O)O)C)C)C)(C)C(=O)O)O[C@@H]1O[C@@H]([C@H]([C@@H]([C@H]1O)O)O)CO)O" "InChI=InChI=1S/C42H66O16/c1-37(2)11-13-42(36(54)58-34-31(51)29(49)27(47)23(18-44)56-34)14-12-39(4)19(20(42)15-37)7-8-24-38(3)16-21(45)32(41(6,35(52)53)25(38)9-10-40(24,39)5)57-33-30(50)28(48)26(46)22(17-43)55-33/h7,20-34,43-51H,8-18H2,1-6H3,(H,52,53)/t20-,21-,22+,23+,24?,25?,26+,27+,28-,29-,30+,31+,32-,33-,34-,38+,39+,40+,41-,42-/m0/s1" "computed SMILES=O=C(O)C1(C)C(OC2OC(CO)C(O)C(O)C2O)C(O)CC3(C)C4CC=C5C6CC(C)(C)CCC6(C(=O)OC7OC(CO)C(O)C(O)C7O)CCC5(C)C4(C)CCC13" "license=License CC-BY-NC-SA 4.0 International" "author=Plant Biology, The Noble Foundation, Ardmore, OK, US/Dennis Fine, Daniel Wherritt, and Lloyd Sumner" "ionization=ESI" "peak width=0.012" "date=2014-12-12 20:57:07+01:00" "column=Waters Acquity BEH C18 1.7um x 2.1 x 150 mm" "retention time=778.2" "raw data file=C:\Data\Noble-Bruker MS libr eval complex mix\2014Dec_A17 aer rt mix MSMS_1-A,2_01_1447.d" "SPLASH=splash10-004i-0020000090-8b7e0f2e58495ccc7c58" "submitter=Aiko Barsch (Bruker)" "MoNA Rating=3.888888888888889"
Num Peaks: 45
825.4294 100.000000
825.9311 26.526527
826.4324 48.048048
826.9338 5.305305
827.4341 13.113113
828.4373 2.402402
859.4222 2.302302
859.9211 2.202202
860.4233 1.301301
893.4144 6.406406
894.4160 2.902903
895.4195 1.101101
925.3511 4.204204
926.3572 2.402402
927.3572 1.001001
941.4573 3.303303
941.9584 3.503504
942.4618 2.802803
942.9630 1.701702
948.4478 1.001001
1037.4882 4.004004
1037.9915 4.604605
1038.4922 3.103103
1038.9929 1.301301
1057.4858 5.705706
1058.4879 3.703704
1238.6448 7.807808
1239.1465 11.011011
1239.6483 8.508509
1240.1504 4.704705
1240.6462 2.202202
1249.5475 6.606607
1250.1361 1.501502
1250.5483 4.404404
1250.6354 1.101101
1251.5507 1.801802
1354.6731 2.002002
1355.1730 2.902903
1355.6780 2.602603
1356.1838 2.102102
1356.6826 1.001001
1450.7039 1.501502
1451.2032 2.402402
1451.7089 2.102102
1452.2111 1.301301


Name: 3-Glu-28-Glu Medicagenic acid
Synon: $:00in-source
DB#: MetaboBASE1185
InChIKey: LFWLYNKBYSIXAH-UFPRFPELSA-N
Precursor_type: [M-H]-
Spectrum_type: MS2
PrecursorMZ: 825.4265
Instrument_type: LC-ESI-TOF
Instrument: impact HD
Ion_mode: N
Collision_energy: 49.7041
Formula: C42H66O16
MW: 826
ExactMass: 826.435086032
Comments: "SMILES=[C@H]1([C@@H]([C@@](C2[C@](C1)(C1[C@@](CC2)([C@]2(C(=CC1)[C@H]1[C@@](CC2)(CCC(C1)(C)C)C(=O)O[C@H]1[C@@H]([C@H]([C@@H]([C@H](O1)CO)O)O)O)C)C)C)(C)C(=O)O)O[C@@H]1O[C@@H]([C@H]([C@@H]([C@H]1O)O)O)CO)O" "InChI=InChI=1S/C42H66O16/c1-37(2)11-13-42(36(54)58-34-31(51)29(49)27(47)23(18-44)56-34)14-12-39(4)19(20(42)15-37)7-8-24-38(3)16-21(45)32(41(6,35(52)53)25(38)9-10-40(24,39)5)57-33-30(50)28(48)26(46)22(17-43)55-33/h7,20-34,43-51H,8-18H2,1-6H3,(H,52,53)/t20-,21-,22+,23+,24?,25?,26+,27+,28-,29-,30+,31+,32-,33-,34-,38+,39+,40+,41-,42-/m0/s1" "computed SMILES=O=C(O)C1(C)C(OC2OC(CO)C(O)C(O)C2O)C(O)CC3(C)C4CC=C5C6CC(C)(C)CCC6(C(=O)OC7OC(CO)C(O)C(O)C7O)CCC5(C)C4(C)CCC13" "license=License CC-BY-NC-SA 4.0 International" "author=Plant Biology, The Noble Foundation, Ardmore, OK, US/Dennis Fine, Daniel Wherritt, and Lloyd Sumner" "ionization=ESI" "collision energy 2=82.8402" "peak width=0.018" "date=2014-12-12 20:57:07+01:00" "column=Waters Acquity BEH C18 1.7um x 2.1 x 150 mm" "retention time=778.2" "raw data file=C:\Data\Noble-Bruker MS libr eval complex mix\2014Dec_A17 aer rt mix MSMS_1-A,2_01_1447.d" "computed mass accuracy=1.5870970945062304" "computed mass error=-0.001310031999878447" "SPLASH=splash10-0wp0-0900300000-29ae7f7a38601b0513c9" "submitter=Aiko Barsch (Bruker)" "MoNA Rating=4.583333333333334"
Num Peaks: 19
101.0240 100.000000
102.0273 4.404404
113.0240 52.652653
114.0278 2.102102
119.0349 78.578579
120.0385 3.903904
131.0341 5.905906
143.0348 7.507508
149.0450 11.411411
161.0443 13.813814
179.0562 42.942943
180.0589 1.801802
439.3214 94.794795
440.3229 28.528529
441.3088 0.500501
441.3274 3.103103
664.3795 0.700701
825.4268 14.314314
826.4278 8.108108


Name: 3-Glu-28-Glu Medicagenic acid
Synon: $:00in-source
DB#: MetaboBASE1186
InChIKey: LFWLYNKBYSIXAH-UFPRFPELSA-N
Precursor_type: [M-H]-
Spectrum_type: MS2
PrecursorMZ: 825.426
Instrument_type: LC-ESI-TOF
Instrument: impact HD
Ion_mode: N
Collision_energy: 49.0056
Formula: C42H66O16
MW: 826
ExactMass: 826.435086032
Comments: "SMILES=[C@H]1([C@@H]([C@@](C2[C@](C1)(C1[C@@](CC2)([C@]2(C(=CC1)[C@H]1[C@@](CC2)(CCC(C1)(C)C)C(=O)O[C@H]1[C@@H]([C@H]([C@@H]([C@H](O1)CO)O)O)O)C)C)C)(C)C(=O)O)O[C@@H]1O[C@@H]([C@H]([C@@H]([C@H]1O)O)O)CO)O" "InChI=InChI=1S/C42H66O16/c1-37(2)11-13-42(36(54)58-34-31(51)29(49)27(47)23(18-44)56-34)14-12-39(4)19(20(42)15-37)7-8-24-38(3)16-21(45)32(41(6,35(52)53)25(38)9-10-40(24,39)5)57-33-30(50)28(48)26(46)22(17-43)55-33/h7,20-34,43-51H,8-18H2,1-6H3,(H,52,53)/t20-,21-,22+,23+,24?,25?,26+,27+,28-,29-,30+,31+,32-,33-,34-,38+,39+,40+,41-,42-/m0/s1" "computed SMILES=O=C(O)C1(C)C(OC2OC(CO)C(O)C(O)C2O)C(O)CC3(C)C4CC=C5C6CC(C)(C)CCC6(C(=O)OC7OC(CO)C(O)C(O)C7O)CCC5(C)C4(C)CCC13" "license=License CC-BY-NC-SA 4.0 International" "author=Plant Biology, The Noble Foundation, Ardmore, OK, US/Dennis Fine, Daniel Wherritt, and Lloyd Sumner" "ionization=ESI" "peak width=0.0056" "date=2014-12-12 20:57:07+01:00" "column=Waters Acquity BEH C18 1.7um x 2.1 x 150 mm" "retention time=778.2" "raw data file=C:\Data\Noble-Bruker MS libr eval complex mix\2014Dec_A17 aer rt mix MSMS_1-A,2_01_1447.d" "computed mass accuracy=2.192845875786108" "computed mass error=-0.0018100319998666237" "SPLASH=splash10-0gw0-0900500000-44874b997fac7e520e6f" "submitter=Aiko Barsch (Bruker)" "MoNA Rating=4.583333333333334"
Num Peaks: 22
101.0239 88.588589
102.0284 5.205205
113.0242 38.138138
114.0248 2.902903
119.0349 33.133133
120.0279 0.700701
131.0331 2.002002
143.0349 5.705706
149.0453 6.106106
161.0450 12.312312
179.0556 22.422422
393.3051 0.800801
402.2803 0.800801
439.3205 100.000000
440.3218 28.628629
441.3217 4.804805
442.3261 1.401401
456.9409 0.700701
663.3806 1.101101
825.4315 12.712713
826.4284 8.308308
827.4351 2.002002


Name: 3-(3'-O-Malonyl)Glu(1-4)Glu-28-Glu Bayogenin
Synon: $:00in-source
DB#: MetaboBASE1187
InChIKey: RHZZPKBPURDXHT-PDXZTVMWSA-N
Precursor_type: [M-H]-
Spectrum_type: MS2
PrecursorMZ: 1059.497
Instrument_type: LC-ESI-TOF
Instrument: impact HD
Ion_mode: N
Collision_energy: 52.5
Formula: C51H80O23
MW: 1060
ExactMass: 1060.5090388200001
Comments: "SMILES=[C@H]1([C@@H]([C@@](C2[C@](C1)(C1[C@@](CC2)([C@]2(C(=CC1)[C@H]1[C@@](CC2)(CCC(C1)(C)C)C(=O)O[C@H]1[C@@H]([C@H]([C@@H]([C@H](O1)CO)O)O)O)C)C)C)(C)CO)O[C@@H]1O[C@@H]([C@H]([C@@H]([C@H]1O)OC(=O)CC(=O)O)O[C@H]1[C@@H]([C@H]([C@@H]([C@H](O1)CO)O)O)O)CO)O" "InChI=InChI=1S/C51H80O23/c1-46(2)11-13-51(45(67)74-43-37(65)35(63)33(61)26(19-53)69-43)14-12-49(5)22(23(51)16-46)7-8-29-47(3)17-24(56)41(48(4,21-55)28(47)9-10-50(29,49)6)73-44-38(66)40(71-31(59)15-30(57)58)39(27(20-54)70-44)72-42-36(64)34(62)32(60)25(18-52)68-42/h7,23-29,32-44,52-56,60-66H,8-21H2,1-6H3,(H,57,58)/t23-,24-,25+,26+,27+,28?,29?,32+,33+,34-,35-,36+,37+,38+,39+,40+,41-,42-,43-,44-,47-,48-,49+,50+,51-/m0/s1" "computed SMILES=O=C(O)CC(=O)OC1C(O)C(OC(CO)C1OC2OC(CO)C(O)C(O)C2O)OC3C(O)CC4(C)C(CCC5(C)C4CC=C6C7CC(C)(C)CCC7(C(=O)OC8OC(CO)C(O)C(O)C8O)CCC65C)C3(C)CO" "license=License CC-BY-NC-SA 4.0 International" "author=Plant Biology, The Noble Foundation, Ardmore, OK, US/Dennis Fine, Daniel Wherritt, and Lloyd Sumner" "ionization=ESI" "peak width=0.028" "date=2014-12-10 21:06:23+01:00" "column=Waters Acquity BEH C18 1.7um x 2.1 x 150 mm" "retention time=726" "raw data file=C:\Data\Noble-Bruker MS libr eval complex mix\2014Dec_A17 aer rt mix MSMS_1-A,2_01_1415.d" "computed mass accuracy=4.495359590443655" "computed mass error=-0.004762819999996282" "SPLASH=splash10-03du-0000504390-2c744b97f15689ff8068" "submitter=Aiko Barsch (Bruker)" "MoNA Rating=4.583333333333334"
Num Peaks: 26
101.025 5.005005
112.985 4.504505
113.027 3.703704
119.033 3.303303
232.600 3.303303
439.322 15.915916
440.319 3.103103
487.339 92.392392
488.345 34.234234
529.352 4.404404
631.383 43.143143
632.359 3.803804
632.389 15.415415
649.391 48.848849
650.395 24.024024
793.428 74.174174
794.442 31.831832
795.416 3.103103
811.445 100.000000
812.447 75.175175
813.455 14.714715
823.611 3.903904
853.435 15.815816
853.459 30.230230
854.467 18.418418
855.487 3.003003


Name: 3-(3'-O-Malonyl)Glu(1-4)Glu-28-Glu Bayogenin
Synon: $:00in-source
DB#: MetaboBASE1188
InChIKey: RHZZPKBPURDXHT-PDXZTVMWSA-N
Instrument_type: LC-ESI-TOF
Instrument: impact HD
Ion_mode: N
Collision_energy: 10
Formula: C51H80O23
MW: 1060
ExactMass: 1060.50903882
Comments: "SMILES=[C@H]1([C@@H]([C@@](C2[C@](C1)(C1[C@@](CC2)([C@]2(C(=CC1)[C@H]1[C@@](CC2)(CCC(C1)(C)C)C(=O)O[C@H]1[C@@H]([C@H]([C@@H]([C@H](O1)CO)O)O)O)C)C)C)(C)CO)O[C@@H]1O[C@@H]([C@H]([C@@H]([C@H]1O)OC(=O)CC(=O)O)O[C@H]1[C@@H]([C@H]([C@@H]([C@H](O1)CO)O)O)O)CO)O" "InChI=InChI=1S/C51H80O23/c1-46(2)11-13-51(45(67)74-43-37(65)35(63)33(61)26(19-53)69-43)14-12-49(5)22(23(51)16-46)7-8-29-47(3)17-24(56)41(48(4,21-55)28(47)9-10-50(29,49)6)73-44-38(66)40(71-31(59)15-30(57)58)39(27(20-54)70-44)72-42-36(64)34(62)32(60)25(18-52)68-42/h7,23-29,32-44,52-56,60-66H,8-21H2,1-6H3,(H,57,58)/t23-,24-,25+,26+,27+,28?,29?,32+,33+,34-,35-,36+,37+,38+,39+,40+,41-,42-,43-,44-,47-,48-,49+,50+,51-/m0/s1" "computed SMILES=O=C(O)CC(=O)OC1C(O)C(OC(CO)C1OC2OC(CO)C(O)C(O)C2O)OC3C(O)CC4(C)C(CCC5(C)C4CC=C6C7CC(C)(C)CCC7(C(=O)OC8OC(CO)C(O)C(O)C8O)CCC65C)C3(C)CO" "license=License CC-BY-NC-SA 4.0 International" "author=Plant Biology, The Noble Foundation, Ardmore, OK, US/Dennis Fine, Daniel Wherritt, and Lloyd Sumner" "ionization=ESI" "peak width=0.016" "date=2014-12-18 21:57:58+01:00" "column=Waters Acquity BEH C18 1.7um x 2.1 x 150 mm" "retention time=726" "raw data file=C:\Data\Noble-Bruker MS libr eval complex mix\2014Dec_A17 aerial root mix_1-A,3_01_1483.d" "SPLASH=splash10-0bt9-9100012010-66685fa696acca48be0f" "submitter=Aiko Barsch (Bruker)" "MoNA Rating=4.444444444444445"
Num Peaks: 32
116.9289 1.701702
242.1762 1.901902
503.2465 1.101101
509.2497 2.302302
556.0020 22.822823
557.0054 2.102102
645.3127 5.705706
645.8139 3.703704
646.3149 1.501502
651.1345 3.003003
681.1456 24.224224
682.1488 8.808809
811.4471 8.008008
812.4491 3.703704
853.4552 14.814815
854.4620 6.806807
855.4448 1.901902
973.4970 1.101101
1015.5087 7.707708
1016.5107 4.004004
1059.4994 100.000000
1060.0023 4.904905
1060.5022 59.559560
1061.5055 20.620621
1062.5037 5.405405
1067.5336 3.303303
1073.4764 2.202202
1103.5526 1.201201
1127.4839 12.312312
1128.4863 7.407407
1159.4219 4.804805
1160.4221 2.702703


Name: 3-(3'-O-Malonyl)Glu(1-4)Glu-28-Glu Bayogenin
Synon: $:00in-source
DB#: MetaboBASE1189
InChIKey: RHZZPKBPURDXHT-PDXZTVMWSA-N
Precursor_type: [M-H]-
Spectrum_type: MS2
PrecursorMZ: 1059.496
Instrument_type: LC-ESI-TOF
Instrument: impact HD
Ion_mode: N
Collision_energy: 58.4827
Formula: C51H80O23
MW: 1060
ExactMass: 1060.50903882
Comments: "SMILES=[C@H]1([C@@H]([C@@](C2[C@](C1)(C1[C@@](CC2)([C@]2(C(=CC1)[C@H]1[C@@](CC2)(CCC(C1)(C)C)C(=O)O[C@H]1[C@@H]([C@H]([C@@H]([C@H](O1)CO)O)O)O)C)C)C)(C)CO)O[C@@H]1O[C@@H]([C@H]([C@@H]([C@H]1O)OC(=O)CC(=O)O)O[C@H]1[C@@H]([C@H]([C@@H]([C@H](O1)CO)O)O)O)CO)O" "InChI=InChI=1S/C51H80O23/c1-46(2)11-13-51(45(67)74-43-37(65)35(63)33(61)26(19-53)69-43)14-12-49(5)22(23(51)16-46)7-8-29-47(3)17-24(56)41(48(4,21-55)28(47)9-10-50(29,49)6)73-44-38(66)40(71-31(59)15-30(57)58)39(27(20-54)70-44)72-42-36(64)34(62)32(60)25(18-52)68-42/h7,23-29,32-44,52-56,60-66H,8-21H2,1-6H3,(H,57,58)/t23-,24-,25+,26+,27+,28?,29?,32+,33+,34-,35-,36+,37+,38+,39+,40+,41-,42-,43-,44-,47-,48-,49+,50+,51-/m0/s1" "computed SMILES=O=C(O)CC(=O)OC1C(O)C(OC(CO)C1OC2OC(CO)C(O)C(O)C2O)OC3C(O)CC4(C)C(CCC5(C)C4CC=C6C7CC(C)(C)CCC7(C(=O)OC8OC(CO)C(O)C(O)C8O)CCC65C)C3(C)CO" "license=License CC-BY-NC-SA 4.0 International" "author=Plant Biology, The Noble Foundation, Ardmore, OK, US/Dennis Fine, Daniel Wherritt, and Lloyd Sumner" "ionization=ESI" "collision energy 2=97.4711" "peak width=0.012" "date=2014-12-10 21:06:23+01:00" "column=Waters Acquity BEH C18 1.7um x 2.1 x 150 mm" "retention time=726" "raw data file=C:\Data\Noble-Bruker MS libr eval complex mix\2014Dec_A17 aer rt mix MSMS_1-A,2_01_1415.d" "computed mass accuracy=5.439208831128443" "computed mass error=-0.005762819999745261" "SPLASH=splash10-03dr-0000503390-42c0b38ead4ba07ea1ab" "submitter=Aiko Barsch (Bruker)" "MoNA Rating=4.545454545454546"
Num Peaks: 10
487.3414 70.370370
488.3445 15.915916
631.3793 18.418418
632.3768 5.605606
649.3867 26.326326
650.3919 7.007007
793.4333 46.146146
794.4373 12.412412
811.4430 100.000000
812.4449 41.241241


Name: 3-(3'-O-Malonyl)Glu(1-4)Glu-28-Glu Bayogenin
Synon: $:00in-source
DB#: MetaboBASE1190
InChIKey: RHZZPKBPURDXHT-PDXZTVMWSA-N
Instrument_type: LC-ESI-TOF
Instrument: impact HD
Ion_mode: N
Formula: C51H80O23
MW: 1060
ExactMass: 1060.50903882
Comments: "SMILES=[C@H]1([C@@H]([C@@](C2[C@](C1)(C1[C@@](CC2)([C@]2(C(=CC1)[C@H]1[C@@](CC2)(CCC(C1)(C)C)C(=O)O[C@H]1[C@@H]([C@H]([C@@H]([C@H](O1)CO)O)O)O)C)C)C)(C)CO)O[C@@H]1O[C@@H]([C@H]([C@@H]([C@H]1O)OC(=O)CC(=O)O)O[C@H]1[C@@H]([C@H]([C@@H]([C@H](O1)CO)O)O)O)CO)O" "InChI=InChI=1S/C51H80O23/c1-46(2)11-13-51(45(67)74-43-37(65)35(63)33(61)26(19-53)69-43)14-12-49(5)22(23(51)16-46)7-8-29-47(3)17-24(56)41(48(4,21-55)28(47)9-10-50(29,49)6)73-44-38(66)40(71-31(59)15-30(57)58)39(27(20-54)70-44)72-42-36(64)34(62)32(60)25(18-52)68-42/h7,23-29,32-44,52-56,60-66H,8-21H2,1-6H3,(H,57,58)/t23-,24-,25+,26+,27+,28?,29?,32+,33+,34-,35-,36+,37+,38+,39+,40+,41-,42-,43-,44-,47-,48-,49+,50+,51-/m0/s1" "computed SMILES=O=C(O)CC(=O)OC1C(O)C(OC(CO)C1OC2OC(CO)C(O)C(O)C2O)OC3C(O)CC4(C)C(CCC5(C)C4CC=C6C7CC(C)(C)CCC7(C(=O)OC8OC(CO)C(O)C(O)C8O)CCC65C)C3(C)CO" "license=License CC-BY-NC-SA 4.0 International" "author=Plant Biology, The Noble Foundation, Ardmore, OK, US/Dennis Fine, Daniel Wherritt, and Lloyd Sumner" "ionization=ESI" "peak width=0.046" "date=2014-12-10 21:06:23+01:00" "column=Waters Acquity BEH C18 1.7um x 2.1 x 150 mm" "retention time=726" "raw data file=C:\Data\Noble-Bruker MS libr eval complex mix\2014Dec_A17 aer rt mix MSMS_1-A,2_01_1415.d" "SPLASH=splash10-0btc-9140000000-e3a08bbfe58749c430c5" "submitter=Aiko Barsch (Bruker)" "MoNA Rating=3.888888888888889"
Num Peaks: 16
112.985 1.401401
161.024 2.902903
242.176 54.154154
242.944 2.202202
242.987 1.301301
264.157 8.108108
268.868 1.501502
269.045 6.506507
556.002 3.003003
853.452 8.608609
1059.497 100.000000
1059.611 1.101101
1060.500 46.646647
1061.501 13.913914
1127.485 12.712713
1128.485 7.107107


Name: 3-(4'O-Malonyl)Rha(1-2)Gal(1-2)GluA-Soyasaponenol B
Synon: $:00in-source
DB#: MetaboBASE1191
InChIKey: UPFQKOYQKKVLFU-NJYNVVEYSA-N
Precursor_type: [M-H]-
Spectrum_type: MS2
PrecursorMZ: 1027.505
Instrument_type: LC-ESI-TOF
Instrument: impact HD
Ion_mode: N
Collision_energy: 57.2822
Formula: C51H80O21
MW: 1028
ExactMass: 1028.5192095799998
Comments: "SMILES=C1[C@@H]([C@@](C2[C@](C1)(C1[C@@](CC2)([C@]2(C(=CC1)[C@H]1[C@@](CC2)([C@@H](CC(C1)(C)C)O)C)C)C)C)(CO)C)O[C@@H]1O[C@@H]([C@H]([C@@H]([C@H]1O[C@@H]1O[C@@H]([C@@H]([C@@H]([C@H]1O[C@@H]1O[C@H]([C@@H]([C@H]([C@H]1O)O)OC(=O)CC(=O)O)C)O)O)CO)O)O)C(=O)O" "InChI=InChI=1S/C51H80O21/c1-22-38(69-31(57)17-30(55)56)36(62)37(63)43(66-22)71-40-33(59)32(58)25(20-52)67-44(40)72-41-35(61)34(60)39(42(64)65)70-45(41)68-29-12-13-48(5)26(49(29,6)21-53)11-14-51(8)27(48)10-9-23-24-18-46(2,3)19-28(54)47(24,4)15-16-50(23,51)7/h9,22,24-29,32-41,43-45,52-54,58-63H,10-21H2,1-8H3,(H,55,56)(H,64,65)/t22-,24-,25+,26?,27?,28+,29-,32-,33-,34-,35-,36-,37+,38-,39-,40+,41+,43-,44-,45+,47+,48-,49+,50+,51+/m0/s1" "computed SMILES=O=C(O)CC(=O)OC1C(O)C(O)C(OC1C)OC2C(O)C(O)C(OC2OC3C(O)C(O)C(OC3OC4CCC5(C)C(CCC6(C)C5CC=C7C8CC(C)(C)CC(O)C8(C)CCC76C)C4(C)CO)C(=O)O)CO" "license=License CC-BY-NC-SA 4.0 International" "author=Plant Biology, The Noble Foundation, Ardmore, OK, US/Dennis Fine, Daniel Wherritt, and Lloyd Sumner" "ionization=ESI" "collision energy 2=95.4704" "peak width=0.043" "date=2014-12-12 20:57:07+01:00" "column=Waters Acquity BEH C18 1.7um x 2.1 x 150 mm" "retention time=1086" "raw data file=C:\Data\Noble-Bruker MS libr eval complex mix\2014Dec_A17 aer rt mix MSMS_1-A,2_01_1447.d" "annotformula=119.034;      C52H75N4O17" "computed mass accuracy=6.747976895166375" "computed mass error=-0.006933579999667927" "SPLASH=splash10-001i-0000000009-6482c10d8c5cb7203df1" "submitter=Aiko Barsch (Bruker)" "MoNA Rating=4.545454545454546"
Num Peaks: 40
99.008 1.401401
99.044 0.100100
101.023 1.901902
112.017 0.200200
113.024 2.202202
114.029 0.100100
119.034 0.500501
131.034 0.300300
139.005 0.200200
143.032 0.300300
145.051 0.700701
157.011 0.100100
157.015 0.600601
161.046 0.300300
205.071 1.701702
247.082 2.002002
286.022 0.100100
286.184 0.100100
287.704 0.100100
289.093 1.301301
409.348 0.100100
437.344 0.200200
455.349 0.300300
457.371 0.800801
597.380 0.200200
615.389 1.801802
616.393 0.500501
733.449 0.200200
879.508 1.301301
880.510 0.800801
923.502 0.700701
941.509 2.302302
942.508 0.600601
965.509 0.600601
983.522 100.000000
984.525 54.154154
984.657 0.100100
985.528 16.216216
986.531 2.502503
1260.365 0.100100


Name: 3-(4'O-Malonyl)Rha(1-2)Gal(1-2)GluA-Soyasaponenol B
Synon: $:00in-source
DB#: MetaboBASE1192
InChIKey: UPFQKOYQKKVLFU-NJYNVVEYSA-N
Instrument_type: LC-ESI-TOF
Instrument: impact HD
Ion_mode: N
Formula: C51H80O21
MW: 1028
ExactMass: 1028.5192095799998
Comments: "SMILES=C1[C@@H]([C@@](C2[C@](C1)(C1[C@@](CC2)([C@]2(C(=CC1)[C@H]1[C@@](CC2)([C@@H](CC(C1)(C)C)O)C)C)C)C)(CO)C)O[C@@H]1O[C@@H]([C@H]([C@@H]([C@H]1O[C@@H]1O[C@@H]([C@@H]([C@@H]([C@H]1O[C@@H]1O[C@H]([C@@H]([C@H]([C@H]1O)O)OC(=O)CC(=O)O)C)O)O)CO)O)O)C(=O)O" "InChI=InChI=1S/C51H80O21/c1-22-38(69-31(57)17-30(55)56)36(62)37(63)43(66-22)71-40-33(59)32(58)25(20-52)67-44(40)72-41-35(61)34(60)39(42(64)65)70-45(41)68-29-12-13-48(5)26(49(29,6)21-53)11-14-51(8)27(48)10-9-23-24-18-46(2,3)19-28(54)47(24,4)15-16-50(23,51)7/h9,22,24-29,32-41,43-45,52-54,58-63H,10-21H2,1-8H3,(H,55,56)(H,64,65)/t22-,24-,25+,26?,27?,28+,29-,32-,33-,34-,35-,36-,37+,38-,39-,40+,41+,43-,44-,45+,47+,48-,49+,50+,51+/m0/s1" "computed SMILES=O=C(O)CC(=O)OC1C(O)C(O)C(OC1C)OC2C(O)C(O)C(OC2OC3C(O)C(O)C(OC3OC4CCC5(C)C(CCC6(C)C5CC=C7C8CC(C)(C)CC(O)C8(C)CCC76C)C4(C)CO)C(=O)O)CO" "license=License CC-BY-NC-SA 4.0 International" "author=Plant Biology, The Noble Foundation, Ardmore, OK, US/Dennis Fine, Daniel Wherritt, and Lloyd Sumner" "ionization=ESI" "peak width=0.04" "date=2014-12-12 20:57:07+01:00" "column=Waters Acquity BEH C18 1.7um x 2.1 x 150 mm" "retention time=1086" "raw data file=C:\Data\Noble-Bruker MS libr eval complex mix\2014Dec_A17 aer rt mix MSMS_1-A,2_01_1447.d" "annotformula=1027.513;      C52H75N4O17" "SPLASH=splash10-004i-9000000000-0a28d5df2eebfa6a83b7" "submitter=Aiko Barsch (Bruker)" "MoNA Rating=3.888888888888889"
Num Peaks: 15
937.479 7.407407
938.484 3.903904
983.521 2.002002
1013.532 5.205205
1014.535 2.902903
1027.513 100.000000
1028.516 58.858859
1029.518 21.621622
1030.522 5.905906
1049.495 7.807808
1050.498 4.504505
1051.501 1.601602
1127.437 5.305305
1128.437 3.503504
1129.441 1.901902


Name: 3-(4'O-Malonyl)Rha(1-2)Gal(1-2)GluA-Soyasaponenol B
Synon: $:00in-source
DB#: MetaboBASE1193
InChIKey: UPFQKOYQKKVLFU-NJYNVVEYSA-N
Instrument_type: LC-ESI-TOF
Instrument: impact HD
Ion_mode: N
Collision_energy: 10
Formula: C51H80O21
MW: 1028
ExactMass: 1028.51920958
Comments: "SMILES=C1[C@@H]([C@@](C2[C@](C1)(C1[C@@](CC2)([C@]2(C(=CC1)[C@H]1[C@@](CC2)([C@@H](CC(C1)(C)C)O)C)C)C)C)(CO)C)O[C@@H]1O[C@@H]([C@H]([C@@H]([C@H]1O[C@@H]1O[C@@H]([C@@H]([C@@H]([C@H]1O[C@@H]1O[C@H]([C@@H]([C@H]([C@H]1O)O)OC(=O)CC(=O)O)C)O)O)CO)O)O)C(=O)O" "InChI=InChI=1S/C51H80O21/c1-22-38(69-31(57)17-30(55)56)36(62)37(63)43(66-22)71-40-33(59)32(58)25(20-52)67-44(40)72-41-35(61)34(60)39(42(64)65)70-45(41)68-29-12-13-48(5)26(49(29,6)21-53)11-14-51(8)27(48)10-9-23-24-18-46(2,3)19-28(54)47(24,4)15-16-50(23,51)7/h9,22,24-29,32-41,43-45,52-54,58-63H,10-21H2,1-8H3,(H,55,56)(H,64,65)/t22-,24-,25+,26?,27?,28+,29-,32-,33-,34-,35-,36-,37+,38-,39-,40+,41+,43-,44-,45+,47+,48-,49+,50+,51+/m0/s1" "computed SMILES=O=C(O)CC(=O)OC1C(O)C(O)C(OC1C)OC2C(O)C(O)C(OC2OC3C(O)C(O)C(OC3OC4CCC5(C)C(CCC6(C)C5CC=C7C8CC(C)(C)CC(O)C8(C)CCC76C)C4(C)CO)C(=O)O)CO" "license=License CC-BY-NC-SA 4.0 International" "author=Plant Biology, The Noble Foundation, Ardmore, OK, US/Dennis Fine, Daniel Wherritt, and Lloyd Sumner" "ionization=ESI" "peak width=0.022" "date=2015-02-04 01:41:50+01:00" "column=Waters Acquity BEH C18 1.7um x 2.1 x 150 mm" "retention time=1093.8" "raw data file=G:\Sumner Lab Data Management Workspace Jun2013\Projects\NSF-JST Metabolomics Nov2011-Sep2014\UPLC-MS-MSMS\2015Mar17 R108 A17 root aerial for poster\A17 aerial" "SPLASH=splash10-004i-9000000000-65e51779b4b16ef74687" "submitter=Aiko Barsch (Bruker)" "MoNA Rating=4.444444444444445"
Num Peaks: 11
557.0040 1.201201
666.0182 1.001001
683.0083 1.201201
983.5186 2.402402
1027.5100 100.000000
1028.5132 60.460460
1029.5153 20.320320
1030.5182 5.905906
1049.4912 10.210210
1050.4950 6.106106
1117.4775 2.802803


Name: 7-Glu Chrysoeriol
Synon: $:00in-source
DB#: MetaboBASE1194
InChIKey: GAMYVSCDDLXAQW-MIUGBVLSSA-N
Instrument_type: LC-ESI-TOF
Instrument: impact HD
Ion_mode: N
Formula: C22H22O11
MW: 462
ExactMass: 462.116211524
Comments: "SMILES=c1(cc(c2c(c1)oc(cc2=O)c1ccc(c(c1)OC)O)O)O[C@@H]1O[C@@H]([C@H]([C@@H]([C@H]1O)O)O)CO" "InChI=InChI=1S/C22H22O11/c1-30-15-4-9(2-3-11(15)24)14-7-13(26)18-12(25)5-10(6-16(18)32-14)31-22-21(29)20(28)19(27)17(8-23)33-22/h2-7,17,19-25,27-29H,8H2,1H3/t17-,19-,20+,21-,22-/m1/s1" "computed SMILES=O=C1C=C(OC2=CC(OC3OC(CO)C(O)C(O)C3O)=CC(O)=C12)C=4C=CC(O)=C(OC)C4" "license=License CC-BY-NC-SA 4.0 International" "author=Plant Biology, The Noble Foundation, Ardmore, OK, US/Dennis Fine, Daniel Wherritt, and Lloyd Sumner" "ionization=ESI" "peak width=0.015" "date=2015-04-27 18:32:14+02:00" "column=Waters Acquity BEH C18 1.7um x 2.1 x 150 mm" "retention time=424.8" "raw data file=C:\Data\Noble-Bruker MS libr eval complex mix\Data\Noble data\31Mar15_extended gradient\A17_A-Rt mix Noble27Apr15\2015Apr_A17AR 1-1mix Bremen_2-B,2_01_1975.d" "SPLASH=splash10-03di-0000950000-6f533dc2ec86497df404" "submitter=Aiko Barsch (Bruker)" "MoNA Rating=3.888888888888889"
Num Peaks: 28
269.0449 2.502503
405.1168 1.401401
461.1091 100.000000
462.1125 23.923924
463.1146 5.005005
464.1075 0.100100
489.0683 2.702703
490.0687 0.200200
503.0828 1.701702
503.2494 22.822823
504.0910 1.901902
504.2531 4.904905
505.1003 10.010010
507.0811 1.301301
507.1023 0.800801
549.2560 20.220220
550.2590 5.905906
591.0645 2.602603
591.1727 2.502503
606.0296 2.602603
607.0220 0.500501
797.1570 2.202202
798.1651 0.500501
967.2130 4.404404
968.2193 2.302302
969.2222 0.200200
973.1838 1.301301
974.1874 0.400400


Name: 7-Glu Chrysoeriol
Synon: $:00in-source
DB#: MetaboBASE1195
InChIKey: GAMYVSCDDLXAQW-MIUGBVLSSA-N
Precursor_type: [M-H]-
Spectrum_type: MS2
PrecursorMZ: 461.1091
Instrument_type: LC-ESI-TOF
Instrument: impact HD
Ion_mode: N
Collision_energy: 35.3135
Formula: C22H22O11
MW: 462
ExactMass: 462.116211524
Comments: "SMILES=c1(cc(c2c(c1)oc(cc2=O)c1ccc(c(c1)OC)O)O)O[C@@H]1O[C@@H]([C@H]([C@@H]([C@H]1O)O)O)CO" "InChI=InChI=1S/C22H22O11/c1-30-15-4-9(2-3-11(15)24)14-7-13(26)18-12(25)5-10(6-16(18)32-14)31-22-21(29)20(28)19(27)17(8-23)33-22/h2-7,17,19-25,27-29H,8H2,1H3/t17-,19-,20+,21-,22-/m1/s1" "computed SMILES=O=C1C=C(OC2=CC(OC3OC(CO)C(O)C(O)C3O)=CC(O)=C12)C=4C=CC(O)=C(OC)C4" "license=License CC-BY-NC-SA 4.0 International" "author=Plant Biology, The Noble Foundation, Ardmore, OK, US/Dennis Fine, Daniel Wherritt, and Lloyd Sumner" "ionization=ESI" "collision energy 2=58.8558" "peak width=0.016" "date=2015-04-27 18:32:14+02:00" "column=Waters Acquity BEH C18 1.7um x 2.1 x 150 mm" "retention time=424.8" "raw data file=C:\Data\Noble-Bruker MS libr eval complex mix\Data\Noble data\31Mar15_extended gradient\A17_A-Rt mix Noble27Apr15\2015Apr_A17AR 1-1mix Bremen_2-B,2_01_1975.d" "computed mass accuracy=0.35669649549101784" "computed mass error=1.644760000090173E-4" "SPLASH=splash10-0a59-0090200000-673dd9f3e9dadd7708cc" "submitter=Aiko Barsch (Bruker)" "MoNA Rating=4.615384615384616"
Num Peaks: 12
255.0296 100.000000
256.0334 16.816817
269.0470 2.102102
283.0240 48.648649
284.0320 10.510511
297.0413 8.908909
298.0497 19.619620
299.0521 9.009009
446.0844 30.930931
447.0916 5.005005
461.1090 15.415415
462.1135 3.103103


Name: 3-Glu-28-Xyl(1-4)Rha(1-2)Ara Medicagenic acid
Synon: $:00in-source
DB#: MetaboBASE1196
InChIKey: VHMKOKUNAPLSBJ-OJTFIBOXSA-M
Precursor_type: [M]-
Spectrum_type: MS2
PrecursorMZ: 1073.533
Instrument_type: LC-ESI-TOF
Instrument: impact HD
Ion_mode: N
Collision_energy: 59.0074
Formula: [C52H81O23]-
MW: 1073
ExactMass: 1073.5174124319092
Comments: "SMILES=[C@H]1([C@@H]([C@@](C2[C@](C1)(C1[C@@](CC2)([C@]2(C(=CC1)[C@H]1[C@@](CC2)(CCC(C1)(C)C)C(=O)O[C@H]1[C@@H]([C@H]([C@H](CO1)O)O)OC1[C@@H]([C@@H]([C@H]([C@@H](O1)C)O[C@H]1[C@@H]([C@H]([C@@H](CO1)O)O)O)O)O)C)C)C)(C)C(=O)[O-])O[C@@H]1O[C@@H]([C@H]([C@@H]([C@H]1O)O)O)CO)O" "InChI=InChI=1S/C52H82O23/c1-21-38(72-41-35(62)30(57)25(55)19-68-41)34(61)37(64)42(70-21)73-39-31(58)26(56)20-69-44(39)75-46(67)52-14-12-47(2,3)16-23(52)22-8-9-28-48(4)17-24(54)40(74-43-36(63)33(60)32(59)27(18-53)71-43)51(7,45(65)66)29(48)10-11-50(28,6)49(22,5)13-15-52/h8,21,23-44,53-64H,9-20H2,1-7H3,(H,65,66)/p-1/t21-,23-,24-,25+,26-,27+,28?,29?,30-,31-,32+,33-,34-,35+,36+,37+,38-,39+,40-,41-,42?,43-,44-,48+,49+,50+,51-,52-/m0/s1" "computed SMILES=O=C([O-])C1(C)C(OC2OC(CO)C(O)C(O)C2O)C(O)CC3(C)C1CCC4(C)C3CC=C5C6CC(C)(C)CCC6(C(=O)OC7OCC(O)C(O)C7OC8OC(C)C(OC9OCC(O)C(O)C9O)C(O)C8O)CCC54C" "computed InChI=InChI=1S/C52H82O23/c1-21-38(72-41-35(62)30(57)25(55)19-68-41)34(61)37(64)42(70-21)73-39-31(58)26(56)20-69-44(39)75-46(67)52-14-12-47(2,3)16-23(52)22-8-9-28-48(4)17-24(54)40(74-43-36(63)33(60)32(59)27(18-53)71-43)51(7,45(65)66)29(48)10-11-50(28,6)49(22,5)13-15-52/h8,21,23-44,53-64H,9-20H2,1-7H3,(H,65,66)/p-1/t21-,23-,24-,25+,26-,27+,28?,29?,30-,31-,32+,33-,34-,35+,36+,37+,38-,39+,40-,41-,42-,43-,44-,48+,49+,50+,51-,52-/m0/s1" "license=License CC-BY-NC-SA 4.0 International" "author=Plant Biology, The Noble Foundation, Ardmore, OK, US/Dennis Fine, Daniel Wherritt, and Lloyd Sumner" "ionization=ESI" "collision energy 2=98.3456" "peak width=0.015" "date=2014-12-12 20:57:07+01:00" "column=Waters Acquity BEH C18 1.7um x 2.1 x 150 mm" "retention time=819" "raw data file=C:\Data\Noble-Bruker MS libr eval complex mix\2014Dec_A17 aer rt mix MSMS_1-A,2_01_1447.d" "computed mass accuracy=15.030882143552397" "computed mass error=0.016136148000214234" "SPLASH=splash10-00dr-9101800000-70a76af2d50135ee6aac" "submitter=Aiko Barsch (Bruker)" "MoNA Rating=4.545454545454546"
Num Peaks: 22
101.0241 2.102102
113.0236 2.802803
116.9272 1.401401
119.0338 2.002002
131.0342 4.304304
143.0341 0.600601
149.0427 1.401401
205.0729 0.600601
277.0947 0.800801
295.1031 1.701702
337.1143 16.416416
409.1342 2.102102
439.3209 100.000000
440.3251 22.922923
441.3260 3.103103
849.4576 5.005005
849.4921 1.001001
850.4536 1.801802
1073.5104 75.175175
1074.5188 43.143143
1075.5151 11.711712
1076.5214 0.900901


Name: 3-Glu-28-Xyl(1-4)Rha(1-2)Ara Medicagenic acid
Synon: $:00in-source
DB#: MetaboBASE1197
InChIKey: VHMKOKUNAPLSBJ-OJTFIBOXSA-M
Instrument_type: LC-ESI-TOF
Instrument: impact HD
Ion_mode: N
Formula: [C52H81O23]-
MW: 1073
ExactMass: 1073.5174124319092
Comments: "SMILES=[C@H]1([C@@H]([C@@](C2[C@](C1)(C1[C@@](CC2)([C@]2(C(=CC1)[C@H]1[C@@](CC2)(CCC(C1)(C)C)C(=O)O[C@H]1[C@@H]([C@H]([C@H](CO1)O)O)OC1[C@@H]([C@@H]([C@H]([C@@H](O1)C)O[C@H]1[C@@H]([C@H]([C@@H](CO1)O)O)O)O)O)C)C)C)(C)C(=O)[O-])O[C@@H]1O[C@@H]([C@H]([C@@H]([C@H]1O)O)O)CO)O" "InChI=InChI=1S/C52H82O23/c1-21-38(72-41-35(62)30(57)25(55)19-68-41)34(61)37(64)42(70-21)73-39-31(58)26(56)20-69-44(39)75-46(67)52-14-12-47(2,3)16-23(52)22-8-9-28-48(4)17-24(54)40(74-43-36(63)33(60)32(59)27(18-53)71-43)51(7,45(65)66)29(48)10-11-50(28,6)49(22,5)13-15-52/h8,21,23-44,53-64H,9-20H2,1-7H3,(H,65,66)/p-1/t21-,23-,24-,25+,26-,27+,28?,29?,30-,31-,32+,33-,34-,35+,36+,37+,38-,39+,40-,41-,42?,43-,44-,48+,49+,50+,51-,52-/m0/s1" "computed SMILES=O=C([O-])C1(C)C(OC2OC(CO)C(O)C(O)C2O)C(O)CC3(C)C1CCC4(C)C3CC=C5C6CC(C)(C)CCC6(C(=O)OC7OCC(O)C(O)C7OC8OC(C)C(OC9OCC(O)C(O)C9O)C(O)C8O)CCC54C" "computed InChI=InChI=1S/C52H82O23/c1-21-38(72-41-35(62)30(57)25(55)19-68-41)34(61)37(64)42(70-21)73-39-31(58)26(56)20-69-44(39)75-46(67)52-14-12-47(2,3)16-23(52)22-8-9-28-48(4)17-24(54)40(74-43-36(63)33(60)32(59)27(18-53)71-43)51(7,45(65)66)29(48)10-11-50(28,6)49(22,5)13-15-52/h8,21,23-44,53-64H,9-20H2,1-7H3,(H,65,66)/p-1/t21-,23-,24-,25+,26-,27+,28?,29?,30-,31-,32+,33-,34-,35+,36+,37+,38-,39+,40-,41-,42-,43-,44-,48+,49+,50+,51-,52-/m0/s1" "license=License CC-BY-NC-SA 4.0 International" "author=Plant Biology, The Noble Foundation, Ardmore, OK, US/Dennis Fine, Daniel Wherritt, and Lloyd Sumner" "ionization=ESI" "peak width=0.014" "date=2014-12-12 20:57:07+01:00" "column=Waters Acquity BEH C18 1.7um x 2.1 x 150 mm" "retention time=819" "raw data file=C:\Data\Noble-Bruker MS libr eval complex mix\2014Dec_A17 aer rt mix MSMS_1-A,2_01_1447.d" "SPLASH=splash10-00di-9100000000-f654621f80a816ed5141" "submitter=Aiko Barsch (Bruker)" "MoNA Rating=3.888888888888889"
Num Peaks: 25
853.4542 2.802803
856.4413 1.201201
911.4255 9.109109
912.4297 3.503504
914.4272 1.601602
1015.4830 1.001001
1073.5148 100.000000
1074.5190 58.858859
1075.4373 1.401401
1075.5197 19.019019
1076.5222 4.604605
1141.5028 10.210210
1142.5067 6.506507
1143.4995 2.202202
1173.4409 5.505506
1174.4421 3.703704
1175.4364 1.901902
1203.4778 1.601602
1204.4789 1.301301
1209.4856 1.201201
1210.4810 1.101101
1219.5518 1.301301
1347.1901 1.801802
1479.2351 1.601602
1479.7235 1.901902


Name: 3-GluA-28-Xyl(1-4)Rha(1-2)Ara Zanhic acid
Synon: $:00in-source
DB#: MetaboBASE1198
InChIKey: XBQCXFMLWNUHRQ-SEOMNULOSA-M
Precursor_type: [M]-
Spectrum_type: MS2
PrecursorMZ: 1103.527
Instrument_type: LC-ESI-TOF
Instrument: impact HD
Ion_mode: N
Collision_energy: 60.1313
Formula: [C52H79O25]-
MW: 1103
ExactMass: 1103.4915916079092
Comments: "SMILES=[C@H]1([C@@H]([C@@](C2[C@](C1)(C1[C@@](CC2)([C@]2(C(=CC1)[C@H]1[C@@]([C@@H](C2)O)(CCC(C1)(C)C)C(=O)O[C@H]1[C@@H]([C@H]([C@H](CO1)O)O)OC1[C@@H]([C@@H]([C@H]([C@@H](O1)C)O[C@H]1[C@@H]([C@H]([C@@H](CO1)O)O)O)O)O)C)C)C)(C)C(=O)[O-])O[C@@H]1O[C@@H]([C@H]([C@@H]([C@H]1O)O)O)C(=O)O)O" "InChI=InChI=1S/C52H80O25/c1-19-36(73-41-33(62)28(57)23(54)17-70-41)32(61)35(64)42(72-19)75-38-29(58)24(55)18-71-44(38)77-46(69)52-13-12-47(2,3)14-21(52)20-8-9-25-48(4)15-22(53)39(76-43-34(63)30(59)31(60)37(74-43)40(65)66)51(7,45(67)68)26(48)10-11-49(25,5)50(20,6)16-27(52)56/h8,19,21-39,41-44,53-64H,9-18H2,1-7H3,(H,65,66)(H,67,68)/p-1/t19-,21-,22-,23+,24-,25?,26?,27+,28-,29-,30-,31-,32-,33+,34+,35+,36-,37-,38+,39-,41-,42?,43-,44-,48+,49+,50+,51-,52+/m0/s1" "computed SMILES=O=C(O)C1OC(OC2C(O)CC3(C)C(CCC4(C)C3CC=C5C6CC(C)(C)CCC6(C(=O)OC7OCC(O)C(O)C7OC8OC(C)C(OC9OCC(O)C(O)C9O)C(O)C8O)C(O)CC54C)C2(C(=O)[O-])C)C(O)C(O)C1O" "computed InChI=InChI=1S/C52H80O25/c1-19-36(73-41-33(62)28(57)23(54)17-70-41)32(61)35(64)42(72-19)75-38-29(58)24(55)18-71-44(38)77-46(69)52-13-12-47(2,3)14-21(52)20-8-9-25-48(4)15-22(53)39(76-43-34(63)30(59)31(60)37(74-43)40(65)66)51(7,45(67)68)26(48)10-11-49(25,5)50(20,6)16-27(52)56/h8,19,21-39,41-44,53-64H,9-18H2,1-7H3,(H,65,66)(H,67,68)/p-1/t19-,21-,22-,23+,24-,25?,26?,27+,28-,29-,30-,31-,32-,33+,34+,35+,36-,37-,38+,39-,41-,42-,43-,44-,48+,49+,50+,51-,52+/m0/s1" "license=License CC-BY-NC-SA 4.0 International" "author=Plant Biology, The Noble Foundation, Ardmore, OK, US/Dennis Fine, Daniel Wherritt, and Lloyd Sumner" "ionization=ESI" "collision energy 2=100.219" "peak width=0.015" "date=2014-12-12 20:57:07+01:00" "column=Waters Acquity BEH C18 1.7um x 2.1 x 150 mm" "retention time=681" "raw data file=C:\Data\Noble-Bruker MS libr eval complex mix\2014Dec_A17 aer rt mix MSMS_1-A,2_01_1447.d" "computed mass accuracy=32.58368123330847" "computed mass error=0.0359569720003492" "SPLASH=splash10-0udi-0900000000-200a3cf424a544d7540a" "submitter=Aiko Barsch (Bruker)" "MoNA Rating=4.545454545454546"
Num Peaks: 10
101.0230 3.103103
103.0050 2.802803
113.0235 9.709710
131.0348 2.302302
133.0146 1.701702
193.0351 54.354354
194.0371 1.401401
1103.4867 100.000000
1104.4933 59.259259
1105.4894 21.121121


Name: 3-GluA-28-Xyl(1-4)Rha(1-2)Ara Zanhic acid
Synon: $:00in-source
DB#: MetaboBASE1199
InChIKey: XBQCXFMLWNUHRQ-SEOMNULOSA-M
Instrument_type: LC-ESI-TOF
Instrument: impact HD
Ion_mode: N
Formula: [C52H79O25]-
MW: 1103
ExactMass: 1103.4915916079092
Comments: "SMILES=[C@H]1([C@@H]([C@@](C2[C@](C1)(C1[C@@](CC2)([C@]2(C(=CC1)[C@H]1[C@@]([C@@H](C2)O)(CCC(C1)(C)C)C(=O)O[C@H]1[C@@H]([C@H]([C@H](CO1)O)O)OC1[C@@H]([C@@H]([C@H]([C@@H](O1)C)O[C@H]1[C@@H]([C@H]([C@@H](CO1)O)O)O)O)O)C)C)C)(C)C(=O)[O-])O[C@@H]1O[C@@H]([C@H]([C@@H]([C@H]1O)O)O)C(=O)O)O" "InChI=InChI=1S/C52H80O25/c1-19-36(73-41-33(62)28(57)23(54)17-70-41)32(61)35(64)42(72-19)75-38-29(58)24(55)18-71-44(38)77-46(69)52-13-12-47(2,3)14-21(52)20-8-9-25-48(4)15-22(53)39(76-43-34(63)30(59)31(60)37(74-43)40(65)66)51(7,45(67)68)26(48)10-11-49(25,5)50(20,6)16-27(52)56/h8,19,21-39,41-44,53-64H,9-18H2,1-7H3,(H,65,66)(H,67,68)/p-1/t19-,21-,22-,23+,24-,25?,26?,27+,28-,29-,30-,31-,32-,33+,34+,35+,36-,37-,38+,39-,41-,42?,43-,44-,48+,49+,50+,51-,52+/m0/s1" "computed SMILES=O=C(O)C1OC(OC2C(O)CC3(C)C(CCC4(C)C3CC=C5C6CC(C)(C)CCC6(C(=O)OC7OCC(O)C(O)C7OC8OC(C)C(OC9OCC(O)C(O)C9O)C(O)C8O)C(O)CC54C)C2(C(=O)[O-])C)C(O)C(O)C1O" "computed InChI=InChI=1S/C52H80O25/c1-19-36(73-41-33(62)28(57)23(54)17-70-41)32(61)35(64)42(72-19)75-38-29(58)24(55)18-71-44(38)77-46(69)52-13-12-47(2,3)14-21(52)20-8-9-25-48(4)15-22(53)39(76-43-34(63)30(59)31(60)37(74-43)40(65)66)51(7,45(67)68)26(48)10-11-49(25,5)50(20,6)16-27(52)56/h8,19,21-39,41-44,53-64H,9-18H2,1-7H3,(H,65,66)(H,67,68)/p-1/t19-,21-,22-,23+,24-,25?,26?,27+,28-,29-,30-,31-,32-,33+,34+,35+,36-,37-,38+,39-,41-,42-,43-,44-,48+,49+,50+,51-,52+/m0/s1" "license=License CC-BY-NC-SA 4.0 International" "author=Plant Biology, The Noble Foundation, Ardmore, OK, US/Dennis Fine, Daniel Wherritt, and Lloyd Sumner" "ionization=ESI" "peak width=0.014" "date=2014-12-12 20:57:07+01:00" "column=Waters Acquity BEH C18 1.7um x 2.1 x 150 mm" "retention time=681" "raw data file=C:\Data\Noble-Bruker MS libr eval complex mix\2014Dec_A17 aer rt mix MSMS_1-A,2_01_1447.d" "SPLASH=splash10-0udi-0900001000-b0b602211d400b7bacb7" "submitter=Aiko Barsch (Bruker)" "MoNA Rating=3.888888888888889"
Num Peaks: 45
259.0610 6.406406
499.2213 2.302302
499.7156 1.001001
551.2420 12.912913
551.7430 8.308308
552.2443 2.202202
556.0020 1.301301
614.2769 22.022022
614.7776 13.613614
615.2817 6.706707
615.7795 1.701702
629.2831 2.902903
629.7832 1.901902
648.2713 1.501502
648.7743 1.101101
827.4435 5.605606
828.4456 2.602603
959.3537 2.102102
1038.4974 1.101101
1038.9907 1.501502
1103.4905 100.000000
1103.6306 1.001001
1103.9974 1.201201
1104.4924 59.459459
1105.4955 22.822823
1106.5026 5.505506
1114.4838 1.701702
1114.9761 2.102102
1125.4714 9.909910
1126.4730 5.405405
1127.4686 2.502503
1166.5156 2.902903
1167.0305 2.902903
1167.5232 3.003003
1168.0250 1.501502
1181.5334 2.602603
1182.0350 3.203203
1182.5309 3.103103
1183.0410 1.401401
1187.4282 2.002002
1193.4614 2.002002
1203.4143 3.803804
1204.4136 3.803804
1229.5610 2.702703
1230.5514 1.601602


Name: 4-Malonyl ononin
Synon: $:00in-source
DB#: MetaboBASE1200
InChIKey: QMHKWODSZRYFTD-FSIWAFGDSA-N
Spectrum_type: MS2
PrecursorMZ: 267.0706
Instrument_type: LC-ESI-TOF
Instrument: impact HD
Ion_mode: N
Collision_energy: 24.3977
Formula: C25H24O12
MW: 516
ExactMass: 516.1267762079999
Comments: "SMILES=c1(ccc2c(c1)occ(c2=O)c1ccc(cc1)OC)O[C@@H]1O[C@@H]([C@H]([C@@H]([C@H]1O)O)OC(=O)CC(=O)O)CO" "InChI=InChI=1S/C25H24O12/c1-33-13-4-2-12(3-5-13)16-11-34-17-8-14(6-7-15(17)21(16)30)35-25-23(32)22(31)24(18(10-26)36-25)37-20(29)9-19(27)28/h2-8,11,18,22-26,31-32H,9-10H2,1H3,(H,27,28)/t18-,22-,23-,24-,25-/m1/s1" "computed SMILES=O=C(O)CC(=O)OC1C(O)C(O)C(OC2=CC=C3C(=O)C(=COC3=C2)C=4C=CC(OC)=CC4)OC1CO" "license=License CC-BY-NC-SA 4.0 International" "author=Plant Biology, The Noble Foundation, Ardmore, OK, US/Dennis Fine, Daniel Wherritt, and Lloyd Sumner" "ionization=ESI" "collision energy 2=40.6628" "peak width=0.018" "date=2014-12-12 20:57:07+01:00" "column=Waters Acquity BEH C18 1.7um x 2.1 x 150 mm" "retention time=550.8" "raw data file=C:\Data\Noble-Bruker MS libr eval complex mix\2014Dec_A17 aer rt mix MSMS_1-A,2_01_1447.d" "SPLASH=splash10-0udi-0090000000-79a0a789278b3ffdfe69" "submitter=Aiko Barsch (Bruker)" "MoNA Rating=3.125"
Num Peaks: 8
132.0220 1.401401
195.0432 3.103103
223.0393 29.529530
224.0450 10.510511
251.0346 12.312312
252.0417 100.000000
253.0434 11.111111
267.0648 16.816817


Name: 3-(Glc(1-2)Glc(1-2)Glc)-28-(Xyl(1-4)[Api(1-3)]Rha(1-2)Ara Zanhic acid
Synon: $:00in-source
DB#: MetaboBASE1201
InChIKey: QSAJFYGMYZDTSH-FRZBVZJDSA-M
Precursor_type: [M]-
Spectrum_type: MS2
PrecursorMZ: 1545.652
Instrument_type: LC-ESI-TOF
Instrument: impact HD
Ion_mode: N
Collision_energy: 75
Formula: [C69H109O38]-
MW: 1545
ExactMass: 1545.6602326279092
Comments: "SMILES=[C@H]1([C@@H]([C@@](C2[C@](C1)(C1[C@@](CC2)([C@]2(C(=CC1)[C@H]1[C@@]([C@@H](C2)O)(CCC(C1)(C)C)C(=O)O[C@H]1[C@@H]([C@H]([C@H](CO1)O)O)OC1[C@@H]([C@@H]([C@H]([C@@H](O1)C)O[C@H]1[C@@H]([C@H]([C@@H](CO1)O)O)O)O[C@@H]1OC[C@@]([C@H]1O)(CO)O)O)C)C)C)(C)C(=O)[O-])O[C@@H]1O[C@@H]([C@H]([C@@H]([C@H]1O[C@@H]1O[C@@H]([C@H]([C@@H]([C@H]1O[C@@H]1O[C@@H]([C@H]([C@@H]([C@H]1O)O)O)CO)O)O)CO)O)O)CO)O" "InChI=InChI=1S/C69H110O38/c1-24-47(101-54-44(86)36(78)28(75)20-94-54)48(102-60-52(89)68(93,22-73)23-96-60)46(88)56(97-24)103-49-37(79)29(76)21-95-57(49)107-62(92)69-13-12-63(2,3)14-26(69)25-8-9-33-64(4)15-27(74)53(67(7,61(90)91)34(64)10-11-65(33,5)66(25,6)16-35(69)77)106-59-51(43(85)40(82)32(19-72)100-59)105-58-50(42(84)39(81)31(18-71)99-58)104-55-45(87)41(83)38(80)30(17-70)98-55/h8,24,26-60,70-89,93H,9-23H2,1-7H3,(H,90,91)/p-1/t24-,26-,27-,28+,29-,30+,31+,32+,33?,34?,35+,36-,37-,38+,39+,40+,41-,42-,43-,44+,45+,46+,47-,48-,49+,50+,51+,52-,53-,54-,55-,56?,57-,58-,59-,60-,64+,65+,66+,67-,68+,69+/m0/s1" "computed SMILES=O=C([O-])C1(C)C(OC2OC(CO)C(O)C(O)C2OC3OC(CO)C(O)C(O)C3OC4OC(CO)C(O)C(O)C4O)C(O)CC5(C)C1CCC6(C)C5CC=C7C8CC(C)(C)CCC8(C(=O)OC9OCC(O)C(O)C9OC%10OC(C)C(OC%11OCC(O)C(O)C%11O)C(OC%12OCC(O)(CO)C%12O)C%10O)C(O)CC76C" "computed InChI=InChI=1S/C69H110O38/c1-24-47(101-54-44(86)36(78)28(75)20-94-54)48(102-60-52(89)68(93,22-73)23-96-60)46(88)56(97-24)103-49-37(79)29(76)21-95-57(49)107-62(92)69-13-12-63(2,3)14-26(69)25-8-9-33-64(4)15-27(74)53(67(7,61(90)91)34(64)10-11-65(33,5)66(25,6)16-35(69)77)106-59-51(43(85)40(82)32(19-72)100-59)105-58-50(42(84)39(81)31(18-71)99-58)104-55-45(87)41(83)38(80)30(17-70)98-55/h8,24,26-60,70-89,93H,9-23H2,1-7H3,(H,90,91)/p-1/t24-,26-,27-,28+,29-,30+,31+,32+,33?,34?,35+,36-,37-,38+,39+,40+,41-,42-,43-,44+,45+,46+,47-,48-,49+,50+,51+,52-,53-,54-,55-,56-,57-,58-,59-,60-,64+,65+,66+,67-,68+,69+/m0/s1" "synonym=3-Glc(1-2)Glc(1-2)Glc-28-Xyl(1-4)[Api(1-3)]Rha(1-2)Ara Zanhic acid (NMR)" "license=License CC-BY-NC-SA 4.0 International" "author=Plant Biology, The Noble Foundation, Ardmore, OK, US/Dennis Fine, Daniel Wherritt, and Lloyd Sumner" "ionization=ESI" "isolation width=15" "collision energy 2=125" "peak width=0.025" "date=2014-11-20 08:02:12+01:00" "column=Waters Acquity BEH C18 1.7um x 2.1 x 150 mm" "retention time=658.2" "raw data file=C:\Data\2014Nov12_A-17 aerial root MS MSMS\A-17 aeial better  MSMS_1-A,2_01_1297.d" "computed mass accuracy=4.971395889660986" "computed mass error=-0.007684047999646282" "SPLASH=splash10-0002-0113490000-fb2bc63e834e561ecf01" "submitter=Aiko Barsch (Bruker)" "MoNA Rating=4.583333333333334"
Num Peaks: 31
101.017 3.003003
113.029 4.804805
119.037 1.701702
131.034 3.303303
149.039 1.901902
161.040 7.307307
179.050 3.903904
205.065 1.901902
221.061 24.024024
222.063 1.801802
233.063 2.602603
263.074 4.104104
277.090 4.204204
337.116 31.231231
338.117 3.403403
383.124 36.136136
384.127 6.306306
391.302 4.204204
392.305 2.002002
393.318 4.104104
409.140 9.509510
455.322 47.047047
456.326 15.215215
457.326 1.601602
469.161 19.619620
470.167 4.104104
1545.652 100.000000
1546.656 73.473473
1547.659 31.031031
1548.662 8.608609
1549.663 2.302302


Name: 3-(Glc(1-2)Glc(1-2)Glc)-28-(Xyl(1-4)[Api(1-3)]Rha(1-2)Ara Zanhic acid
Synon: $:00in-source
DB#: MetaboBASE1202
InChIKey: QSAJFYGMYZDTSH-FRZBVZJDSA-M
Instrument_type: LC-ESI-TOF
Instrument: impact HD
Ion_mode: N
Collision_energy: 10
Formula: [C69H109O38]-
MW: 1545
ExactMass: 1545.6602326279092
Comments: "SMILES=[C@H]1([C@@H]([C@@](C2[C@](C1)(C1[C@@](CC2)([C@]2(C(=CC1)[C@H]1[C@@]([C@@H](C2)O)(CCC(C1)(C)C)C(=O)O[C@H]1[C@@H]([C@H]([C@H](CO1)O)O)OC1[C@@H]([C@@H]([C@H]([C@@H](O1)C)O[C@H]1[C@@H]([C@H]([C@@H](CO1)O)O)O)O[C@@H]1OC[C@@]([C@H]1O)(CO)O)O)C)C)C)(C)C(=O)[O-])O[C@@H]1O[C@@H]([C@H]([C@@H]([C@H]1O[C@@H]1O[C@@H]([C@H]([C@@H]([C@H]1O[C@@H]1O[C@@H]([C@H]([C@@H]([C@H]1O)O)O)CO)O)O)CO)O)O)CO)O" "InChI=InChI=1S/C69H110O38/c1-24-47(101-54-44(86)36(78)28(75)20-94-54)48(102-60-52(89)68(93,22-73)23-96-60)46(88)56(97-24)103-49-37(79)29(76)21-95-57(49)107-62(92)69-13-12-63(2,3)14-26(69)25-8-9-33-64(4)15-27(74)53(67(7,61(90)91)34(64)10-11-65(33,5)66(25,6)16-35(69)77)106-59-51(43(85)40(82)32(19-72)100-59)105-58-50(42(84)39(81)31(18-71)99-58)104-55-45(87)41(83)38(80)30(17-70)98-55/h8,24,26-60,70-89,93H,9-23H2,1-7H3,(H,90,91)/p-1/t24-,26-,27-,28+,29-,30+,31+,32+,33?,34?,35+,36-,37-,38+,39+,40+,41-,42-,43-,44+,45+,46+,47-,48-,49+,50+,51+,52-,53-,54-,55-,56?,57-,58-,59-,60-,64+,65+,66+,67-,68+,69+/m0/s1" "computed SMILES=O=C([O-])C1(C)C(OC2OC(CO)C(O)C(O)C2OC3OC(CO)C(O)C(O)C3OC4OC(CO)C(O)C(O)C4O)C(O)CC5(C)C1CCC6(C)C5CC=C7C8CC(C)(C)CCC8(C(=O)OC9OCC(O)C(O)C9OC%10OC(C)C(OC%11OCC(O)C(O)C%11O)C(OC%12OCC(O)(CO)C%12O)C%10O)C(O)CC76C" "computed InChI=InChI=1S/C69H110O38/c1-24-47(101-54-44(86)36(78)28(75)20-94-54)48(102-60-52(89)68(93,22-73)23-96-60)46(88)56(97-24)103-49-37(79)29(76)21-95-57(49)107-62(92)69-13-12-63(2,3)14-26(69)25-8-9-33-64(4)15-27(74)53(67(7,61(90)91)34(64)10-11-65(33,5)66(25,6)16-35(69)77)106-59-51(43(85)40(82)32(19-72)100-59)105-58-50(42(84)39(81)31(18-71)99-58)104-55-45(87)41(83)38(80)30(17-70)98-55/h8,24,26-60,70-89,93H,9-23H2,1-7H3,(H,90,91)/p-1/t24-,26-,27-,28+,29-,30+,31+,32+,33?,34?,35+,36-,37-,38+,39+,40+,41-,42-,43-,44+,45+,46+,47-,48-,49+,50+,51+,52-,53-,54-,55-,56-,57-,58-,59-,60-,64+,65+,66+,67-,68+,69+/m0/s1" "synonym=3-Glc(1-2)Glc(1-2)Glc-28-Xyl(1-4)[Api(1-3)]Rha(1-2)Ara Zanhic acid (NMR)" "license=License CC-BY-NC-SA 4.0 International" "author=Plant Biology, The Noble Foundation, Ardmore, OK, US/Dennis Fine, Daniel Wherritt, and Lloyd Sumner" "ionization=ESI" "peak width=0.021" "date=2015-02-04 01:41:50+01:00" "column=Waters Acquity BEH C18 1.7um x 2.1 x 150 mm" "retention time=658.2" "raw data file=C:\Data\2015Mar17 R108 A17 root aerial for poster\A17 aerial" "SPLASH=splash10-0002-0000090100-afa26fb2ba0ee3e8b530" "submitter=Aiko Barsch (Bruker)" "MoNA Rating=4.444444444444445"
Num Peaks: 39
431.0293 1.001001
434.0880 1.101101
436.0536 1.001001
557.0053 1.101101
698.2903 7.707708
698.7917 5.505506
699.2944 2.502503
721.2909 1.601602
721.7939 1.101101
772.3279 10.510511
772.8301 7.907908
773.3309 4.204204
773.8341 1.701702
795.3309 7.907908
795.8325 6.606607
796.3334 3.403403
796.8365 1.501502
1397.5830 9.609610
1398.5856 7.007007
1399.5895 2.502503
1471.6224 4.004004
1472.1221 6.006006
1472.6230 5.205205
1473.1222 3.203203
1473.6212 1.401401
1515.6440 1.401401
1545.6581 100.000000
1545.9919 2.102102
1546.1648 21.721722
1546.3264 2.802803
1546.6625 85.985986
1547.1688 11.111111
1547.6647 37.437437
1548.1694 2.302302
1548.6653 11.811812
1549.6664 3.203203
1556.6473 1.701702
1557.1533 2.202202
1557.6526 1.901902


Name: 3-(Glc(1-2)Glc(1-2)Glc)-28-(Xyl(1-4)[Api(1-3)]Rha(1-2)Ara Zanhic acid
Synon: $:00in-source
DB#: MetaboBASE1203
InChIKey: QSAJFYGMYZDTSH-FRZBVZJDSA-M
Precursor_type: [M]-
Spectrum_type: MS2
PrecursorMZ: 1545.656
Instrument_type: LC-ESI-TOF
Instrument: impact HD
Ion_mode: N
Collision_energy: 101.522
Formula: [C69H109O38]-
MW: 1545
ExactMass: 1545.6602326279092
Comments: "SMILES=[C@H]1([C@@H]([C@@](C2[C@](C1)(C1[C@@](CC2)([C@]2(C(=CC1)[C@H]1[C@@]([C@@H](C2)O)(CCC(C1)(C)C)C(=O)O[C@H]1[C@@H]([C@H]([C@H](CO1)O)O)OC1[C@@H]([C@@H]([C@H]([C@@H](O1)C)O[C@H]1[C@@H]([C@H]([C@@H](CO1)O)O)O)O[C@@H]1OC[C@@]([C@H]1O)(CO)O)O)C)C)C)(C)C(=O)[O-])O[C@@H]1O[C@@H]([C@H]([C@@H]([C@H]1O[C@@H]1O[C@@H]([C@H]([C@@H]([C@H]1O[C@@H]1O[C@@H]([C@H]([C@@H]([C@H]1O)O)O)CO)O)O)CO)O)O)CO)O" "InChI=InChI=1S/C69H110O38/c1-24-47(101-54-44(86)36(78)28(75)20-94-54)48(102-60-52(89)68(93,22-73)23-96-60)46(88)56(97-24)103-49-37(79)29(76)21-95-57(49)107-62(92)69-13-12-63(2,3)14-26(69)25-8-9-33-64(4)15-27(74)53(67(7,61(90)91)34(64)10-11-65(33,5)66(25,6)16-35(69)77)106-59-51(43(85)40(82)32(19-72)100-59)105-58-50(42(84)39(81)31(18-71)99-58)104-55-45(87)41(83)38(80)30(17-70)98-55/h8,24,26-60,70-89,93H,9-23H2,1-7H3,(H,90,91)/p-1/t24-,26-,27-,28+,29-,30+,31+,32+,33?,34?,35+,36-,37-,38+,39+,40+,41-,42-,43-,44+,45+,46+,47-,48-,49+,50+,51+,52-,53-,54-,55-,56?,57-,58-,59-,60-,64+,65+,66+,67-,68+,69+/m0/s1" "computed SMILES=O=C([O-])C1(C)C(OC2OC(CO)C(O)C(O)C2OC3OC(CO)C(O)C(O)C3OC4OC(CO)C(O)C(O)C4O)C(O)CC5(C)C1CCC6(C)C5CC=C7C8CC(C)(C)CCC8(C(=O)OC9OCC(O)C(O)C9OC%10OC(C)C(OC%11OCC(O)C(O)C%11O)C(OC%12OCC(O)(CO)C%12O)C%10O)C(O)CC76C" "computed InChI=InChI=1S/C69H110O38/c1-24-47(101-54-44(86)36(78)28(75)20-94-54)48(102-60-52(89)68(93,22-73)23-96-60)46(88)56(97-24)103-49-37(79)29(76)21-95-57(49)107-62(92)69-13-12-63(2,3)14-26(69)25-8-9-33-64(4)15-27(74)53(67(7,61(90)91)34(64)10-11-65(33,5)66(25,6)16-35(69)77)106-59-51(43(85)40(82)32(19-72)100-59)105-58-50(42(84)39(81)31(18-71)99-58)104-55-45(87)41(83)38(80)30(17-70)98-55/h8,24,26-60,70-89,93H,9-23H2,1-7H3,(H,90,91)/p-1/t24-,26-,27-,28+,29-,30+,31+,32+,33?,34?,35+,36-,37-,38+,39+,40+,41-,42-,43-,44+,45+,46+,47-,48-,49+,50+,51+,52-,53-,54-,55-,56-,57-,58-,59-,60-,64+,65+,66+,67-,68+,69+/m0/s1" "synonym=3-Glc(1-2)Glc(1-2)Glc-28-Xyl(1-4)[Api(1-3)]Rha(1-2)Ara Zanhic acid (NMR)" "license=License CC-BY-NC-SA 4.0 International" "author=Plant Biology, The Noble Foundation, Ardmore, OK, US/Dennis Fine, Daniel Wherritt, and Lloyd Sumner" "ionization=ESI" "peak width=0.022" "date=2015-01-15 20:34:31+01:00" "column=Waters Acquity BEH C18 1.7um x 2.1 x 150 mm" "retention time=657.6" "raw data file=C:\Data\Noble-Bruker MS libr eval complex mix\2015Jan15 A-17 aerial MSMS_1-F,4_01_1569.d" "computed mass accuracy=2.3834850702490527" "computed mass error=-0.0036840479997408693" "SPLASH=splash10-0apj-0126930000-2e8e5e972f7078f26e70" "submitter=Aiko Barsch (Bruker)" "MoNA Rating=4.583333333333334"
Num Peaks: 65
101.0240 2.502503
113.0230 2.802803
119.0339 2.702703
127.0414 0.200200
131.0338 3.703704
143.0342 1.201201
145.0503 0.200200
149.0455 3.503504
161.0451 4.804805
179.0563 9.009009
205.0725 0.800801
221.0667 25.725726
222.0694 2.002002
223.0678 0.200200
233.0664 0.900901
233.0732 0.300300
259.0814 0.500501
263.0766 24.724725
264.0800 2.302302
265.0868 0.200200
277.0912 4.604605
299.1009 0.400400
323.0969 1.701702
337.1126 35.035035
338.1165 4.604605
339.1045 0.200200
339.1205 0.300300
341.1070 1.701702
383.1185 100.000000
384.1216 15.615616
385.1233 3.003003
391.2971 1.301301
393.3088 1.201201
394.3167 0.300300
409.1338 29.329329
409.3103 0.400400
410.1376 5.205205
411.1374 0.900901
427.1465 0.400400
433.2207 0.100100
455.3153 72.872873
456.3181 22.322322
457.3208 3.703704
458.3222 0.300300
469.1029 0.200200
469.1553 72.172172
470.1595 14.514515
471.1570 3.403403
541.1752 4.504505
542.1834 0.600601
997.4948 2.302302
998.5033 1.101101
1003.4656 5.905906
1004.4772 3.303303
1005.4700 0.300300
1545.4814 0.400400
1545.5314 0.700701
1545.6536 37.137137
1546.6560 30.330330
1546.8326 0.600601
1547.5305 0.300300
1547.6559 12.612613
1548.5809 0.400400
1548.6670 4.804805
1549.6583 0.300300


Name: 3-(Glc(1-2)Glc(1-2)Glc)-28-(Xyl(1-4)[Api(1-3)]Rha(1-2)Ara Zanhic acid
Synon: $:00in-source
DB#: MetaboBASE1204
InChIKey: QSAJFYGMYZDTSH-FRZBVZJDSA-M
Instrument_type: LC-ESI-TOF
Instrument: impact HD
Ion_mode: N
Formula: [C69H109O38]-
MW: 1545
ExactMass: 1545.6602326279094
Comments: "SMILES=[C@H]1([C@@H]([C@@](C2[C@](C1)(C1[C@@](CC2)([C@]2(C(=CC1)[C@H]1[C@@]([C@@H](C2)O)(CCC(C1)(C)C)C(=O)O[C@H]1[C@@H]([C@H]([C@H](CO1)O)O)OC1[C@@H]([C@@H]([C@H]([C@@H](O1)C)O[C@H]1[C@@H]([C@H]([C@@H](CO1)O)O)O)O[C@@H]1OC[C@@]([C@H]1O)(CO)O)O)C)C)C)(C)C(=O)[O-])O[C@@H]1O[C@@H]([C@H]([C@@H]([C@H]1O[C@@H]1O[C@@H]([C@H]([C@@H]([C@H]1O[C@@H]1O[C@@H]([C@H]([C@@H]([C@H]1O)O)O)CO)O)O)CO)O)O)CO)O" "InChI=InChI=1S/C69H110O38/c1-24-47(101-54-44(86)36(78)28(75)20-94-54)48(102-60-52(89)68(93,22-73)23-96-60)46(88)56(97-24)103-49-37(79)29(76)21-95-57(49)107-62(92)69-13-12-63(2,3)14-26(69)25-8-9-33-64(4)15-27(74)53(67(7,61(90)91)34(64)10-11-65(33,5)66(25,6)16-35(69)77)106-59-51(43(85)40(82)32(19-72)100-59)105-58-50(42(84)39(81)31(18-71)99-58)104-55-45(87)41(83)38(80)30(17-70)98-55/h8,24,26-60,70-89,93H,9-23H2,1-7H3,(H,90,91)/p-1/t24-,26-,27-,28+,29-,30+,31+,32+,33?,34?,35+,36-,37-,38+,39+,40+,41-,42-,43-,44+,45+,46+,47-,48-,49+,50+,51+,52-,53-,54-,55-,56?,57-,58-,59-,60-,64+,65+,66+,67-,68+,69+/m0/s1" "computed SMILES=O=C([O-])C1(C)C(OC2OC(CO)C(O)C(O)C2OC3OC(CO)C(O)C(O)C3OC4OC(CO)C(O)C(O)C4O)C(O)CC5(C)C1CCC6(C)C5CC=C7C8CC(C)(C)CCC8(C(=O)OC9OCC(O)C(O)C9OC%10OC(C)C(OC%11OCC(O)C(O)C%11O)C(OC%12OCC(O)(CO)C%12O)C%10O)C(O)CC76C" "computed InChI=InChI=1S/C69H110O38/c1-24-47(101-54-44(86)36(78)28(75)20-94-54)48(102-60-52(89)68(93,22-73)23-96-60)46(88)56(97-24)103-49-37(79)29(76)21-95-57(49)107-62(92)69-13-12-63(2,3)14-26(69)25-8-9-33-64(4)15-27(74)53(67(7,61(90)91)34(64)10-11-65(33,5)66(25,6)16-35(69)77)106-59-51(43(85)40(82)32(19-72)100-59)105-58-50(42(84)39(81)31(18-71)99-58)104-55-45(87)41(83)38(80)30(17-70)98-55/h8,24,26-60,70-89,93H,9-23H2,1-7H3,(H,90,91)/p-1/t24-,26-,27-,28+,29-,30+,31+,32+,33?,34?,35+,36-,37-,38+,39+,40+,41-,42-,43-,44+,45+,46+,47-,48-,49+,50+,51+,52-,53-,54-,55-,56-,57-,58-,59-,60-,64+,65+,66+,67-,68+,69+/m0/s1" "synonym=3-Glc(1-2)Glc(1-2)Glc-28-Xyl(1-4)[Api(1-3)]Rha(1-2)Ara Zanhic acid (NMR)" "license=License CC-BY-NC-SA 4.0 International" "author=Plant Biology, The Noble Foundation, Ardmore, OK, US/Dennis Fine, Daniel Wherritt, and Lloyd Sumner" "ionization=ESI" "peak width=0.019" "date=2015-01-15 20:34:31+01:00" "column=Waters Acquity BEH C18 1.7um x 2.1 x 150 mm" "retention time=657.6" "raw data file=C:\Data\Noble-Bruker MS libr eval complex mix\2015Jan15 A-17 aerial MSMS_1-F,4_01_1569.d" "SPLASH=splash10-0002-0000090100-87740073b3ef4e4bbb15" "submitter=Aiko Barsch (Bruker)" "MoNA Rating=3.888888888888889"
Num Peaks: 60
772.3300 8.308308
772.8276 7.107107
772.8937 0.300300
773.3311 3.203203
773.8310 1.401401
795.3323 6.906907
795.8334 5.105105
796.3361 2.502503
796.8365 1.101101
1471.5430 0.100100
1471.6191 2.802803
1472.1304 4.304304
1472.5330 0.200200
1472.6200 3.803804
1473.1257 2.102102
1473.6285 1.101101
1474.1403 0.300300
1545.6560 100.000000
1545.9181 1.001001
1545.9912 2.402402
1546.1617 20.120120
1546.3206 3.103103
1546.4692 0.600601
1546.5187 0.800801
1546.6602 85.185185
1546.8606 0.800801
1546.9764 1.701702
1547.1666 10.310310
1547.3306 1.901902
1547.4884 0.600601
1547.6609 37.437437
1547.8597 0.800801
1547.9146 0.400400
1548.1666 1.901902
1548.6641 11.211211
1549.3055 0.200200
1549.6548 3.203203
1556.6346 1.001001
1557.1464 1.801802
1557.6531 2.102102
1558.1068 0.500501
1558.1625 1.301301
1558.6560 0.200200
1598.5715 2.102102
1599.0909 0.100100
1599.5757 2.102102
1599.6791 0.200200
1600.5842 0.300300
1613.6403 8.408408
1614.6422 7.007007
1615.2278 0.100100
1615.6406 4.004004
1616.1177 0.400400
1616.5541 0.200200
1616.6359 1.701702
1617.6267 0.200200
1645.5818 3.503504
1646.5795 2.902903
1647.5901 2.002002
1648.5685 0.400400


Name: 3-(Glc(1-2)Glc(1-2)Glc)-28-(Xyl(1-4)[Ara(1-3)]Rha(1-2)Ara Zanhic acid
Synon: $:00in-source
DB#: MetaboBASE1205
InChIKey: VAWKNYRBJUUQEH-OYQXJFROSA-M
Spectrum_type: MS2
PrecursorMZ: 1545.667
Instrument_type: LC-ESI-TOF
Instrument: impact HD
Ion_mode: N
Collision_energy: 75
Formula: [C69H108O38]2-
MW: 1544
ExactMass: 1544.6529561758184
Comments: "SMILES=[C@H]1([C@@H]([C@@](C2[C@](C1)(C1[C@@](CC2)([C@]2(C(=CC1)[C@H]1[C@@]([C@@H](C2)O)(CCC(C1)(C)C)C(=O)O[C@H]1[C@@H]([C@H]([C@H](CO1)O)O)OC1[C@@H]([C@@H]([C@H]([C@@H](O1)C)O[C@H]1[C@@H]([C@H]([C@@H](CO1)O)O)O)O[C@@H]1OC[C@@H]([C@@H]([C@H]1O)O)[O-])O)C)C)C)(C)C(=O)[O-])O[C@@H]1O[C@@H]([C@H]([C@@H]([C@H]1O[C@@H]1O[C@@H]([C@H]([C@@H]([C@H]1O[C@@H]1O[C@@H]([C@H]([C@@H]([C@H]1O)O)O)CO)O)O)CO)O)O)CO)O" "InChI=InChI=1S/C69H109O38/c1-23-49(101-55-45(87)36(78)27(74)20-94-55)50(102-56-46(88)37(79)28(75)21-95-56)48(90)58(97-23)103-51-38(80)29(76)22-96-59(51)107-63(93)69-13-12-64(2,3)14-25(69)24-8-9-33-65(4)15-26(73)54(68(7,62(91)92)34(65)10-11-66(33,5)67(24,6)16-35(69)77)106-61-53(44(86)41(83)32(19-72)100-61)105-60-52(43(85)40(82)31(18-71)99-60)104-57-47(89)42(84)39(81)30(17-70)98-57/h8,23,25-61,70-74,76-90H,9-22H2,1-7H3,(H,91,92)/q-1/p-1/t23-,25-,26-,27+,28-,29-,30+,31+,32+,33?,34?,35+,36-,37-,38-,39+,40+,41+,42-,43-,44-,45+,46+,47+,48+,49-,50-,51+,52+,53+,54-,55-,56-,57-,58?,59-,60-,61-,65+,66+,67+,68-,69+/m0/s1" "computed SMILES=O=C([O-])C1(C)C(OC2OC(CO)C(O)C(O)C2OC3OC(CO)C(O)C(O)C3OC4OC(CO)C(O)C(O)C4O)C(O)CC5(C)C1CCC6(C)C5CC=C7C8CC(C)(C)CCC8(C(=O)OC9OCC(O)C(O)C9OC%10OC(C)C(OC%11OCC(O)C(O)C%11O)C(OC%12OCC([O-])C(O)C%12O)C%10O)C(O)CC76C" "computed InChI=InChI=1S/C69H109O38/c1-23-49(101-55-45(87)36(78)27(74)20-94-55)50(102-56-46(88)37(79)28(75)21-95-56)48(90)58(97-23)103-51-38(80)29(76)22-96-59(51)107-63(93)69-13-12-64(2,3)14-25(69)24-8-9-33-65(4)15-26(73)54(68(7,62(91)92)34(65)10-11-66(33,5)67(24,6)16-35(69)77)106-61-53(44(86)41(83)32(19-72)100-61)105-60-52(43(85)40(82)31(18-71)99-60)104-57-47(89)42(84)39(81)30(17-70)98-57/h8,23,25-61,70-74,76-90H,9-22H2,1-7H3,(H,91,92)/q-1/p-1/t23-,25-,26-,27+,28-,29-,30+,31+,32+,33?,34?,35+,36-,37-,38-,39+,40+,41+,42-,43-,44-,45+,46+,47+,48+,49-,50-,51+,52+,53+,54-,55-,56-,57-,58-,59-,60-,61-,65+,66+,67+,68-,69+/m0/s1" "license=License CC-BY-NC-SA 4.0 International" "author=Plant Biology, The Noble Foundation, Ardmore, OK, US/Dennis Fine, Daniel Wherritt, and Lloyd Sumner" "ionization=ESI" "isolation width=15" "collision energy 2=125" "peak width=0.025" "date=2014-11-20 08:02:12+01:00" "column=Waters Acquity BEH C18 1.7um x 2.1 x 150 mm" "retention time=667.2" "raw data file=C:\Data\2014Nov12_A-17 aerial root MS MSMS\A-17 aeial better  MSMS_1-A,2_01_1297.d" "SPLASH=splash10-0002-0124390000-26a45b75f4e6b0a5e1a3" "submitter=Aiko Barsch (Bruker)" "MoNA Rating=3.125"
Num Peaks: 35
101.020 5.705706
113.030 3.303303
119.038 3.903904
131.035 5.805806
159.026 2.102102
161.041 11.611612
179.051 6.206206
221.063 37.537538
222.066 2.902903
233.062 2.902903
263.077 9.509510
337.119 9.409409
338.124 2.502503
383.127 72.972973
384.131 12.612613
385.134 2.102102
391.311 4.704705
393.326 3.103103
427.932 2.002002
428.505 2.002002
428.786 2.602603
435.732 2.202202
437.209 2.002002
437.314 2.002002
453.147 2.102102
455.328 53.953954
456.329 14.614615
469.171 6.506507
1003.505 2.302302
1545.667 100.000000
1545.898 2.202202
1546.676 69.569570
1547.683 30.530531
1548.678 11.211211
1549.687 3.003003


Name: 3-(Glc(1-2)Glc(1-2)Glc)-28-(Xyl(1-4)[Ara(1-3)]Rha(1-2)Ara Zanhic acid
Synon: $:00in-source
DB#: MetaboBASE1206
InChIKey: VAWKNYRBJUUQEH-OYQXJFROSA-M
Instrument_type: LC-ESI-TOF
Instrument: impact HD
Ion_mode: N
Collision_energy: 10
Formula: [C69H108O38]2-
MW: 1544
ExactMass: 1544.6529561758184
Comments: "SMILES=[C@H]1([C@@H]([C@@](C2[C@](C1)(C1[C@@](CC2)([C@]2(C(=CC1)[C@H]1[C@@]([C@@H](C2)O)(CCC(C1)(C)C)C(=O)O[C@H]1[C@@H]([C@H]([C@H](CO1)O)O)OC1[C@@H]([C@@H]([C@H]([C@@H](O1)C)O[C@H]1[C@@H]([C@H]([C@@H](CO1)O)O)O)O[C@@H]1OC[C@@H]([C@@H]([C@H]1O)O)[O-])O)C)C)C)(C)C(=O)[O-])O[C@@H]1O[C@@H]([C@H]([C@@H]([C@H]1O[C@@H]1O[C@@H]([C@H]([C@@H]([C@H]1O[C@@H]1O[C@@H]([C@H]([C@@H]([C@H]1O)O)O)CO)O)O)CO)O)O)CO)O" "InChI=InChI=1S/C69H109O38/c1-23-49(101-55-45(87)36(78)27(74)20-94-55)50(102-56-46(88)37(79)28(75)21-95-56)48(90)58(97-23)103-51-38(80)29(76)22-96-59(51)107-63(93)69-13-12-64(2,3)14-25(69)24-8-9-33-65(4)15-26(73)54(68(7,62(91)92)34(65)10-11-66(33,5)67(24,6)16-35(69)77)106-61-53(44(86)41(83)32(19-72)100-61)105-60-52(43(85)40(82)31(18-71)99-60)104-57-47(89)42(84)39(81)30(17-70)98-57/h8,23,25-61,70-74,76-90H,9-22H2,1-7H3,(H,91,92)/q-1/p-1/t23-,25-,26-,27+,28-,29-,30+,31+,32+,33?,34?,35+,36-,37-,38-,39+,40+,41+,42-,43-,44-,45+,46+,47+,48+,49-,50-,51+,52+,53+,54-,55-,56-,57-,58?,59-,60-,61-,65+,66+,67+,68-,69+/m0/s1" "computed SMILES=O=C([O-])C1(C)C(OC2OC(CO)C(O)C(O)C2OC3OC(CO)C(O)C(O)C3OC4OC(CO)C(O)C(O)C4O)C(O)CC5(C)C1CCC6(C)C5CC=C7C8CC(C)(C)CCC8(C(=O)OC9OCC(O)C(O)C9OC%10OC(C)C(OC%11OCC(O)C(O)C%11O)C(OC%12OCC([O-])C(O)C%12O)C%10O)C(O)CC76C" "computed InChI=InChI=1S/C69H109O38/c1-23-49(101-55-45(87)36(78)27(74)20-94-55)50(102-56-46(88)37(79)28(75)21-95-56)48(90)58(97-23)103-51-38(80)29(76)22-96-59(51)107-63(93)69-13-12-64(2,3)14-25(69)24-8-9-33-65(4)15-26(73)54(68(7,62(91)92)34(65)10-11-66(33,5)67(24,6)16-35(69)77)106-61-53(44(86)41(83)32(19-72)100-61)105-60-52(43(85)40(82)31(18-71)99-60)104-57-47(89)42(84)39(81)30(17-70)98-57/h8,23,25-61,70-74,76-90H,9-22H2,1-7H3,(H,91,92)/q-1/p-1/t23-,25-,26-,27+,28-,29-,30+,31+,32+,33?,34?,35+,36-,37-,38-,39+,40+,41+,42-,43-,44-,45+,46+,47+,48+,49-,50-,51+,52+,53+,54-,55-,56-,57-,58-,59-,60-,61-,65+,66+,67+,68-,69+/m0/s1" "license=License CC-BY-NC-SA 4.0 International" "author=Plant Biology, The Noble Foundation, Ardmore, OK, US/Dennis Fine, Daniel Wherritt, and Lloyd Sumner" "ionization=ESI" "peak width=0.021" "date=2015-02-04 01:41:50+01:00" "column=Waters Acquity BEH C18 1.7um x 2.1 x 150 mm" "retention time=667.2" "raw data file=C:\Data\2015Mar17 R108 A17 root aerial for poster\A17 aerial" "SPLASH=splash10-0002-0000091000-d8e1012fb178f2d91c8d" "submitter=Aiko Barsch (Bruker)" "MoNA Rating=4.444444444444445"
Num Peaks: 59
426.0597 1.201201
426.4142 1.301301
426.9009 1.301301
427.1130 1.701702
428.5401 1.501502
429.2289 1.301301
430.5192 1.201201
430.7038 1.101101
432.4198 1.101101
433.7372 1.201201
434.7740 1.101101
435.2105 1.001001
436.5354 1.101101
436.7515 1.001001
438.0169 1.001001
440.2709 1.101101
442.5602 1.001001
447.5423 1.101101
455.1884 1.001001
477.2328 7.507508
478.2381 1.801802
566.2469 2.302302
566.7486 1.601602
617.2654 8.308308
617.7657 5.005005
618.2676 2.502503
632.2687 2.702703
632.7703 1.101101
772.8307 1.501502
795.3318 6.306306
795.8326 5.105105
796.3361 2.902903
1235.5310 12.912913
1236.5349 8.408408
1237.5421 3.403403
1390.5995 4.204204
1391.0958 5.905906
1391.6002 4.804805
1392.1029 2.502503
1392.5939 1.301301
1515.6392 1.901902
1516.6494 1.101101
1545.6595 100.000000
1545.9980 2.202202
1546.1642 21.321321
1546.3239 2.302302
1546.6628 84.984985
1547.1659 10.910911
1547.6650 37.937938
1548.1718 2.502503
1548.6669 11.911912
1549.6659 3.203203
1557.1503 1.301301
1580.1599 1.601602
1580.6620 1.501502
1613.6407 8.108108
1614.6486 6.406406
1615.6469 3.303303
1645.5941 1.401401


Name: 3-(Glc(1-2)Glc(1-2)Glc)-28-(Xyl(1-4)[Api(1-3)]Rha(1-2)Ara Medicagenic acid
Synon: $:00in-source
DB#: MetaboBASE1207
InChIKey: XZNDCLRCHSKEES-HHPGVKTASA-M
Instrument_type: LC-ESI-TOF
Instrument: impact HD
Ion_mode: N
Collision_energy: 10
Formula: [C69H109O37]-
MW: 1529
ExactMass: 1529.6653180079093
Comments: "SMILES=[C@H]1([C@@H]([C@@](C2[C@](C1)(C1[C@@](CC2)([C@]2(C(=CC1)[C@H]1[C@@](CC2)(CCC(C1)(C)C)C(=O)O[C@H]1[C@@H]([C@H]([C@H](CO1)O)O)OC1[C@@H]([C@@H]([C@H]([C@@H](O1)C)O[C@H]1[C@@H]([C@H]([C@@H](CO1)O)O)O)O[C@@H]1OC[C@@]([C@H]1O)(CO)O)O)C)C)C)(C)C(=O)[O-])O[C@@H]1O[C@@H]([C@H]([C@@H]([C@H]1O[C@@H]1O[C@@H]([C@H]([C@@H]([C@H]1O[C@@H]1O[C@@H]([C@H]([C@@H]([C@H]1O)O)O)CO)O)O)CO)O)O)CO)O" "InChI=InChI=1S/C69H110O37/c1-25-47(100-54-44(85)36(77)29(75)21-93-54)48(101-60-52(88)69(92,23-73)24-95-60)46(87)56(96-25)102-49-37(78)30(76)22-94-57(49)106-62(91)68-14-12-63(2,3)16-27(68)26-8-9-34-64(4)17-28(74)53(67(7,61(89)90)35(64)10-11-66(34,6)65(26,5)13-15-68)105-59-51(43(84)40(81)33(20-72)99-59)104-58-50(42(83)39(80)32(19-71)98-58)103-55-45(86)41(82)38(79)31(18-70)97-55/h8,25,27-60,70-88,92H,9-24H2,1-7H3,(H,89,90)/p-1/t25-,27-,28-,29+,30-,31+,32+,33+,34?,35?,36-,37-,38+,39+,40+,41-,42-,43-,44+,45+,46+,47-,48-,49+,50+,51+,52-,53-,54-,55-,56?,57-,58-,59-,60-,64+,65+,66+,67-,68-,69+/m0/s1" "computed SMILES=O=C([O-])C1(C)C(OC2OC(CO)C(O)C(O)C2OC3OC(CO)C(O)C(O)C3OC4OC(CO)C(O)C(O)C4O)C(O)CC5(C)C1CCC6(C)C5CC=C7C8CC(C)(C)CCC8(C(=O)OC9OCC(O)C(O)C9OC%10OC(C)C(OC%11OCC(O)C(O)C%11O)C(OC%12OCC(O)(CO)C%12O)C%10O)CCC76C" "computed InChI=InChI=1S/C69H110O37/c1-25-47(100-54-44(85)36(77)29(75)21-93-54)48(101-60-52(88)69(92,23-73)24-95-60)46(87)56(96-25)102-49-37(78)30(76)22-94-57(49)106-62(91)68-14-12-63(2,3)16-27(68)26-8-9-34-64(4)17-28(74)53(67(7,61(89)90)35(64)10-11-66(34,6)65(26,5)13-15-68)105-59-51(43(84)40(81)33(20-72)99-59)104-58-50(42(83)39(80)32(19-71)98-58)103-55-45(86)41(82)38(79)31(18-70)97-55/h8,25,27-60,70-88,92H,9-24H2,1-7H3,(H,89,90)/p-1/t25-,27-,28-,29+,30-,31+,32+,33+,34?,35?,36-,37-,38+,39+,40+,41-,42-,43-,44+,45+,46+,47-,48-,49+,50+,51+,52-,53-,54-,55-,56-,57-,58-,59-,60-,64+,65+,66+,67-,68-,69+/m0/s1" "synonym=3-Glc(1-2)Glc(1-2)Glc-28-Xyl(1-4)[Api(1-3)]Rha(1-2)Ara Medicagenic acid (NMR)" "license=License CC-BY-NC-SA 4.0 International" "author=Plant Biology, The Noble Foundation, Ardmore, OK, US/Dennis Fine, Daniel Wherritt, and Lloyd Sumner" "ionization=ESI" "peak width=0.021" "date=2015-02-04 01:41:50+01:00" "column=Waters Acquity BEH C18 1.7um x 2.1 x 150 mm" "retention time=756.6" "raw data file=C:\Data\2015Mar17 R108 A17 root aerial for poster\A17 aerial" "SPLASH=splash10-003r-0000090000-df3b2adf99663a297457" "submitter=Aiko Barsch (Bruker)" "MoNA Rating=4.444444444444445"
Num Peaks: 37
112.9859 3.203203
174.9552 3.703704
304.9144 1.901902
423.8618 1.001001
424.7037 1.101101
424.9071 1.101101
426.4130 1.101101
427.8513 1.001001
428.8612 1.001001
431.5507 1.001001
431.8361 1.201201
432.6035 1.301301
434.1577 1.201201
435.4129 1.001001
479.2294 1.001001
543.2463 2.102102
543.7440 2.202202
557.0044 6.906907
616.2733 4.204204
666.0228 4.004004
764.3301 6.706707
764.8331 5.505506
787.3317 3.003003
787.8313 1.301301
971.4880 1.801802
1073.5171 2.502503
1087.4924 8.908909
1088.4934 3.303303
1235.5562 2.202202
1529.6621 100.000000
1530.6676 75.775776
1531.6688 36.536537
1532.6715 12.812813
1533.6704 2.702703
1597.6523 10.910911
1598.6482 8.608609
1599.6418 1.501502


Name: 3-(Glc(1-2)Glc(1-2)Glc)-28-(Xyl(1-4)[Api(1-3)]Rha(1-2)Ara Medicagenic acid
Synon: $:00in-source
DB#: MetaboBASE1208
InChIKey: XZNDCLRCHSKEES-HHPGVKTASA-M
Instrument_type: LC-ESI-TOF
Instrument: impact HD
Ion_mode: N
Collision_energy: 10
Formula: [C69H109O37]-
MW: 1529
ExactMass: 1529.6653180079093
Comments: "SMILES=[C@H]1([C@@H]([C@@](C2[C@](C1)(C1[C@@](CC2)([C@]2(C(=CC1)[C@H]1[C@@](CC2)(CCC(C1)(C)C)C(=O)O[C@H]1[C@@H]([C@H]([C@H](CO1)O)O)OC1[C@@H]([C@@H]([C@H]([C@@H](O1)C)O[C@H]1[C@@H]([C@H]([C@@H](CO1)O)O)O)O[C@@H]1OC[C@@]([C@H]1O)(CO)O)O)C)C)C)(C)C(=O)[O-])O[C@@H]1O[C@@H]([C@H]([C@@H]([C@H]1O[C@@H]1O[C@@H]([C@H]([C@@H]([C@H]1O[C@@H]1O[C@@H]([C@H]([C@@H]([C@H]1O)O)O)CO)O)O)CO)O)O)CO)O" "InChI=InChI=1S/C69H110O37/c1-25-47(100-54-44(85)36(77)29(75)21-93-54)48(101-60-52(88)69(92,23-73)24-95-60)46(87)56(96-25)102-49-37(78)30(76)22-94-57(49)106-62(91)68-14-12-63(2,3)16-27(68)26-8-9-34-64(4)17-28(74)53(67(7,61(89)90)35(64)10-11-66(34,6)65(26,5)13-15-68)105-59-51(43(84)40(81)33(20-72)99-59)104-58-50(42(83)39(80)32(19-71)98-58)103-55-45(86)41(82)38(79)31(18-70)97-55/h8,25,27-60,70-88,92H,9-24H2,1-7H3,(H,89,90)/p-1/t25-,27-,28-,29+,30-,31+,32+,33+,34?,35?,36-,37-,38+,39+,40+,41-,42-,43-,44+,45+,46+,47-,48-,49+,50+,51+,52-,53-,54-,55-,56?,57-,58-,59-,60-,64+,65+,66+,67-,68-,69+/m0/s1" "computed SMILES=O=C([O-])C1(C)C(OC2OC(CO)C(O)C(O)C2OC3OC(CO)C(O)C(O)C3OC4OC(CO)C(O)C(O)C4O)C(O)CC5(C)C1CCC6(C)C5CC=C7C8CC(C)(C)CCC8(C(=O)OC9OCC(O)C(O)C9OC%10OC(C)C(OC%11OCC(O)C(O)C%11O)C(OC%12OCC(O)(CO)C%12O)C%10O)CCC76C" "computed InChI=InChI=1S/C69H110O37/c1-25-47(100-54-44(85)36(77)29(75)21-93-54)48(101-60-52(88)69(92,23-73)24-95-60)46(87)56(96-25)102-49-37(78)30(76)22-94-57(49)106-62(91)68-14-12-63(2,3)16-27(68)26-8-9-34-64(4)17-28(74)53(67(7,61(89)90)35(64)10-11-66(34,6)65(26,5)13-15-68)105-59-51(43(84)40(81)33(20-72)99-59)104-58-50(42(83)39(80)32(19-71)98-58)103-55-45(86)41(82)38(79)31(18-70)97-55/h8,25,27-60,70-88,92H,9-24H2,1-7H3,(H,89,90)/p-1/t25-,27-,28-,29+,30-,31+,32+,33+,34?,35?,36-,37-,38+,39+,40+,41-,42-,43-,44+,45+,46+,47-,48-,49+,50+,51+,52-,53-,54-,55-,56-,57-,58-,59-,60-,64+,65+,66+,67-,68-,69+/m0/s1" "synonym=3-Glc(1-2)Glc(1-2)Glc-28-Xyl(1-4)[Api(1-3)]Rha(1-2)Ara Medicagenic acid (NMR)" "license=License CC-BY-NC-SA 4.0 International" "author=Plant Biology, The Noble Foundation, Ardmore, OK, US/Dennis Fine, Daniel Wherritt, and Lloyd Sumner" "ionization=ESI" "peak width=0.022" "date=2015-02-04 01:41:50+01:00" "column=Waters Acquity BEH C18 1.7um x 2.1 x 150 mm" "retention time=756.6" "raw data file=G:\Sumner Lab Data Management Workspace Jun2013\Projects\NSF-JST Metabolomics Nov2011-Sep2014\UPLC-MS-MSMS\2015Mar17 R108 A17 root aerial for poster\A17 aerial" "SPLASH=splash10-0059-0000090000-a2a1e9baadc276f9bf19" "submitter=Aiko Barsch (Bruker)" "MoNA Rating=4.444444444444445"
Num Peaks: 24
431.8361 2.202202
431.9047 1.601602
432.6035 2.602603
536.2557 2.902903
536.7560 1.901902
543.2455 4.904905
543.7440 2.602603
616.2734 4.304304
666.0203 1.101101
764.3297 6.306306
764.8331 4.004004
787.3314 4.304304
787.8313 1.301301
971.4852 6.206206
972.4866 2.502503
1073.5156 5.405405
1087.4943 6.106106
1529.6621 100.000000
1530.6670 15.015015
1531.6682 40.040040
1532.6721 14.514515
1533.6704 2.002002
1597.6510 12.312312
1598.6486 9.709710


Name: 3-(Glc(1-2)Glc(1-2)Glc)-28-(Xyl(1-4)[Api(1-3)]Rha(1-2)Ara Medicagenic acid
Synon: $:00in-source
DB#: MetaboBASE1209
InChIKey: XZNDCLRCHSKEES-HHPGVKTASA-M
Precursor_type: [M]-
Spectrum_type: MS2
PrecursorMZ: 1529.65
Instrument_type: LC-ESI-TOF
Instrument: impact HD
Ion_mode: N
Collision_energy: 75
Formula: [C69H109O37]-
MW: 1529
ExactMass: 1529.6653180079093
Comments: "SMILES=[C@H]1([C@@H]([C@@](C2[C@](C1)(C1[C@@](CC2)([C@]2(C(=CC1)[C@H]1[C@@](CC2)(CCC(C1)(C)C)C(=O)O[C@H]1[C@@H]([C@H]([C@H](CO1)O)O)OC1[C@@H]([C@@H]([C@H]([C@@H](O1)C)O[C@H]1[C@@H]([C@H]([C@@H](CO1)O)O)O)O[C@@H]1OC[C@@]([C@H]1O)(CO)O)O)C)C)C)(C)C(=O)[O-])O[C@@H]1O[C@@H]([C@H]([C@@H]([C@H]1O[C@@H]1O[C@@H]([C@H]([C@@H]([C@H]1O[C@@H]1O[C@@H]([C@H]([C@@H]([C@H]1O)O)O)CO)O)O)CO)O)O)CO)O" "InChI=InChI=1S/C69H110O37/c1-25-47(100-54-44(85)36(77)29(75)21-93-54)48(101-60-52(88)69(92,23-73)24-95-60)46(87)56(96-25)102-49-37(78)30(76)22-94-57(49)106-62(91)68-14-12-63(2,3)16-27(68)26-8-9-34-64(4)17-28(74)53(67(7,61(89)90)35(64)10-11-66(34,6)65(26,5)13-15-68)105-59-51(43(84)40(81)33(20-72)99-59)104-58-50(42(83)39(80)32(19-71)98-58)103-55-45(86)41(82)38(79)31(18-70)97-55/h8,25,27-60,70-88,92H,9-24H2,1-7H3,(H,89,90)/p-1/t25-,27-,28-,29+,30-,31+,32+,33+,34?,35?,36-,37-,38+,39+,40+,41-,42-,43-,44+,45+,46+,47-,48-,49+,50+,51+,52-,53-,54-,55-,56?,57-,58-,59-,60-,64+,65+,66+,67-,68-,69+/m0/s1" "computed SMILES=O=C([O-])C1(C)C(OC2OC(CO)C(O)C(O)C2OC3OC(CO)C(O)C(O)C3OC4OC(CO)C(O)C(O)C4O)C(O)CC5(C)C1CCC6(C)C5CC=C7C8CC(C)(C)CCC8(C(=O)OC9OCC(O)C(O)C9OC%10OC(C)C(OC%11OCC(O)C(O)C%11O)C(OC%12OCC(O)(CO)C%12O)C%10O)CCC76C" "computed InChI=InChI=1S/C69H110O37/c1-25-47(100-54-44(85)36(77)29(75)21-93-54)48(101-60-52(88)69(92,23-73)24-95-60)46(87)56(96-25)102-49-37(78)30(76)22-94-57(49)106-62(91)68-14-12-63(2,3)16-27(68)26-8-9-34-64(4)17-28(74)53(67(7,61(89)90)35(64)10-11-66(34,6)65(26,5)13-15-68)105-59-51(43(84)40(81)33(20-72)99-59)104-58-50(42(83)39(80)32(19-71)98-58)103-55-45(86)41(82)38(79)31(18-70)97-55/h8,25,27-60,70-88,92H,9-24H2,1-7H3,(H,89,90)/p-1/t25-,27-,28-,29+,30-,31+,32+,33+,34?,35?,36-,37-,38+,39+,40+,41-,42-,43-,44+,45+,46+,47-,48-,49+,50+,51+,52-,53-,54-,55-,56-,57-,58-,59-,60-,64+,65+,66+,67-,68-,69+/m0/s1" "synonym=3-Glc(1-2)Glc(1-2)Glc-28-Xyl(1-4)[Api(1-3)]Rha(1-2)Ara Medicagenic acid (NMR)" "license=License CC-BY-NC-SA 4.0 International" "author=Plant Biology, The Noble Foundation, Ardmore, OK, US/Dennis Fine, Daniel Wherritt, and Lloyd Sumner" "ionization=ESI" "isolation width=15" "collision energy 2=125" "peak width=0.023" "date=2014-11-20 08:02:12+01:00" "column=Waters Acquity BEH C18 1.7um x 2.1 x 150 mm" "retention time=756.6" "raw data file=C:\Data\2014Nov12_A-17 aerial root MS MSMS\A-17 aeial better  MSMS_1-A,2_01_1297.d" "computed mass accuracy=9.655429673246353" "computed mass error=-0.014769427999681284" "SPLASH=splash10-003r-0114890000-f2b66a3849678895acc8" "submitter=Aiko Barsch (Bruker)" "MoNA Rating=4.545454545454546"
Num Peaks: 87
101.0194 2.902903
113.0284 4.404404
119.0379 5.505506
143.0286 4.704705
149.0461 2.602603
161.0403 8.308308
179.0489 3.303303
205.0649 4.004004
221.0580 27.427427
233.0625 2.302302
263.0692 3.003003
277.0865 2.702703
300.5212 2.302302
302.8016 3.603604
306.8824 2.102102
314.1253 2.302302
336.1856 2.102102
337.1136 33.033033
338.1151 7.207207
383.0787 2.802803
383.1207 47.147147
384.1219 6.906907
409.1449 3.803804
420.3334 2.102102
420.6323 4.104104
421.6875 3.603604
422.0533 2.702703
422.2176 2.102102
422.6411 2.602603
422.9935 2.302302
423.0579 3.203203
424.5606 2.202202
424.7419 2.502503
425.5837 2.402402
425.6989 2.502503
425.7983 2.302302
425.8989 2.502503
426.8882 2.102102
427.5143 2.802803
427.7529 3.103103
428.0173 2.402402
428.1048 2.202202
428.1786 3.103103
428.2596 2.802803
429.0795 2.702703
429.2827 2.402402
430.7604 3.103103
430.8827 2.802803
431.3237 3.003003
431.3994 2.102102
431.5761 4.804805
431.8596 2.102102
434.0573 2.402402
434.9377 2.402402
435.8290 2.102102
435.8871 2.202202
436.9196 2.302302
436.9760 2.102102
437.0381 2.202202
438.7178 2.502503
439.3246 40.440440
440.3238 14.514515
441.3265 4.704705
442.4107 2.302302
442.8099 2.302302
444.1861 2.902903
446.5800 2.102102
446.9254 2.202202
447.5295 3.303303
451.2628 4.804805
451.7204 2.402402
451.8202 2.102102
452.8570 2.702703
457.0858 2.102102
466.2142 2.202202
469.1616 7.107107
470.1576 2.702703
967.6513 2.402402
1152.0457 2.402402
1408.7399 2.302302
1529.6495 100.000000
1530.6439 71.071071
1531.6533 27.927928
1532.6495 10.610611
1532.7423 3.203203
1533.6989 3.203203
1903.0382 2.302302


Name: 3-(Glc(1-2)Glc(1-2)Glc)-28-(Xyl(1-4)[Api(1-3)]Rha(1-2)Ara Medicagenic acid
Synon: $:00in-source
DB#: MetaboBASE1210
InChIKey: XZNDCLRCHSKEES-HHPGVKTASA-M
Instrument_type: LC-ESI-TOF
Instrument: impact HD
Ion_mode: N
Formula: [C69H109O37]-
MW: 1529
ExactMass: 1529.6653180079093
Comments: "SMILES=[C@H]1([C@@H]([C@@](C2[C@](C1)(C1[C@@](CC2)([C@]2(C(=CC1)[C@H]1[C@@](CC2)(CCC(C1)(C)C)C(=O)O[C@H]1[C@@H]([C@H]([C@H](CO1)O)O)OC1[C@@H]([C@@H]([C@H]([C@@H](O1)C)O[C@H]1[C@@H]([C@H]([C@@H](CO1)O)O)O)O[C@@H]1OC[C@@]([C@H]1O)(CO)O)O)C)C)C)(C)C(=O)[O-])O[C@@H]1O[C@@H]([C@H]([C@@H]([C@H]1O[C@@H]1O[C@@H]([C@H]([C@@H]([C@H]1O[C@@H]1O[C@@H]([C@H]([C@@H]([C@H]1O)O)O)CO)O)O)CO)O)O)CO)O" "InChI=InChI=1S/C69H110O37/c1-25-47(100-54-44(85)36(77)29(75)21-93-54)48(101-60-52(88)69(92,23-73)24-95-60)46(87)56(96-25)102-49-37(78)30(76)22-94-57(49)106-62(91)68-14-12-63(2,3)16-27(68)26-8-9-34-64(4)17-28(74)53(67(7,61(89)90)35(64)10-11-66(34,6)65(26,5)13-15-68)105-59-51(43(84)40(81)33(20-72)99-59)104-58-50(42(83)39(80)32(19-71)98-58)103-55-45(86)41(82)38(79)31(18-70)97-55/h8,25,27-60,70-88,92H,9-24H2,1-7H3,(H,89,90)/p-1/t25-,27-,28-,29+,30-,31+,32+,33+,34?,35?,36-,37-,38+,39+,40+,41-,42-,43-,44+,45+,46+,47-,48-,49+,50+,51+,52-,53-,54-,55-,56?,57-,58-,59-,60-,64+,65+,66+,67-,68-,69+/m0/s1" "computed SMILES=O=C([O-])C1(C)C(OC2OC(CO)C(O)C(O)C2OC3OC(CO)C(O)C(O)C3OC4OC(CO)C(O)C(O)C4O)C(O)CC5(C)C1CCC6(C)C5CC=C7C8CC(C)(C)CCC8(C(=O)OC9OCC(O)C(O)C9OC%10OC(C)C(OC%11OCC(O)C(O)C%11O)C(OC%12OCC(O)(CO)C%12O)C%10O)CCC76C" "computed InChI=InChI=1S/C69H110O37/c1-25-47(100-54-44(85)36(77)29(75)21-93-54)48(101-60-52(88)69(92,23-73)24-95-60)46(87)56(96-25)102-49-37(78)30(76)22-94-57(49)106-62(91)68-14-12-63(2,3)16-27(68)26-8-9-34-64(4)17-28(74)53(67(7,61(89)90)35(64)10-11-66(34,6)65(26,5)13-15-68)105-59-51(43(84)40(81)33(20-72)99-59)104-58-50(42(83)39(80)32(19-71)98-58)103-55-45(86)41(82)38(79)31(18-70)97-55/h8,25,27-60,70-88,92H,9-24H2,1-7H3,(H,89,90)/p-1/t25-,27-,28-,29+,30-,31+,32+,33+,34?,35?,36-,37-,38+,39+,40+,41-,42-,43-,44+,45+,46+,47-,48-,49+,50+,51+,52-,53-,54-,55-,56-,57-,58-,59-,60-,64+,65+,66+,67-,68-,69+/m0/s1" "synonym=3-Glc(1-2)Glc(1-2)Glc-28-Xyl(1-4)[Api(1-3)]Rha(1-2)Ara Medicagenic acid (NMR)" "license=License CC-BY-NC-SA 4.0 International" "author=Plant Biology, The Noble Foundation, Ardmore, OK, US/Dennis Fine, Daniel Wherritt, and Lloyd Sumner" "ionization=ESI" "peak width=0.019" "date=2015-01-15 20:34:31+01:00" "column=Waters Acquity BEH C18 1.7um x 2.1 x 150 mm" "retention time=755.4" "raw data file=C:\Data\Noble-Bruker MS libr eval complex mix\2015Jan15 A-17 aerial MSMS_1-F,4_01_1569.d" "SPLASH=splash10-003r-1000090000-31e13bbe66df407f2468" "submitter=Aiko Barsch (Bruker)" "MoNA Rating=3.888888888888889"
Num Peaks: 29
479.2498 1.801802
565.2610 2.302302
565.7597 0.700701
839.4053 2.102102
840.4112 2.302302
971.4822 15.215215
972.4812 8.208208
973.4907 3.103103
1073.5151 13.013013
1074.5210 0.200200
1087.4927 11.811812
1088.4937 7.607608
1089.4867 0.300300
1529.5065 0.900901
1529.6581 100.000000
1530.1655 1.001001
1530.5352 1.401401
1530.6664 79.079079
1531.6655 36.536537
1532.6698 13.213213
1533.6740 1.501502
1597.6523 14.314314
1598.6437 9.009009
1599.6501 4.104104
1599.7017 0.200200
1600.6399 0.400400
1629.5675 2.902903
1630.5525 1.201201
1630.6035 1.201201


Name: 3-(Glc(1-2)Glc(1-2)Glc)-28-(Xyl(1-4)[Api(1-3)]Rha(1-2)Ara Medicagenic acid
Synon: $:00in-source
DB#: MetaboBASE1211
InChIKey: XZNDCLRCHSKEES-HHPGVKTASA-M
Precursor_type: [M]-
Spectrum_type: MS2
PrecursorMZ: 1529.658
Instrument_type: LC-ESI-TOF
Instrument: impact HD
Ion_mode: N
Collision_energy: 100.989
Formula: [C69H109O37]-
MW: 1529
ExactMass: 1529.6653180079093
Comments: "SMILES=[C@H]1([C@@H]([C@@](C2[C@](C1)(C1[C@@](CC2)([C@]2(C(=CC1)[C@H]1[C@@](CC2)(CCC(C1)(C)C)C(=O)O[C@H]1[C@@H]([C@H]([C@H](CO1)O)O)OC1[C@@H]([C@@H]([C@H]([C@@H](O1)C)O[C@H]1[C@@H]([C@H]([C@@H](CO1)O)O)O)O[C@@H]1OC[C@@]([C@H]1O)(CO)O)O)C)C)C)(C)C(=O)[O-])O[C@@H]1O[C@@H]([C@H]([C@@H]([C@H]1O[C@@H]1O[C@@H]([C@H]([C@@H]([C@H]1O[C@@H]1O[C@@H]([C@H]([C@@H]([C@H]1O)O)O)CO)O)O)CO)O)O)CO)O" "InChI=InChI=1S/C69H110O37/c1-25-47(100-54-44(85)36(77)29(75)21-93-54)48(101-60-52(88)69(92,23-73)24-95-60)46(87)56(96-25)102-49-37(78)30(76)22-94-57(49)106-62(91)68-14-12-63(2,3)16-27(68)26-8-9-34-64(4)17-28(74)53(67(7,61(89)90)35(64)10-11-66(34,6)65(26,5)13-15-68)105-59-51(43(84)40(81)33(20-72)99-59)104-58-50(42(83)39(80)32(19-71)98-58)103-55-45(86)41(82)38(79)31(18-70)97-55/h8,25,27-60,70-88,92H,9-24H2,1-7H3,(H,89,90)/p-1/t25-,27-,28-,29+,30-,31+,32+,33+,34?,35?,36-,37-,38+,39+,40+,41-,42-,43-,44+,45+,46+,47-,48-,49+,50+,51+,52-,53-,54-,55-,56?,57-,58-,59-,60-,64+,65+,66+,67-,68-,69+/m0/s1" "computed SMILES=O=C([O-])C1(C)C(OC2OC(CO)C(O)C(O)C2OC3OC(CO)C(O)C(O)C3OC4OC(CO)C(O)C(O)C4O)C(O)CC5(C)C1CCC6(C)C5CC=C7C8CC(C)(C)CCC8(C(=O)OC9OCC(O)C(O)C9OC%10OC(C)C(OC%11OCC(O)C(O)C%11O)C(OC%12OCC(O)(CO)C%12O)C%10O)CCC76C" "computed InChI=InChI=1S/C69H110O37/c1-25-47(100-54-44(85)36(77)29(75)21-93-54)48(101-60-52(88)69(92,23-73)24-95-60)46(87)56(96-25)102-49-37(78)30(76)22-94-57(49)106-62(91)68-14-12-63(2,3)16-27(68)26-8-9-34-64(4)17-28(74)53(67(7,61(89)90)35(64)10-11-66(34,6)65(26,5)13-15-68)105-59-51(43(84)40(81)33(20-72)99-59)104-58-50(42(83)39(80)32(19-71)98-58)103-55-45(86)41(82)38(79)31(18-70)97-55/h8,25,27-60,70-88,92H,9-24H2,1-7H3,(H,89,90)/p-1/t25-,27-,28-,29+,30-,31+,32+,33+,34?,35?,36-,37-,38+,39+,40+,41-,42-,43-,44+,45+,46+,47-,48-,49+,50+,51+,52-,53-,54-,55-,56-,57-,58-,59-,60-,64+,65+,66+,67-,68-,69+/m0/s1" "synonym=3-Glc(1-2)Glc(1-2)Glc-28-Xyl(1-4)[Api(1-3)]Rha(1-2)Ara Medicagenic acid (NMR)" "license=License CC-BY-NC-SA 4.0 International" "author=Plant Biology, The Noble Foundation, Ardmore, OK, US/Dennis Fine, Daniel Wherritt, and Lloyd Sumner" "ionization=ESI" "peak width=0.02" "date=2015-01-15 20:34:31+01:00" "column=Waters Acquity BEH C18 1.7um x 2.1 x 150 mm" "retention time=755.4" "raw data file=C:\Data\Noble-Bruker MS libr eval complex mix\2015Jan15 A-17 aerial MSMS_1-F,4_01_1569.d" "computed mass accuracy=4.425451963687609" "computed mass error=-0.006769427999870459" "SPLASH=splash10-001i-0039550000-cd7bd0304f76fa323c5f" "submitter=Aiko Barsch (Bruker)" "MoNA Rating=4.583333333333334"
Num Peaks: 27
101.0232 1.401401
149.0454 2.202202
161.0453 5.205205
179.0551 6.206206
221.0668 32.332332
263.0766 24.324324
277.0898 5.805806
337.1143 42.942943
338.1158 3.203203
383.1176 100.000000
383.2061 1.201201
384.1211 16.316316
385.1273 2.202202
409.1349 20.320320
410.1379 2.302302
439.3215 24.724725
440.3259 7.207207
469.1544 41.941942
470.1608 5.705706
541.1708 2.502503
541.1856 3.103103
981.4949 4.504505
1529.5785 1.901902
1529.6602 47.447447
1530.6677 33.133133
1531.6334 3.803804
1531.6875 15.315315


Name: 3-(Glc(1-2)Glc(1-2)Glc)-28-(Xyl(1-4)[Ara(1-3)]Rha(1-2)Ara Medicagenic acid
Synon: $:00in-source
DB#: MetaboBASE1212
InChIKey: JCNQPOPIDLZOHH-OFMSYKCLSA-M
Instrument_type: LC-ESI-TOF
Instrument: impact HD
Ion_mode: N
Collision_energy: 10
Formula: [C69H108O37]2-
MW: 1528
ExactMass: 1528.6580415558185
Comments: "SMILES=[C@H]1([C@@H]([C@@](C2[C@](C1)(C1[C@@](CC2)([C@]2(C(=CC1)[C@H]1[C@@](CC2)(CCC(C1)(C)C)C(=O)O[C@H]1[C@@H]([C@H]([C@H](CO1)O)O)OC1[C@@H]([C@@H]([C@H]([C@@H](O1)C)O[C@H]1[C@@H]([C@H]([C@@H](CO1)O)O)O)O[C@@H]1OC[C@@H]([C@@H]([C@H]1O)O)[O-])O)C)C)C)(C)C(=O)[O-])O[C@@H]1O[C@@H]([C@H]([C@@H]([C@H]1O[C@@H]1O[C@@H]([C@H]([C@@H]([C@H]1O[C@@H]1O[C@@H]([C@H]([C@@H]([C@H]1O)O)O)CO)O)O)CO)O)O)CO)O" "InChI=InChI=1S/C69H109O37/c1-24-49(100-55-45(86)36(77)28(74)21-93-55)50(101-56-46(87)37(78)29(75)22-94-56)48(89)58(96-24)102-51-38(79)30(76)23-95-59(51)106-63(92)69-14-12-64(2,3)16-26(69)25-8-9-34-65(4)17-27(73)54(68(7,62(90)91)35(65)10-11-67(34,6)66(25,5)13-15-69)105-61-53(44(85)41(82)33(20-72)99-61)104-60-52(43(84)40(81)32(19-71)98-60)103-57-47(88)42(83)39(80)31(18-70)97-57/h8,24,26-61,70-74,76-89H,9-23H2,1-7H3,(H,90,91)/q-1/p-1/t24-,26-,27-,28+,29-,30-,31+,32+,33+,34?,35?,36-,37-,38-,39+,40+,41+,42-,43-,44-,45+,46+,47+,48+,49-,50-,51+,52+,53+,54-,55-,56-,57-,58?,59-,60-,61-,65+,66+,67+,68-,69-/m0/s1" "computed SMILES=O=C([O-])C1(C)C(OC2OC(CO)C(O)C(O)C2OC3OC(CO)C(O)C(O)C3OC4OC(CO)C(O)C(O)C4O)C(O)CC5(C)C1CCC6(C)C5CC=C7C8CC(C)(C)CCC8(C(=O)OC9OCC(O)C(O)C9OC%10OC(C)C(OC%11OCC(O)C(O)C%11O)C(OC%12OCC([O-])C(O)C%12O)C%10O)CCC76C" "computed InChI=InChI=1S/C69H109O37/c1-24-49(100-55-45(86)36(77)28(74)21-93-55)50(101-56-46(87)37(78)29(75)22-94-56)48(89)58(96-24)102-51-38(79)30(76)23-95-59(51)106-63(92)69-14-12-64(2,3)16-26(69)25-8-9-34-65(4)17-27(73)54(68(7,62(90)91)35(65)10-11-67(34,6)66(25,5)13-15-69)105-61-53(44(85)41(82)33(20-72)99-61)104-60-52(43(84)40(81)32(19-71)98-60)103-57-47(88)42(83)39(80)31(18-70)97-57/h8,24,26-61,70-74,76-89H,9-23H2,1-7H3,(H,90,91)/q-1/p-1/t24-,26-,27-,28+,29-,30-,31+,32+,33+,34?,35?,36-,37-,38-,39+,40+,41+,42-,43-,44-,45+,46+,47+,48+,49-,50-,51+,52+,53+,54-,55-,56-,57-,58-,59-,60-,61-,65+,66+,67+,68-,69-/m0/s1" "synonym=3-Glc(1-2)Glc(1-2)Glc-28-Xyl(1-4)[Ara(1-3)]Rha(1-2)Ara Medicagenic acid (NMR)" "synonym=3-(Glc(1-2)Glc(1-2)Glc)-28-(Xyl(1-4)[Ara(1-3)]Rha(1-2)Ara Medicagenic acid (NMR)" "license=License CC-BY-NC-SA 4.0 International" "author=Plant Biology, The Noble Foundation, Ardmore, OK, US/Dennis Fine, Daniel Wherritt, and Lloyd Sumner" "ionization=ESI" "peak width=0.022" "date=2015-02-04 01:41:50+01:00" "column=Waters Acquity BEH C18 1.7um x 2.1 x 150 mm" "retention time=761.4" "raw data file=C:\Data\2015Mar17 R108 A17 root aerial for poster\A17 aerial" "SPLASH=splash10-003r-0000091000-371b4d8da6ba3326688e" "submitter=Aiko Barsch (Bruker)" "MoNA Rating=4.444444444444445"
Num Peaks: 25
112.9846 2.202202
174.9553 2.702703
213.1492 4.204204
557.0056 5.805806
564.2509 7.007007
564.7512 2.802803
666.0188 4.504505
787.8306 1.001001
825.4227 5.105105
826.4241 1.101101
971.4829 9.509510
972.4819 3.603604
1017.4803 1.201201
1367.6160 1.101101
1529.6609 100.000000
1530.1611 2.502503
1530.6622 81.981982
1531.6641 36.536537
1532.6650 12.612613
1597.6442 10.710711
1598.6501 7.707708
1599.6342 1.101101
1661.6962 14.514515
1662.7001 11.911912
1663.7089 4.304304


Name: 3-(Glc(1-2)Glc(1-2)Glc)-28-(Xyl(1-4)[Ara(1-3)]Rha(1-2)Ara Medicagenic acid
Synon: $:00in-source
DB#: MetaboBASE1213
InChIKey: JCNQPOPIDLZOHH-OFMSYKCLSA-M
Spectrum_type: MS2
PrecursorMZ: 1529.655
Instrument_type: LC-ESI-TOF
Instrument: impact HD
Ion_mode: N
Collision_energy: 75
Formula: [C69H108O37]2-
MW: 1528
ExactMass: 1528.6580415558185
Comments: "SMILES=[C@H]1([C@@H]([C@@](C2[C@](C1)(C1[C@@](CC2)([C@]2(C(=CC1)[C@H]1[C@@](CC2)(CCC(C1)(C)C)C(=O)O[C@H]1[C@@H]([C@H]([C@H](CO1)O)O)OC1[C@@H]([C@@H]([C@H]([C@@H](O1)C)O[C@H]1[C@@H]([C@H]([C@@H](CO1)O)O)O)O[C@@H]1OC[C@@H]([C@@H]([C@H]1O)O)[O-])O)C)C)C)(C)C(=O)[O-])O[C@@H]1O[C@@H]([C@H]([C@@H]([C@H]1O[C@@H]1O[C@@H]([C@H]([C@@H]([C@H]1O[C@@H]1O[C@@H]([C@H]([C@@H]([C@H]1O)O)O)CO)O)O)CO)O)O)CO)O" "InChI=InChI=1S/C69H109O37/c1-24-49(100-55-45(86)36(77)28(74)21-93-55)50(101-56-46(87)37(78)29(75)22-94-56)48(89)58(96-24)102-51-38(79)30(76)23-95-59(51)106-63(92)69-14-12-64(2,3)16-26(69)25-8-9-34-65(4)17-27(73)54(68(7,62(90)91)35(65)10-11-67(34,6)66(25,5)13-15-69)105-61-53(44(85)41(82)33(20-72)99-61)104-60-52(43(84)40(81)32(19-71)98-60)103-57-47(88)42(83)39(80)31(18-70)97-57/h8,24,26-61,70-74,76-89H,9-23H2,1-7H3,(H,90,91)/q-1/p-1/t24-,26-,27-,28+,29-,30-,31+,32+,33+,34?,35?,36-,37-,38-,39+,40+,41+,42-,43-,44-,45+,46+,47+,48+,49-,50-,51+,52+,53+,54-,55-,56-,57-,58?,59-,60-,61-,65+,66+,67+,68-,69-/m0/s1" "computed SMILES=O=C([O-])C1(C)C(OC2OC(CO)C(O)C(O)C2OC3OC(CO)C(O)C(O)C3OC4OC(CO)C(O)C(O)C4O)C(O)CC5(C)C1CCC6(C)C5CC=C7C8CC(C)(C)CCC8(C(=O)OC9OCC(O)C(O)C9OC%10OC(C)C(OC%11OCC(O)C(O)C%11O)C(OC%12OCC([O-])C(O)C%12O)C%10O)CCC76C" "computed InChI=InChI=1S/C69H109O37/c1-24-49(100-55-45(86)36(77)28(74)21-93-55)50(101-56-46(87)37(78)29(75)22-94-56)48(89)58(96-24)102-51-38(79)30(76)23-95-59(51)106-63(92)69-14-12-64(2,3)16-26(69)25-8-9-34-65(4)17-27(73)54(68(7,62(90)91)35(65)10-11-67(34,6)66(25,5)13-15-69)105-61-53(44(85)41(82)33(20-72)99-61)104-60-52(43(84)40(81)32(19-71)98-60)103-57-47(88)42(83)39(80)31(18-70)97-57/h8,24,26-61,70-74,76-89H,9-23H2,1-7H3,(H,90,91)/q-1/p-1/t24-,26-,27-,28+,29-,30-,31+,32+,33+,34?,35?,36-,37-,38-,39+,40+,41+,42-,43-,44-,45+,46+,47+,48+,49-,50-,51+,52+,53+,54-,55-,56-,57-,58-,59-,60-,61-,65+,66+,67+,68-,69-/m0/s1" "synonym=3-Glc(1-2)Glc(1-2)Glc-28-Xyl(1-4)[Ara(1-3)]Rha(1-2)Ara Medicagenic acid (NMR)" "synonym=3-(Glc(1-2)Glc(1-2)Glc)-28-(Xyl(1-4)[Ara(1-3)]Rha(1-2)Ara Medicagenic acid (NMR)" "license=License CC-BY-NC-SA 4.0 International" "author=Plant Biology, The Noble Foundation, Ardmore, OK, US/Dennis Fine, Daniel Wherritt, and Lloyd Sumner" "ionization=ESI" "isolation width=15" "collision energy 2=125" "peak width=0.021" "date=2014-11-20 08:02:12+01:00" "column=Waters Acquity BEH C18 1.7um x 2.1 x 150 mm" "retention time=761.4" "raw data file=C:\Data\2014Nov12_A-17 aerial root MS MSMS\A-17 aeial better  MSMS_1-A,2_01_1297.d" "SPLASH=splash10-003r-0112890000-cb05c56a3a77acb4fcec" "submitter=Aiko Barsch (Bruker)" "MoNA Rating=3.125"
Num Peaks: 89
99.0009 3.003003
101.0171 3.403403
113.0271 7.807808
119.0343 4.804805
131.0342 4.304304
149.0394 2.202202
161.0373 9.109109
179.0533 4.204204
221.0594 42.242242
263.0711 7.807808
337.1163 6.206206
355.5921 2.302302
383.1243 42.442442
384.1317 7.307307
418.1847 2.002002
420.7868 2.302302
422.4572 2.402402
422.9387 2.202202
423.3590 2.102102
423.5483 2.702703
423.7329 2.402402
423.9649 2.202202
424.4552 2.002002
424.6919 2.302302
425.8752 2.502503
426.3631 2.302302
426.6684 3.503504
426.8783 2.102102
427.0318 2.102102
427.1910 3.103103
427.2440 2.802803
427.2945 3.003003
427.3496 2.002002
427.9565 3.203203
428.0179 2.202202
428.4064 2.002002
428.4539 3.203203
428.5001 3.603604
428.5784 2.402402
428.9841 2.102102
429.3567 2.402402
429.5445 2.302302
429.6086 2.902903
429.7484 3.003003
430.2293 2.202202
430.2558 2.602603
430.4520 2.502503
430.8246 3.803804
432.7626 2.402402
432.9011 2.902903
433.0309 2.002002
433.4225 2.002002
434.0323 2.402402
434.7307 2.702703
435.0119 2.002002
435.1938 2.102102
435.9703 2.402402
437.0907 2.402402
437.1631 2.802803
437.4832 2.502503
437.7044 2.502503
438.6866 2.602603
439.0200 2.202202
439.3252 49.149149
439.4160 2.702703
439.6016 2.602603
439.6848 2.002002
440.3287 13.713714
441.3332 5.605606
441.3871 2.202202
444.1364 2.302302
445.6151 2.302302
446.7408 2.602603
447.0826 2.702703
448.1784 2.202202
450.2566 2.302302
450.8257 3.103103
452.4608 2.602603
455.4772 2.402402
469.1617 3.203203
1529.6545 100.000000
1529.8591 4.504505
1530.6560 82.182182
1530.8505 3.003003
1531.6436 32.332332
1532.6617 9.209209
1533.6140 2.002002
1641.2397 2.002002
1794.0555 1.901902


Name: 3-(Glc(1-2)Glc(1-2)Glc)-28-(Xyl(1-4)[Ara(1-3)]Rha(1-2)Ara Medicagenic acid
Synon: $:00in-source
DB#: MetaboBASE1214
InChIKey: JCNQPOPIDLZOHH-OFMSYKCLSA-M
Spectrum_type: MS2
PrecursorMZ: 1529.659
Instrument_type: LC-ESI-TOF
Instrument: impact HD
Ion_mode: N
Collision_energy: 100.989
Formula: [C69H108O37]2-
MW: 1528
ExactMass: 1528.6580415558185
Comments: "SMILES=[C@H]1([C@@H]([C@@](C2[C@](C1)(C1[C@@](CC2)([C@]2(C(=CC1)[C@H]1[C@@](CC2)(CCC(C1)(C)C)C(=O)O[C@H]1[C@@H]([C@H]([C@H](CO1)O)O)OC1[C@@H]([C@@H]([C@H]([C@@H](O1)C)O[C@H]1[C@@H]([C@H]([C@@H](CO1)O)O)O)O[C@@H]1OC[C@@H]([C@@H]([C@H]1O)O)[O-])O)C)C)C)(C)C(=O)[O-])O[C@@H]1O[C@@H]([C@H]([C@@H]([C@H]1O[C@@H]1O[C@@H]([C@H]([C@@H]([C@H]1O[C@@H]1O[C@@H]([C@H]([C@@H]([C@H]1O)O)O)CO)O)O)CO)O)O)CO)O" "InChI=InChI=1S/C69H109O37/c1-24-49(100-55-45(86)36(77)28(74)21-93-55)50(101-56-46(87)37(78)29(75)22-94-56)48(89)58(96-24)102-51-38(79)30(76)23-95-59(51)106-63(92)69-14-12-64(2,3)16-26(69)25-8-9-34-65(4)17-27(73)54(68(7,62(90)91)35(65)10-11-67(34,6)66(25,5)13-15-69)105-61-53(44(85)41(82)33(20-72)99-61)104-60-52(43(84)40(81)32(19-71)98-60)103-57-47(88)42(83)39(80)31(18-70)97-57/h8,24,26-61,70-74,76-89H,9-23H2,1-7H3,(H,90,91)/q-1/p-1/t24-,26-,27-,28+,29-,30-,31+,32+,33+,34?,35?,36-,37-,38-,39+,40+,41+,42-,43-,44-,45+,46+,47+,48+,49-,50-,51+,52+,53+,54-,55-,56-,57-,58?,59-,60-,61-,65+,66+,67+,68-,69-/m0/s1" "computed SMILES=O=C([O-])C1(C)C(OC2OC(CO)C(O)C(O)C2OC3OC(CO)C(O)C(O)C3OC4OC(CO)C(O)C(O)C4O)C(O)CC5(C)C1CCC6(C)C5CC=C7C8CC(C)(C)CCC8(C(=O)OC9OCC(O)C(O)C9OC%10OC(C)C(OC%11OCC(O)C(O)C%11O)C(OC%12OCC([O-])C(O)C%12O)C%10O)CCC76C" "computed InChI=InChI=1S/C69H109O37/c1-24-49(100-55-45(86)36(77)28(74)21-93-55)50(101-56-46(87)37(78)29(75)22-94-56)48(89)58(96-24)102-51-38(79)30(76)23-95-59(51)106-63(92)69-14-12-64(2,3)16-26(69)25-8-9-34-65(4)17-27(73)54(68(7,62(90)91)35(65)10-11-67(34,6)66(25,5)13-15-69)105-61-53(44(85)41(82)33(20-72)99-61)104-60-52(43(84)40(81)32(19-71)98-60)103-57-47(88)42(83)39(80)31(18-70)97-57/h8,24,26-61,70-74,76-89H,9-23H2,1-7H3,(H,90,91)/q-1/p-1/t24-,26-,27-,28+,29-,30-,31+,32+,33+,34?,35?,36-,37-,38-,39+,40+,41+,42-,43-,44-,45+,46+,47+,48+,49-,50-,51+,52+,53+,54-,55-,56-,57-,58-,59-,60-,61-,65+,66+,67+,68-,69-/m0/s1" "synonym=3-Glc(1-2)Glc(1-2)Glc-28-Xyl(1-4)[Ara(1-3)]Rha(1-2)Ara Medicagenic acid (NMR)" "synonym=3-(Glc(1-2)Glc(1-2)Glc)-28-(Xyl(1-4)[Ara(1-3)]Rha(1-2)Ara Medicagenic acid (NMR)" "license=License CC-BY-NC-SA 4.0 International" "author=Plant Biology, The Noble Foundation, Ardmore, OK, US/Dennis Fine, Daniel Wherritt, and Lloyd Sumner" "ionization=ESI" "isolation width=15.1979" "peak width=0.02" "date=2015-01-15 20:34:31+01:00" "column=Waters Acquity BEH C18 1.7um x 2.1 x 150 mm" "retention time=760.8" "raw data file=C:\Data\Noble-Bruker MS libr eval complex mix\2015Jan15 A-17 aerial MSMS_1-F,4_01_1569.d" "SPLASH=splash10-001i-0149250000-67773213bfff0ee75edc" "submitter=Aiko Barsch (Bruker)" "MoNA Rating=3.125"
Num Peaks: 21
101.0237 3.703704
113.0219 2.202202
131.0351 1.601602
161.0448 4.904905
179.0563 10.410410
221.0644 25.525526
222.0707 3.903904
263.0763 29.029029
337.1132 6.206206
341.1037 2.602603
383.1190 100.000000
384.1199 16.716717
385.1324 3.103103
409.1307 2.402402
439.3184 23.823824
440.3240 6.006006
469.1563 7.407407
1529.6591 35.935936
1530.6581 22.522523
1531.6608 10.810811
1532.6422 4.504505


Name: 3-(Glc(1-2)Glc(1-2)Glc)-28-(Xyl(1-4)[Ara(1-3)]Rha(1-2)Ara Medicagenic acid
Synon: $:00in-source
DB#: MetaboBASE1215
InChIKey: JCNQPOPIDLZOHH-OFMSYKCLSA-M
Instrument_type: LC-ESI-TOF
Instrument: impact HD
Ion_mode: N
Formula: [C69H108O37]2-
MW: 1528
ExactMass: 1528.6580415558185
Comments: "SMILES=[C@H]1([C@@H]([C@@](C2[C@](C1)(C1[C@@](CC2)([C@]2(C(=CC1)[C@H]1[C@@](CC2)(CCC(C1)(C)C)C(=O)O[C@H]1[C@@H]([C@H]([C@H](CO1)O)O)OC1[C@@H]([C@@H]([C@H]([C@@H](O1)C)O[C@H]1[C@@H]([C@H]([C@@H](CO1)O)O)O)O[C@@H]1OC[C@@H]([C@@H]([C@H]1O)O)[O-])O)C)C)C)(C)C(=O)[O-])O[C@@H]1O[C@@H]([C@H]([C@@H]([C@H]1O[C@@H]1O[C@@H]([C@H]([C@@H]([C@H]1O[C@@H]1O[C@@H]([C@H]([C@@H]([C@H]1O)O)O)CO)O)O)CO)O)O)CO)O" "InChI=InChI=1S/C69H109O37/c1-24-49(100-55-45(86)36(77)28(74)21-93-55)50(101-56-46(87)37(78)29(75)22-94-56)48(89)58(96-24)102-51-38(79)30(76)23-95-59(51)106-63(92)69-14-12-64(2,3)16-26(69)25-8-9-34-65(4)17-27(73)54(68(7,62(90)91)35(65)10-11-67(34,6)66(25,5)13-15-69)105-61-53(44(85)41(82)33(20-72)99-61)104-60-52(43(84)40(81)32(19-71)98-60)103-57-47(88)42(83)39(80)31(18-70)97-57/h8,24,26-61,70-74,76-89H,9-23H2,1-7H3,(H,90,91)/q-1/p-1/t24-,26-,27-,28+,29-,30-,31+,32+,33+,34?,35?,36-,37-,38-,39+,40+,41+,42-,43-,44-,45+,46+,47+,48+,49-,50-,51+,52+,53+,54-,55-,56-,57-,58?,59-,60-,61-,65+,66+,67+,68-,69-/m0/s1" "computed SMILES=O=C([O-])C1(C)C(OC2OC(CO)C(O)C(O)C2OC3OC(CO)C(O)C(O)C3OC4OC(CO)C(O)C(O)C4O)C(O)CC5(C)C1CCC6(C)C5CC=C7C8CC(C)(C)CCC8(C(=O)OC9OCC(O)C(O)C9OC%10OC(C)C(OC%11OCC(O)C(O)C%11O)C(OC%12OCC([O-])C(O)C%12O)C%10O)CCC76C" "computed InChI=InChI=1S/C69H109O37/c1-24-49(100-55-45(86)36(77)28(74)21-93-55)50(101-56-46(87)37(78)29(75)22-94-56)48(89)58(96-24)102-51-38(79)30(76)23-95-59(51)106-63(92)69-14-12-64(2,3)16-26(69)25-8-9-34-65(4)17-27(73)54(68(7,62(90)91)35(65)10-11-67(34,6)66(25,5)13-15-69)105-61-53(44(85)41(82)33(20-72)99-61)104-60-52(43(84)40(81)32(19-71)98-60)103-57-47(88)42(83)39(80)31(18-70)97-57/h8,24,26-61,70-74,76-89H,9-23H2,1-7H3,(H,90,91)/q-1/p-1/t24-,26-,27-,28+,29-,30-,31+,32+,33+,34?,35?,36-,37-,38-,39+,40+,41+,42-,43-,44-,45+,46+,47+,48+,49-,50-,51+,52+,53+,54-,55-,56-,57-,58-,59-,60-,61-,65+,66+,67+,68-,69-/m0/s1" "synonym=3-Glc(1-2)Glc(1-2)Glc-28-Xyl(1-4)[Ara(1-3)]Rha(1-2)Ara Medicagenic acid (NMR)" "synonym=3-(Glc(1-2)Glc(1-2)Glc)-28-(Xyl(1-4)[Ara(1-3)]Rha(1-2)Ara Medicagenic acid (NMR)" "license=License CC-BY-NC-SA 4.0 International" "author=Plant Biology, The Noble Foundation, Ardmore, OK, US/Dennis Fine, Daniel Wherritt, and Lloyd Sumner" "ionization=ESI" "peak width=0.019" "date=2015-01-15 20:34:31+01:00" "column=Waters Acquity BEH C18 1.7um x 2.1 x 150 mm" "retention time=760.8" "raw data file=C:\Data\Noble-Bruker MS libr eval complex mix\2015Jan15 A-17 aerial MSMS_1-F,4_01_1569.d" "SPLASH=splash10-003r-0000090000-fef8ae2a60941c6cb136" "submitter=Aiko Barsch (Bruker)" "MoNA Rating=3.888888888888889"
Num Peaks: 60
100.9329 1.101101
112.9849 1.401401
174.9565 0.800801
213.1490 3.203203
243.8790 1.501502
304.9139 1.901902
305.0912 0.200200
557.0053 0.700701
564.2495 6.106106
564.7475 3.603604
565.2564 2.802803
565.7565 1.201201
644.2764 0.700701
644.3026 1.701702
646.2872 2.702703
646.7927 1.401401
787.3366 2.502503
787.8352 1.201201
788.3466 0.100100
825.4183 6.206206
826.4233 0.800801
971.4840 1.501502
974.2299 0.800801
1087.4916 2.902903
1088.4954 1.101101
1177.5454 1.701702
1178.0306 1.801802
1236.5582 1.201201
1291.5543 1.901902
1529.4835 1.201201
1529.6616 100.000000
1529.8800 0.200200
1530.1505 2.902903
1530.6653 76.576577
1531.1531 0.800801
1531.6718 37.137137
1532.5863 1.301301
1532.6671 12.812813
1533.6636 4.904905
1534.6593 0.900901
1566.6284 1.001001
1567.6367 1.001001
1582.5703 1.501502
1583.5793 2.302302
1597.6423 9.109109
1598.6587 7.607608
1599.6548 4.404404
1600.6217 0.200200
1629.5807 4.704705
1629.6831 0.800801
1630.5459 1.701702
1630.5970 5.105105
1631.5829 3.003003
1632.5758 1.201201
1659.6027 0.800801
1661.7041 1.001001
1662.7101 0.200200
1665.6271 1.601602
1666.5804 0.800801
1666.6300 3.003003


Name: 3-(Glc(1-2)Glc(1-2)Glc)-28-(Xyl(1-4)[Ara(1-3)]Rha(1-2)Ara Medicagenic acid
Synon: $:00in-source
DB#: MetaboBASE1216
InChIKey: JCNQPOPIDLZOHH-OFMSYKCLSA-M
Instrument_type: LC-ESI-TOF
Instrument: impact HD
Ion_mode: N
Collision_energy: 10
Formula: [C69H108O37]2-
MW: 1528
ExactMass: 1528.6580415558185
Comments: "SMILES=[C@H]1([C@@H]([C@@](C2[C@](C1)(C1[C@@](CC2)([C@]2(C(=CC1)[C@H]1[C@@](CC2)(CCC(C1)(C)C)C(=O)O[C@H]1[C@@H]([C@H]([C@H](CO1)O)O)OC1[C@@H]([C@@H]([C@H]([C@@H](O1)C)O[C@H]1[C@@H]([C@H]([C@@H](CO1)O)O)O)O[C@@H]1OC[C@@H]([C@@H]([C@H]1O)O)[O-])O)C)C)C)(C)C(=O)[O-])O[C@@H]1O[C@@H]([C@H]([C@@H]([C@H]1O[C@@H]1O[C@@H]([C@H]([C@@H]([C@H]1O[C@@H]1O[C@@H]([C@H]([C@@H]([C@H]1O)O)O)CO)O)O)CO)O)O)CO)O" "InChI=InChI=1S/C69H109O37/c1-24-49(100-55-45(86)36(77)28(74)21-93-55)50(101-56-46(87)37(78)29(75)22-94-56)48(89)58(96-24)102-51-38(79)30(76)23-95-59(51)106-63(92)69-14-12-64(2,3)16-26(69)25-8-9-34-65(4)17-27(73)54(68(7,62(90)91)35(65)10-11-67(34,6)66(25,5)13-15-69)105-61-53(44(85)41(82)33(20-72)99-61)104-60-52(43(84)40(81)32(19-71)98-60)103-57-47(88)42(83)39(80)31(18-70)97-57/h8,24,26-61,70-74,76-89H,9-23H2,1-7H3,(H,90,91)/q-1/p-1/t24-,26-,27-,28+,29-,30-,31+,32+,33+,34?,35?,36-,37-,38-,39+,40+,41+,42-,43-,44-,45+,46+,47+,48+,49-,50-,51+,52+,53+,54-,55-,56-,57-,58?,59-,60-,61-,65+,66+,67+,68-,69-/m0/s1" "computed SMILES=O=C([O-])C1(C)C(OC2OC(CO)C(O)C(O)C2OC3OC(CO)C(O)C(O)C3OC4OC(CO)C(O)C(O)C4O)C(O)CC5(C)C1CCC6(C)C5CC=C7C8CC(C)(C)CCC8(C(=O)OC9OCC(O)C(O)C9OC%10OC(C)C(OC%11OCC(O)C(O)C%11O)C(OC%12OCC([O-])C(O)C%12O)C%10O)CCC76C" "computed InChI=InChI=1S/C69H109O37/c1-24-49(100-55-45(86)36(77)28(74)21-93-55)50(101-56-46(87)37(78)29(75)22-94-56)48(89)58(96-24)102-51-38(79)30(76)23-95-59(51)106-63(92)69-14-12-64(2,3)16-26(69)25-8-9-34-65(4)17-27(73)54(68(7,62(90)91)35(65)10-11-67(34,6)66(25,5)13-15-69)105-61-53(44(85)41(82)33(20-72)99-61)104-60-52(43(84)40(81)32(19-71)98-60)103-57-47(88)42(83)39(80)31(18-70)97-57/h8,24,26-61,70-74,76-89H,9-23H2,1-7H3,(H,90,91)/q-1/p-1/t24-,26-,27-,28+,29-,30-,31+,32+,33+,34?,35?,36-,37-,38-,39+,40+,41+,42-,43-,44-,45+,46+,47+,48+,49-,50-,51+,52+,53+,54-,55-,56-,57-,58-,59-,60-,61-,65+,66+,67+,68-,69-/m0/s1" "synonym=3-Glc(1-2)Glc(1-2)Glc-28-Xyl(1-4)[Ara(1-3)]Rha(1-2)Ara Medicagenic acid (NMR)" "synonym=3-(Glc(1-2)Glc(1-2)Glc)-28-(Xyl(1-4)[Ara(1-3)]Rha(1-2)Ara Medicagenic acid (NMR)" "license=License CC-BY-NC-SA 4.0 International" "author=Plant Biology, The Noble Foundation, Ardmore, OK, US/Dennis Fine, Daniel Wherritt, and Lloyd Sumner" "ionization=ESI" "peak width=0.022" "date=2015-02-04 01:41:50+01:00" "column=Waters Acquity BEH C18 1.7um x 2.1 x 150 mm" "retention time=760.8" "raw data file=G:\Sumner Lab Data Management Workspace Jun2013\Projects\NSF-JST Metabolomics Nov2011-Sep2014\UPLC-MS-MSMS\2015Mar17 R108 A17 root aerial for poster\A17 aerial" "SPLASH=splash10-0059-0000090000-dc2d1000af091952f91c" "submitter=Aiko Barsch (Bruker)" "MoNA Rating=4.444444444444445"
Num Peaks: 16
213.1492 3.803804
557.0052 4.104104
564.2504 7.707708
564.7513 3.503504
666.0189 1.101101
825.4256 4.104104
826.4276 1.901902
971.4830 8.108108
972.4848 3.103103
1529.6613 100.000000
1530.1577 2.202202
1530.6628 16.516517
1531.6639 37.137137
1532.6658 13.013013
1597.6449 11.011011
1598.6516 8.308308


Name: 3-(Glc(1-2)Glc(1-2)Glc)-28-(Xyl(1-4)Rha(1-2)Ara Medicagenic acid
Synon: $:00in-source
DB#: MetaboBASE1217
InChIKey: BAMZIPMKRIZGEQ-QLAQRCBASA-M
Precursor_type: [M]-
Spectrum_type: MS2
PrecursorMZ: 1397.588
Instrument_type: LC-ESI-TOF
Instrument: impact HD
Ion_mode: N
Collision_energy: 71.1607
Formula: [C64H101O33]-
MW: 1397
ExactMass: 1397.6230592719094
Comments: "SMILES=[C@H]1([C@@H]([C@@](C2[C@](C1)(C1[C@@](CC2)([C@]2(C(=CC1)[C@H]1[C@@](CC2)(CCC(C1)(C)C)C(=O)O[C@H]1[C@@H]([C@H]([C@H](CO1)O)O)OC1[C@@H]([C@@H]([C@H]([C@@H](O1)C)O[C@H]1[C@@H]([C@H]([C@@H](CO1)O)O)O)O)O)C)C)C)(C)C(=O)[O-])O[C@@H]1O[C@@H]([C@H]([C@@H]([C@H]1O[C@@H]1O[C@@H]([C@H]([C@@H]([C@H]1O[C@@H]1O[C@@H]([C@H]([C@@H]([C@H]1O)O)O)CO)O)O)CO)O)O)CO)O" "InChI=InChI=1S/C64H102O33/c1-23-46(92-51-43(80)34(71)27(69)21-86-51)42(79)45(82)52(88-23)93-47-35(72)28(70)22-87-54(47)97-58(85)64-14-12-59(2,3)16-25(64)24-8-9-32-60(4)17-26(68)50(63(7,57(83)84)33(60)10-11-62(32,6)61(24,5)13-15-64)96-56-49(41(78)38(75)31(20-67)91-56)95-55-48(40(77)37(74)30(19-66)90-55)94-53-44(81)39(76)36(73)29(18-65)89-53/h8,23,25-56,65-82H,9-22H2,1-7H3,(H,83,84)/p-1/t23-,25-,26-,27+,28-,29+,30+,31+,32?,33?,34-,35-,36+,37+,38+,39-,40-,41-,42-,43+,44+,45+,46-,47+,48+,49+,50-,51-,52?,53-,54-,55-,56-,60+,61+,62+,63-,64-/m0/s1" "computed SMILES=O=C([O-])C1(C)C(OC2OC(CO)C(O)C(O)C2OC3OC(CO)C(O)C(O)C3OC4OC(CO)C(O)C(O)C4O)C(O)CC5(C)C1CCC6(C)C5CC=C7C8CC(C)(C)CCC8(C(=O)OC9OCC(O)C(O)C9OC%10OC(C)C(OC%11OCC(O)C(O)C%11O)C(O)C%10O)CCC76C" "computed InChI=InChI=1S/C64H102O33/c1-23-46(92-51-43(80)34(71)27(69)21-86-51)42(79)45(82)52(88-23)93-47-35(72)28(70)22-87-54(47)97-58(85)64-14-12-59(2,3)16-25(64)24-8-9-32-60(4)17-26(68)50(63(7,57(83)84)33(60)10-11-62(32,6)61(24,5)13-15-64)96-56-49(41(78)38(75)31(20-67)91-56)95-55-48(40(77)37(74)30(19-66)90-55)94-53-44(81)39(76)36(73)29(18-65)89-53/h8,23,25-56,65-82H,9-22H2,1-7H3,(H,83,84)/p-1/t23-,25-,26-,27+,28-,29+,30+,31+,32?,33?,34-,35-,36+,37+,38+,39-,40-,41-,42-,43+,44+,45+,46-,47+,48+,49+,50-,51-,52-,53-,54-,55-,56-,60+,61+,62+,63-,64-/m0/s1" "license=License CC-BY-NC-SA 4.0 International" "author=Plant Biology, The Noble Foundation, Ardmore, OK, US/Dennis Fine, Daniel Wherritt, and Lloyd Sumner" "ionization=ESI" "isolation width=13.9762" "collision energy 2=118.601" "peak width=0.024" "date=2014-11-20 08:02:12+01:00" "column=Waters Acquity BEH C18 1.7um x 2.1 x 150 mm" "retention time=768.6" "raw data file=C:\Data\2014Nov12_A-17 aerial root MS MSMS\A-17 aeial better  MSMS_1-A,2_01_1297.d" "computed mass accuracy=24.6930368605859" "computed mass error=-0.034510691999912524" "SPLASH=splash10-0002-0109100000-00d9315dc0ed2ef69794" "submitter=Aiko Barsch (Bruker)" "MoNA Rating=4.545454545454546"
Num Peaks: 81
101.018 6.406406
113.028 8.908909
119.037 3.203203
131.034 7.907908
143.027 1.601602
161.040 11.511512
175.017 2.202202
179.047 4.304304
221.059 29.229229
263.073 6.106106
341.106 1.801802
383.121 47.847848
384.120 7.507508
388.252 1.501502
388.453 1.701702
388.695 1.701702
389.639 2.002002
390.137 2.002002
390.658 1.501502
390.760 1.701702
390.907 1.901902
391.048 1.901902
391.386 1.701702
391.556 1.601602
392.138 1.801802
392.195 1.601602
392.267 1.801802
392.373 2.802803
392.506 2.102102
392.790 1.501502
393.304 1.601602
393.486 1.501502
393.505 1.801802
393.579 1.501502
393.712 1.901902
393.980 1.701702
394.006 1.701702
394.346 3.003003
394.422 2.802803
394.902 1.801802
394.926 2.302302
395.111 2.002002
395.217 2.402402
395.302 2.002002
395.426 1.901902
395.503 1.501502
395.834 1.701702
395.898 1.801802
396.243 1.501502
396.357 1.701702
396.392 1.601602
396.785 1.801802
396.841 1.601602
396.962 2.002002
397.020 1.501502
397.466 2.402402
397.724 1.701702
398.479 1.701702
398.553 1.501502
398.803 1.701702
399.336 2.002002
400.087 1.801802
400.852 1.501502
401.014 1.801802
401.248 1.601602
401.929 1.901902
402.060 1.501502
405.202 2.002002
407.229 1.801802
413.052 1.501502
439.326 25.625626
440.331 5.105105
441.331 1.801802
1381.536 3.903904
1382.542 3.703704
1397.588 100.000000
1398.590 69.769770
1399.600 27.727728
1400.606 7.507508
1401.558 1.501502
1403.564 1.501502


Name: 3-(Glc(1-2)Glc(1-2)Glc)-28-(Xyl(1-4)Rha(1-2)Ara Medicagenic acid
Synon: $:00in-source
DB#: MetaboBASE1218
InChIKey: BAMZIPMKRIZGEQ-QLAQRCBASA-M
Instrument_type: LC-ESI-TOF
Instrument: impact HD
Ion_mode: N
Collision_energy: 10
Formula: [C64H101O33]-
MW: 1397
ExactMass: 1397.6230592719094
Comments: "SMILES=[C@H]1([C@@H]([C@@](C2[C@](C1)(C1[C@@](CC2)([C@]2(C(=CC1)[C@H]1[C@@](CC2)(CCC(C1)(C)C)C(=O)O[C@H]1[C@@H]([C@H]([C@H](CO1)O)O)OC1[C@@H]([C@@H]([C@H]([C@@H](O1)C)O[C@H]1[C@@H]([C@H]([C@@H](CO1)O)O)O)O)O)C)C)C)(C)C(=O)[O-])O[C@@H]1O[C@@H]([C@H]([C@@H]([C@H]1O[C@@H]1O[C@@H]([C@H]([C@@H]([C@H]1O[C@@H]1O[C@@H]([C@H]([C@@H]([C@H]1O)O)O)CO)O)O)CO)O)O)CO)O" "InChI=InChI=1S/C64H102O33/c1-23-46(92-51-43(80)34(71)27(69)21-86-51)42(79)45(82)52(88-23)93-47-35(72)28(70)22-87-54(47)97-58(85)64-14-12-59(2,3)16-25(64)24-8-9-32-60(4)17-26(68)50(63(7,57(83)84)33(60)10-11-62(32,6)61(24,5)13-15-64)96-56-49(41(78)38(75)31(20-67)91-56)95-55-48(40(77)37(74)30(19-66)90-55)94-53-44(81)39(76)36(73)29(18-65)89-53/h8,23,25-56,65-82H,9-22H2,1-7H3,(H,83,84)/p-1/t23-,25-,26-,27+,28-,29+,30+,31+,32?,33?,34-,35-,36+,37+,38+,39-,40-,41-,42-,43+,44+,45+,46-,47+,48+,49+,50-,51-,52?,53-,54-,55-,56-,60+,61+,62+,63-,64-/m0/s1" "computed SMILES=O=C([O-])C1(C)C(OC2OC(CO)C(O)C(O)C2OC3OC(CO)C(O)C(O)C3OC4OC(CO)C(O)C(O)C4O)C(O)CC5(C)C1CCC6(C)C5CC=C7C8CC(C)(C)CCC8(C(=O)OC9OCC(O)C(O)C9OC%10OC(C)C(OC%11OCC(O)C(O)C%11O)C(O)C%10O)CCC76C" "computed InChI=InChI=1S/C64H102O33/c1-23-46(92-51-43(80)34(71)27(69)21-86-51)42(79)45(82)52(88-23)93-47-35(72)28(70)22-87-54(47)97-58(85)64-14-12-59(2,3)16-25(64)24-8-9-32-60(4)17-26(68)50(63(7,57(83)84)33(60)10-11-62(32,6)61(24,5)13-15-64)96-56-49(41(78)38(75)31(20-67)91-56)95-55-48(40(77)37(74)30(19-66)90-55)94-53-44(81)39(76)36(73)29(18-65)89-53/h8,23,25-56,65-82H,9-22H2,1-7H3,(H,83,84)/p-1/t23-,25-,26-,27+,28-,29+,30+,31+,32?,33?,34-,35-,36+,37+,38+,39-,40-,41-,42-,43+,44+,45+,46-,47+,48+,49+,50-,51-,52-,53-,54-,55-,56-,60+,61+,62+,63-,64-/m0/s1" "license=License CC-BY-NC-SA 4.0 International" "author=Plant Biology, The Noble Foundation, Ardmore, OK, US/Dennis Fine, Daniel Wherritt, and Lloyd Sumner" "ionization=ESI" "peak width=0.021" "date=2015-02-04 01:41:50+01:00" "column=Waters Acquity BEH C18 1.7um x 2.1 x 150 mm" "retention time=768.6" "raw data file=C:\Data\2015Mar17 R108 A17 root aerial for poster\A17 aerial" "SPLASH=splash10-0002-0009100000-c127a25151215dd94216" "submitter=Aiko Barsch (Bruker)" "MoNA Rating=4.444444444444445"
Num Peaks: 22
112.9853 1.301301
327.2183 1.001001
390.8281 1.201201
397.0517 1.101101
564.2499 1.001001
666.0210 2.102102
683.0051 1.001001
690.2924 1.001001
1219.5358 6.606607
1220.5409 4.404404
1381.5780 1.001001
1397.6212 100.000000
1398.1250 4.104104
1398.6243 72.372372
1399.6257 32.432432
1400.6309 11.111111
1401.6272 3.303303
1465.6107 10.410410
1466.6099 7.407407
1467.6072 3.703704
1533.5927 2.202202
1534.5948 1.801802


Name: 3-GlcA-28-Glc-4-Epi Hederagenin
Synon: $:00in-source
DB#: MetaboBASE1219
InChIKey: RZQHWSDMLZHIRN-FDKLSIBUSA-N
Instrument_type: LC-ESI-TOF
Instrument: impact HD
Ion_mode: N
Collision_energy: 10
Formula: C42H66O15
MW: 810
ExactMass: 810.4401714119999
Comments: "SMILES=C1[C@@H]([C@@](C2[C@](C1)(C1[C@@](CC2)([C@]2(C(=CC1)[C@H]1[C@@](CC2)(CCC(C1)(C)C)C(=O)O[C@H]1[C@@H]([C@H]([C@@H]([C@H](O1)CO)O)O)O)C)C)C)(CO)C)O[C@@H]1O[C@@H]([C@H]([C@@H]([C@H]1O)O)O)C(=O)O" "InChI=InChI=1S/C42H66O15/c1-37(2)13-15-42(36(53)57-34-30(49)27(46)26(45)22(18-43)54-34)16-14-40(5)20(21(42)17-37)7-8-24-38(3)11-10-25(39(4,19-44)23(38)9-12-41(24,40)6)55-35-31(50)28(47)29(48)32(56-35)33(51)52/h7,21-32,34-35,43-50H,8-19H2,1-6H3,(H,51,52)/t21-,22+,23?,24?,25-,26+,27-,28-,29-,30+,31+,32-,34-,35+,38-,39+,40+,41+,42-/m0/s1" "computed SMILES=O=C(O)C1OC(OC2CCC3(C)C4CC=C5C6CC(C)(C)CCC6(C(=O)OC7OC(CO)C(O)C(O)C7O)CCC5(C)C4(C)CCC3C2(C)CO)C(O)C(O)C1O" "license=License CC-BY-NC-SA 4.0 International" "author=Plant Biology, The Noble Foundation, Ardmore, OK, US/Dennis Fine, Daniel Wherritt, and Lloyd Sumner" "ionization=ESI" "peak width=0.018" "date=2015-02-24 18:25:35+01:00" "column=Waters Acquity BEH C18 1.7um x 2.1 x 150 mm" "retention time=890.4" "raw data file=C:\Data\2015Feb17_UGT1_Tnt_mutant_2-A,1_01_1807.d" "SPLASH=splash10-0a4i-0010000090-448bb94be6917a00aeac" "submitter=Aiko Barsch (Bruker)" "MoNA Rating=4.444444444444445"
Num Peaks: 34
728.4085 1.501502
728.9111 1.401401
809.4359 100.000000
809.9384 28.228228
810.4385 49.749750
810.9404 5.905906
811.4404 12.512513
812.4426 2.402402
843.4296 2.302302
843.9310 2.302302
859.3981 1.701702
859.8997 1.801802
860.3997 1.301301
877.4202 5.305305
878.4236 2.602603
879.4192 1.101101
909.3575 4.404404
910.3606 2.702703
911.3648 1.301301
927.3691 1.501502
945.4068 1.101101
1214.6560 6.306306
1215.1560 8.908909
1215.6581 6.606607
1216.1604 3.803804
1216.6626 1.601602
1225.6427 1.101101
1226.1488 1.601602
1226.6490 1.201201
1619.8761 1.801802
1620.3740 1.601602
1620.8782 2.402402
1621.3756 1.101101
1621.8799 1.001001


Name: 3-GlcA-28-Glc oleanolic acid
Synon: $:00in-source
DB#: MetaboBASE1220
InChIKey: YOSRLTNUOCHBEA-XFBOPQPKSA-N
Instrument_type: LC-ESI-TOF
Instrument: impact HD
Ion_mode: N
Collision_energy: 10
Formula: C42H66O14
MW: 794
ExactMass: 794.445256792
Comments: "SMILES=C1[C@@H](C(C2[C@](C1)(C1[C@@](CC2)([C@]2(C(=CC1)[C@H]1[C@@](CC2)(CCC(C1)(C)C)C(=O)O[C@H]1[C@@H]([C@H]([C@@H]([C@H](O1)CO)O)O)O)C)C)C)(C)C)O[C@@H]1O[C@@H]([C@H]([C@@H]([C@H]1O)O)O)C(=O)O" "InChI=InChI=1S/C42H66O14/c1-37(2)14-16-42(36(52)56-34-30(48)27(45)26(44)22(19-43)53-34)17-15-40(6)20(21(42)18-37)8-9-24-39(5)12-11-25(38(3,4)23(39)10-13-41(24,40)7)54-35-31(49)28(46)29(47)32(55-35)33(50)51/h8,21-32,34-35,43-49H,9-19H2,1-7H3,(H,50,51)/t21-,22+,23?,24?,25-,26+,27-,28-,29-,30+,31+,32-,34-,35+,39-,40+,41+,42-/m0/s1" "computed SMILES=O=C(O)C1OC(OC2CCC3(C)C(CCC4(C)C3CC=C5C6CC(C)(C)CCC6(C(=O)OC7OC(CO)C(O)C(O)C7O)CCC54C)C2(C)C)C(O)C(O)C1O" "license=License CC-BY-NC-SA 4.0 International" "author=Plant Biology, The Noble Foundation, Ardmore, OK, US/Dennis Fine, Daniel Wherritt, and Lloyd Sumner" "ionization=ESI" "peak width=0.019" "date=2015-02-24 18:25:35+01:00" "column=Waters Acquity BEH C18 1.7um x 2.1 x 150 mm" "retention time=945" "raw data file=C:\Data\2015Feb17_UGT1_Tnt_mutant_2-A,1_01_1807.d" "SPLASH=splash10-0006-0100000910-b295feed0fa25b7e29c2" "submitter=Aiko Barsch (Bruker)" "MoNA Rating=4.444444444444445"
Num Peaks: 42
562.2712 1.301301
712.4136 1.101101
793.4412 100.000000
793.9435 33.133133
794.4438 48.248248
794.9459 6.606607
795.4459 11.511512
796.4476 2.402402
827.4352 2.702703
827.9373 2.802803
828.4377 1.601602
843.4044 2.102102
843.9050 2.102102
844.4067 1.501502
861.4265 5.605606
862.4279 2.802803
863.4134 1.101101
893.3624 3.303303
894.3680 2.002002
895.3680 1.101101
911.3735 2.302302
912.3768 1.401401
929.4124 1.201201
933.3538 1.101101
938.4897 1.101101
938.9926 1.001001
939.4957 1.001001
1190.6631 6.806807
1191.1649 9.409409
1191.6665 6.906907
1192.1680 3.903904
1192.6698 1.501502
1201.6526 1.001001
1202.1573 1.401401
1202.6577 1.101101
1241.1249 1.301301
1241.6273 1.001001
1587.8868 2.102102
1588.3834 2.102102
1588.8895 2.702703
1589.3844 1.501502
1589.8898 1.301301


Name: 3-GlcA-28-Glc oleanolic acid
Synon: $:00in-source
DB#: MetaboBASE1221
InChIKey: YOSRLTNUOCHBEA-XFBOPQPKSA-N
Precursor_type: [M-H]-
Spectrum_type: MS2
PrecursorMZ: 793.4521
Instrument_type: LC-ESI-TOF
Instrument: impact HD
Ion_mode: N
Collision_energy: 48.5045
Formula: C42H66O14
MW: 794
ExactMass: 794.445256792
Comments: "SMILES=C1[C@@H](C(C2[C@](C1)(C1[C@@](CC2)([C@]2(C(=CC1)[C@H]1[C@@](CC2)(CCC(C1)(C)C)C(=O)O[C@H]1[C@@H]([C@H]([C@@H]([C@H](O1)CO)O)O)O)C)C)C)(C)C)O[C@@H]1O[C@@H]([C@H]([C@@H]([C@H]1O)O)O)C(=O)O" "InChI=InChI=1S/C42H66O14/c1-37(2)14-16-42(36(52)56-34-30(48)27(45)26(44)22(19-43)53-34)17-15-40(6)20(21(42)18-37)8-9-24-39(5)12-11-25(38(3,4)23(39)10-13-41(24,40)7)54-35-31(49)28(46)29(47)32(55-35)33(50)51/h8,21-32,34-35,43-49H,9-19H2,1-7H3,(H,50,51)/t21-,22+,23?,24?,25-,26+,27-,28-,29-,30+,31+,32-,34-,35+,39-,40+,41+,42-/m0/s1" "computed SMILES=O=C(O)C1OC(OC2CCC3(C)C(CCC4(C)C3CC=C5C6CC(C)(C)CCC6(C(=O)OC7OC(CO)C(O)C(O)C7O)CCC54C)C2(C)C)C(O)C(O)C1O" "license=License CC-BY-NC-SA 4.0 International" "author=Plant Biology, The Noble Foundation, Ardmore, OK, US/Dennis Fine, Daniel Wherritt, and Lloyd Sumner" "ionization=ESI" "collision energy 2=80.8408" "peak width=0.012" "date=2014-12-12 20:57:07+01:00" "column=Waters Acquity BEH C18 1.7um x 2.1 x 150 mm" "retention time=945" "raw data file=C:\Data\Noble-Bruker MS libr eval complex mix\Noble data\2014Dec_A17 aer rt mix MSMS_1-A,2_01_1447.d" "computed mass accuracy=17.79465704358333" "computed mass error=0.014119208000010985" "SPLASH=splash10-0006-0000000900-805bd5a34ebd9ff296d3" "submitter=Aiko Barsch (Bruker)" "MoNA Rating=4.545454545454546"
Num Peaks: 9
455.3521 8.108108
569.3828 13.413413
570.3809 1.901902
631.3824 10.210210
632.3814 3.403403
793.4348 100.000000
794.4368 40.540541
795.4225 3.703704
795.4499 6.506507


Name: 3-GlcA-22-(Glc(1-4)DDMP Soyasapogenol B
Synon: $:00in-source
DB#: MetaboBASE1222
InChIKey: YJDAFFBQORMFHS-JGXZJSHWSA-N
Instrument_type: LC-ESI-TOF
Instrument: impact HD
Ion_mode: N
Collision_energy: 10
Formula: C48H74O17
MW: 922
ExactMass: 922.492600908
Comments: "SMILES=C1[C@@H]([C@](C2[C@](C1)(C1[C@@](CC2)([C@]2(C(=CC1)[C@H]1[C@@](CC2)([C@@H](CC(C1)(C)C)O[C@H]1OC(=C(C(=O)C1)O[C@@H]1O[C@@H]([C@H]([C@@H]([C@H]1O)O)O)CO)C)C)C)C)C)(C)CO)O[C@@H]1O[C@@H]([C@H]([C@@H]([C@H]1O)O)O)C(=O)O" "InChI=InChI=1S/C48H74O17/c1-22-38(64-41-36(56)33(53)32(52)26(20-49)61-41)25(51)17-31(60-22)62-30-19-43(2,3)18-24-23-9-10-28-45(5)13-12-29(63-42-37(57)34(54)35(55)39(65-42)40(58)59)46(6,21-50)27(45)11-14-48(28,8)47(23,7)16-15-44(24,30)4/h9,24,26-37,39,41-42,49-50,52-57H,10-21H2,1-8H3,(H,58,59)/t24-,26+,27?,28?,29-,30+,31+,32+,33-,34-,35-,36+,37+,39-,41-,42+,44+,45-,46+,47+,48+/m0/s1" "computed SMILES=O=C(O)C1OC(OC2CCC3(C)C4CC=C5C6CC(C)(C)CC(OC7OC(=C(OC8OC(CO)C(O)C(O)C8O)C(=O)C7)C)C6(C)CCC5(C)C4(C)CCC3C2(C)CO)C(O)C(O)C1O" "license=License CC-BY-NC-SA 4.0 International" "author=Plant Biology, The Noble Foundation, Ardmore, OK, US/Dennis Fine, Daniel Wherritt, and Lloyd Sumner" "ionization=ESI" "peak width=0.019" "date=2015-02-24 18:25:35+01:00" "column=Waters Acquity BEH C18 1.7um x 2.1 x 150 mm" "retention time=1024.2" "raw data file=C:\Data\2015Feb17_UGT1_Tnt_mutant_2-A,1_01_1807.d" "SPLASH=splash10-00di-0001000009-35abb3c5a88eeb5b1c41" "submitter=Aiko Barsch (Bruker)" "MoNA Rating=4.444444444444445"
Num Peaks: 34
921.4886 100.000000
921.9919 27.727728
922.4916 58.958959
922.9933 6.906907
923.4939 17.217217
924.4948 4.104104
949.3725 1.601602
955.4819 2.202202
955.9839 2.202202
956.4849 1.401401
989.4747 4.804805
990.4761 2.802803
991.4722 1.101101
1021.4109 2.602603
1022.4142 1.801802
1023.4175 1.001001
1039.4233 3.203203
1040.4243 2.202202
1057.4594 1.001001
1382.7340 4.804805
1383.2369 7.307307
1383.7383 6.406406
1384.2402 4.004004
1384.7428 1.901902
1394.2292 1.401401
1394.7266 1.201201
1433.2029 1.301301
1433.7014 1.201201
1843.9773 4.604605
1844.4799 1.201201
1844.9813 5.805806
1845.4902 1.101101
1845.9799 3.203203
1846.9810 1.101101


Name: 3-Glu-3,4',7-trihydroxyisoflavanone
Synon: $:00in-source
DB#: MetaboBASE1223
InChIKey: BTODFHHNMFOZHK-FEUJFKKFSA-N
Precursor_type: [M-H]-
Spectrum_type: MS2
PrecursorMZ: 433.115
Instrument_type: LC-ESI-TOF
Instrument: impact HD
Ion_mode: N
Collision_energy: 33.7385
Formula: C21H22O10
MW: 434
ExactMass: 434.121296904
Comments: "SMILES=c1(ccc2c(c1)OCC(C2=O)(c1ccc(cc1)O)O[C@H]1[C@@H]([C@H]([C@@H]([C@H](O1)CO)O)O)O)O" "InChI=InChI=1S/C21H22O10/c22-8-15-16(25)17(26)18(27)20(30-15)31-21(10-1-3-11(23)4-2-10)9-29-14-7-12(24)5-6-13(14)19(21)28/h1-7,15-18,20,22-27H,8-9H2/t15-,16-,17+,18-,20+,21?/m1/s1" "computed SMILES=O=C1C2=CC=C(O)C=C2OCC1(OC3OC(CO)C(O)C(O)C3O)C4=CC=C(O)C=C4" "license=License CC-BY-NC-SA 4.0 International" "author=Plant Biology, The Noble Foundation, Ardmore, OK, US/Dennis Fine, Daniel Wherritt, and Lloyd Sumner" "ionization=ESI" "collision energy 2=56.2308" "peak width=0.018" "date=2014-11-13 01:08:40+01:00" "column=Waters Acquity BEH C18 1.7um x 2.1 x 150 mm" "retention time=225.72" "raw data file=C:\Data\2014Nov12_A-17 aerial root MS MSMS\A-17 root MSMS_1-A,3_01_1217.d" "computed mass accuracy=2.2605912978780984" "computed mass error=9.790959999804727E-4" "SPLASH=splash10-0udi-0090000000-ad24138620d754b730d3" "submitter=Aiko Barsch (Bruker)" "MoNA Rating=4.583333333333334"
Num Peaks: 26
108.0216 0.500501
109.0282 1.501502
117.0334 1.001001
135.0093 2.802803
136.0131 0.300300
137.0209 0.700701
137.0257 1.201201
163.0030 0.600601
163.0369 0.200200
164.0094 0.300300
165.0195 2.302302
167.0350 0.300300
223.0447 1.001001
224.0470 2.602603
225.0541 3.603604
243.0654 7.007007
244.0679 0.400400
252.0401 0.500501
253.0503 100.000000
254.0533 15.315315
255.0582 1.201201
271.0603 4.504505
327.0716 4.804805
328.0788 0.300300
433.1128 12.412412
434.1171 2.602603


Name: 3-Glu-3,4',7-trihydroxyisoflavanone
Synon: $:00in-source
DB#: MetaboBASE1224
InChIKey: BTODFHHNMFOZHK-FEUJFKKFSA-N
Instrument_type: LC-ESI-TOF
Instrument: impact HD
Ion_mode: N
Formula: C21H22O10
MW: 434
ExactMass: 434.121296904
Comments: "SMILES=c1(ccc2c(c1)OCC(C2=O)(c1ccc(cc1)O)O[C@H]1[C@@H]([C@H]([C@@H]([C@H](O1)CO)O)O)O)O" "InChI=InChI=1S/C21H22O10/c22-8-15-16(25)17(26)18(27)20(30-15)31-21(10-1-3-11(23)4-2-10)9-29-14-7-12(24)5-6-13(14)19(21)28/h1-7,15-18,20,22-27H,8-9H2/t15-,16-,17+,18-,20+,21?/m1/s1" "computed SMILES=O=C1C2=CC=C(O)C=C2OCC1(OC3OC(CO)C(O)C(O)C3O)C4=CC=C(O)C=C4" "license=License CC-BY-NC-SA 4.0 International" "author=Plant Biology, The Noble Foundation, Ardmore, OK, US/Dennis Fine, Daniel Wherritt, and Lloyd Sumner" "ionization=ESI" "peak width=0.012" "date=2014-11-13 01:08:40+01:00" "column=Waters Acquity BEH C18 1.7um x 2.1 x 150 mm" "retention time=225.72" "raw data file=C:\Data\2014Nov12_A-17 aerial root MS MSMS\A-17 root MSMS_1-A,3_01_1217.d" "SPLASH=splash10-001i-0000900000-170d8048ec0dc7ff06e4" "submitter=Aiko Barsch (Bruker)" "MoNA Rating=3.888888888888889"
Num Peaks: 14
433.1150 100.000000
433.1965 0.100100
433.2255 0.100100
434.1173 24.324324
435.1182 5.005005
436.1171 0.100100
485.1093 1.001001
501.1029 1.201201
517.0652 1.801802
578.0323 1.501502
579.0400 0.100100
867.2397 1.901902
868.2404 1.101101
869.2352 0.100100


Name: 3-((3'-Malonyl)Xyl)-28-Glu Bayogenin
Synon: $:00in-source
DB#: MetaboBASE1225
InChIKey: GCLVKIXOISSSOM-HUSOEYKKSA-N
Precursor_type: [M-H]-
Spectrum_type: MS2
PrecursorMZ: 867.4379
Instrument_type: LC-ESI-TOF
Instrument: impact HD
Ion_mode: N
Collision_energy: 51.2807
Formula: C44H68O17
MW: 868
ExactMass: 868.4456507159999
Comments: "SMILES=[C@H]1([C@@H]([C@@](C2[C@](C1)(C1[C@@](CC2)([C@]2(C(=CC1)[C@H]1[C@@](CC2)(CCC(C1)(C)C)C(=O)O[C@H]1[C@@H]([C@H]([C@@H]([C@H](O1)CO)O)O)O)C)C)C)(C)CO)O[C@@H]1OC[C@H]([C@@H]([C@H]1O)OC(=O)CC(=O)O)O)O" "InChI=InChI=1S/C44H68O17/c1-39(2)11-13-44(38(56)61-37-32(54)31(53)30(52)25(18-45)58-37)14-12-42(5)21(22(44)16-39)7-8-27-40(3)17-23(47)35(41(4,20-46)26(40)9-10-43(27,42)6)60-36-33(55)34(24(48)19-57-36)59-29(51)15-28(49)50/h7,22-27,30-37,45-48,52-55H,8-20H2,1-6H3,(H,49,50)/t22-,23-,24+,25+,26?,27?,30+,31-,32+,33+,34-,35-,36-,37-,40-,41-,42+,43+,44-/m0/s1" "computed SMILES=O=C(O)CC(=O)OC1C(O)COC(OC2C(O)CC3(C)C4CC=C5C6CC(C)(C)CCC6(C(=O)OC7OC(CO)C(O)C(O)C7O)CCC5(C)C4(C)CCC3C2(C)CO)C1O" "license=License CC-BY-NC-SA 4.0 International" "author=Plant Biology, The Noble Foundation, Ardmore, OK, US/Dennis Fine, Daniel Wherritt, and Lloyd Sumner" "ionization=ESI" "collision energy 2=85.4678" "peak width=0.012" "date=2014-11-13 01:08:40+01:00" "column=Waters Acquity BEH C18 1.7um x 2.1 x 150 mm" "retention time=789.42" "raw data file=C:\Data\2014Nov12_A-17 aerial root MS MSMS\A-17 root MSMS_1-A,3_01_1217.d" "computed mass accuracy=0.5472622303815384" "computed mass error=-4.7471599987147783E-4" "SPLASH=splash10-014i-0000103090-8af70dfd4b52869d9684" "submitter=Aiko Barsch (Bruker)" "MoNA Rating=4.615384615384616"
Num Peaks: 11
99.0088 2.102102
113.0247 5.205205
487.3443 17.017017
488.3460 2.302302
601.3710 39.239239
602.3738 8.808809
645.3542 10.310310
664.9060 1.201201
867.4374 100.000000
868.4400 37.037037
869.4380 2.402402


Name: 3-((3'-Malonyl)Xyl)-28-Glu Bayogenin
Synon: $:00in-source
DB#: MetaboBASE1226
InChIKey: GCLVKIXOISSSOM-HUSOEYKKSA-N
Instrument_type: LC-ESI-TOF
Instrument: impact HD
Ion_mode: N
Formula: C44H68O17
MW: 868
ExactMass: 868.4456507159999
Comments: "SMILES=[C@H]1([C@@H]([C@@](C2[C@](C1)(C1[C@@](CC2)([C@]2(C(=CC1)[C@H]1[C@@](CC2)(CCC(C1)(C)C)C(=O)O[C@H]1[C@@H]([C@H]([C@@H]([C@H](O1)CO)O)O)O)C)C)C)(C)CO)O[C@@H]1OC[C@H]([C@@H]([C@H]1O)OC(=O)CC(=O)O)O)O" "InChI=InChI=1S/C44H68O17/c1-39(2)11-13-44(38(56)61-37-32(54)31(53)30(52)25(18-45)58-37)14-12-42(5)21(22(44)16-39)7-8-27-40(3)17-23(47)35(41(4,20-46)26(40)9-10-43(27,42)6)60-36-33(55)34(24(48)19-57-36)59-29(51)15-28(49)50/h7,22-27,30-37,45-48,52-55H,8-20H2,1-6H3,(H,49,50)/t22-,23-,24+,25+,26?,27?,30+,31-,32+,33+,34-,35-,36-,37-,40-,41-,42+,43+,44-/m0/s1" "computed SMILES=O=C(O)CC(=O)OC1C(O)COC(OC2C(O)CC3(C)C4CC=C5C6CC(C)(C)CCC6(C(=O)OC7OC(CO)C(O)C(O)C7O)CCC5(C)C4(C)CCC3C2(C)CO)C1O" "license=License CC-BY-NC-SA 4.0 International" "author=Plant Biology, The Noble Foundation, Ardmore, OK, US/Dennis Fine, Daniel Wherritt, and Lloyd Sumner" "ionization=ESI" "peak width=0.015" "date=2014-11-13 01:08:40+01:00" "column=Waters Acquity BEH C18 1.7um x 2.1 x 150 mm" "retention time=789.42" "raw data file=C:\Data\2014Nov12_A-17 aerial root MS MSMS\A-17 root MSMS_1-A,3_01_1217.d" "SPLASH=splash10-014i-1000000292-4a75b2b5a37d116221f3" "submitter=Aiko Barsch (Bruker)" "MoNA Rating=3.888888888888889"
Num Peaks: 51
558.2698 3.503504
558.7661 1.501502
666.0223 1.101101
711.2783 22.322322
712.2820 10.810811
713.2842 3.203203
733.2615 2.502503
734.2522 0.200200
795.3426 0.100100
795.4526 1.701702
826.4289 2.302302
867.3499 0.300300
867.4379 100.000000
867.5339 0.700701
867.9446 1.401401
868.4406 49.149149
868.9371 0.200200
869.1199 0.100100
869.4440 14.914915
870.4470 4.004004
890.4366 1.301301
933.3365 0.200200
933.4130 11.511512
934.4089 6.106106
934.4757 0.900901
934.9730 1.401401
935.4100 0.200200
957.5063 6.306306
958.5067 2.802803
969.4669 3.603604
970.4697 2.002002
971.4760 1.201201
987.4308 0.100100
987.4819 1.701702
988.4794 1.201201
995.3810 2.402402
996.3796 0.200200
1001.3547 0.300300
1001.3995 2.702703
1002.3956 0.400400
1003.5104 14.114114
1004.5128 8.208208
1005.5150 2.802803
1011.3525 2.302302
1012.3499 0.100100
1071.4874 2.702703
1072.4979 0.900901
1149.5614 1.401401
1150.5623 1.601602
1367.6104 3.403403
1368.6144 2.602603


Name: 3-((3'-Malonyl)Xyl)-28-Glu Polygalagenin
Synon: $:00in-source
DB#: MetaboBASE1227
InChIKey: SNGYMHPNQVEJCO-HUSOEYKKSA-N
Precursor_type: [M-H]-
Spectrum_type: MS2
PrecursorMZ: 865.4247
Instrument_type: LC-ESI-TOF
Instrument: impact HD
Ion_mode: N
Collision_energy: 51.2032
Formula: C44H66O17
MW: 866
ExactMass: 866.430000652
Comments: "SMILES=[C@H]1([C@@H]([C@@](C2[C@](C1)(C1[C@@](CC2)([C@]2(C(=CC1)[C@H]1[C@@](CC2)(CCC(C1)(C)C)C(=O)O[C@H]1[C@@H]([C@H]([C@@H]([C@H](O1)CO)O)O)O)C)C)C)(C)C=O)O[C@@H]1OC[C@H]([C@@H]([C@H]1O)OC(=O)CC(=O)O)O)O" "InChI=InChI=1S/C44H66O17/c1-39(2)11-13-44(38(56)61-37-32(54)31(53)30(52)25(18-45)58-37)14-12-42(5)21(22(44)16-39)7-8-27-40(3)17-23(47)35(41(4,20-46)26(40)9-10-43(27,42)6)60-36-33(55)34(24(48)19-57-36)59-29(51)15-28(49)50/h7,20,22-27,30-37,45,47-48,52-55H,8-19H2,1-6H3,(H,49,50)/t22-,23-,24+,25+,26?,27?,30+,31-,32+,33+,34-,35-,36-,37-,40-,41-,42+,43+,44-/m0/s1" "computed SMILES=O=CC1(C)C(OC2OCC(O)C(OC(=O)CC(=O)O)C2O)C(O)CC3(C)C4CC=C5C6CC(C)(C)CCC6(C(=O)OC7OC(CO)C(O)C(O)C7O)CCC5(C)C4(C)CCC13" "license=License CC-BY-NC-SA 4.0 International" "author=Plant Biology, The Noble Foundation, Ardmore, OK, US/Dennis Fine, Daniel Wherritt, and Lloyd Sumner" "ionization=ESI" "collision energy 2=85.3386" "peak width=0.021" "date=2014-11-20 07:21:14+01:00" "column=Waters Acquity BEH C18 1.7um x 2.1 x 150 mm" "retention time=855" "raw data file=G:\Sumner Lab Data Management Workspace Jun2013\Projects\NSF-JST Metabolomics Nov2011-Sep2014\UPLC-MS-MSMS\2014Nov12_A-17 aerial root MS MSMS\A-17 root better MSMS_1-A,3_01_1296.d" "computed mass accuracy=2.282518629393466" "computed mass error=0.0019753480000872514" "SPLASH=splash10-014j-0000253090-8d22644baf11b3a04d1b" "submitter=Aiko Barsch (Bruker)" "MoNA Rating=4.583333333333334"
Num Peaks: 58
99.0067 4.504505
99.0114 2.902903
111.0083 2.502503
113.0231 5.105105
114.0255 1.301301
139.0050 1.401401
170.0767 1.901902
217.0305 1.701702
223.5287 1.101101
250.3283 1.201201
251.0406 1.201201
253.9913 1.101101
257.4333 1.201201
467.3179 6.106106
485.3255 28.128128
486.3221 3.703704
486.3349 3.603604
527.3580 2.302302
581.3442 13.313313
582.3438 2.802803
599.3588 81.081081
600.3615 31.431431
604.2999 1.401401
608.5173 1.201201
641.3694 1.801802
642.3832 1.101101
643.3478 12.412412
644.3536 2.202202
703.3531 3.603604
703.3743 1.101101
704.3633 2.902903
823.4159 6.606607
824.4531 1.201201
865.4238 100.000000
866.4308 47.047047
866.5213 1.701702
867.4360 7.507508
867.9566 1.101101
1147.2000 1.101101
1403.0732 1.101101
1422.4152 1.101101
1514.2245 1.401401
1557.5476 1.101101
1613.2428 1.201201
1635.6741 1.101101
1662.8694 2.402402
1699.6886 1.201201
1707.1392 1.101101
1745.7104 1.401401
1774.8600 1.101101
1779.2224 1.201201
1784.4208 1.201201
1830.8188 1.501502
1890.7301 1.201201
1906.9757 1.201201
1918.0839 1.101101
1962.9419 1.201201
1974.2058 1.401401


Name: 3-((3'-Malonyl)Xyl)-28-Glu Polygalagenin
Synon: $:00in-source
DB#: MetaboBASE1228
InChIKey: SNGYMHPNQVEJCO-HUSOEYKKSA-N
Instrument_type: LC-ESI-TOF
Instrument: impact HD
Ion_mode: N
Formula: C44H66O17
MW: 866
ExactMass: 866.430000652
Comments: "SMILES=[C@H]1([C@@H]([C@@](C2[C@](C1)(C1[C@@](CC2)([C@]2(C(=CC1)[C@H]1[C@@](CC2)(CCC(C1)(C)C)C(=O)O[C@H]1[C@@H]([C@H]([C@@H]([C@H](O1)CO)O)O)O)C)C)C)(C)C=O)O[C@@H]1OC[C@H]([C@@H]([C@H]1O)OC(=O)CC(=O)O)O)O" "InChI=InChI=1S/C44H66O17/c1-39(2)11-13-44(38(56)61-37-32(54)31(53)30(52)25(18-45)58-37)14-12-42(5)21(22(44)16-39)7-8-27-40(3)17-23(47)35(41(4,20-46)26(40)9-10-43(27,42)6)60-36-33(55)34(24(48)19-57-36)59-29(51)15-28(49)50/h7,20,22-27,30-37,45,47-48,52-55H,8-19H2,1-6H3,(H,49,50)/t22-,23-,24+,25+,26?,27?,30+,31-,32+,33+,34-,35-,36-,37-,40-,41-,42+,43+,44-/m0/s1" "computed SMILES=O=CC1(C)C(OC2OCC(O)C(OC(=O)CC(=O)O)C2O)C(O)CC3(C)C4CC=C5C6CC(C)(C)CCC6(C(=O)OC7OC(CO)C(O)C(O)C7O)CCC5(C)C4(C)CCC13" "license=License CC-BY-NC-SA 4.0 International" "author=Plant Biology, The Noble Foundation, Ardmore, OK, US/Dennis Fine, Daniel Wherritt, and Lloyd Sumner" "ionization=ESI" "peak width=0.022" "date=2014-11-20 07:21:14+01:00" "column=Waters Acquity BEH C18 1.7um x 2.1 x 150 mm" "retention time=855" "raw data file=G:\Sumner Lab Data Management Workspace Jun2013\Projects\NSF-JST Metabolomics Nov2011-Sep2014\UPLC-MS-MSMS\2014Nov12_A-17 aerial root MS MSMS\A-17 root better MSMS_1-A,3_01_1296.d" "SPLASH=splash10-014i-0000000092-6d91fbd2a7fa7d8dda31" "submitter=Aiko Barsch (Bruker)" "MoNA Rating=3.888888888888889"
Num Peaks: 39
128.0088 1.001001
675.4138 1.601602
725.3915 0.800801
807.4137 1.101101
837.4656 13.713714
838.4682 6.506507
838.4937 0.500501
839.4742 2.102102
865.3424 0.500501
865.4247 100.000000
865.5961 0.500501
865.6904 0.500501
865.9277 1.401401
866.4283 46.446446
866.5856 0.400400
867.4313 12.912913
868.4338 3.103103
881.4535 7.607608
882.4572 2.902903
883.4614 1.101101
887.4204 3.603604
887.9261 1.701702
888.4238 2.002002
909.4159 12.212212
909.9231 3.003003
910.4193 5.605606
910.9120 0.700701
931.3985 9.909910
932.4014 4.304304
933.4023 1.201201
949.4443 2.002002
950.4475 0.900901
953.4398 3.103103
954.4476 1.101101
993.3730 1.301301
999.3804 2.502503
1003.5152 1.901902
1009.3422 1.401401
1010.3406 1.101101


Name: 3-((3'-Malonyl)Xyl)-28-Glu-2-hydroxy oleanolic acid
Synon: $:00in-source
DB#: MetaboBASE1229
InChIKey: SEQLVCABILROHV-BAEYDANMSA-N
Precursor_type: [M-H]-
Spectrum_type: MS2
PrecursorMZ: 851.4425
Instrument_type: LC-ESI-TOF
Instrument: impact HD
Ion_mode: N
Collision_energy: 50.6807
Formula: C44H68O16
MW: 852
ExactMass: 852.450736096
Comments: "SMILES=[C@H]1([C@@H](C(C2[C@](C1)(C1[C@@](CC2)([C@]2(C(=CC1)[C@H]1[C@@](CC2)(CCC(C1)(C)C)C(=O)O[C@H]1[C@@H]([C@H]([C@@H]([C@H](O1)CO)O)O)O)C)C)C)(C)C)O[C@@H]1OC[C@H]([C@@H]([C@H]1O)OC(=O)CC(=O)O)O)O" "InChI=InChI=1S/C44H68O16/c1-39(2)12-14-44(38(55)60-37-32(53)31(52)30(51)25(19-45)57-37)15-13-42(6)21(22(44)17-39)8-9-27-41(5)18-23(46)35(40(3,4)26(41)10-11-43(27,42)7)59-36-33(54)34(24(47)20-56-36)58-29(50)16-28(48)49/h8,22-27,30-37,45-47,51-54H,9-20H2,1-7H3,(H,48,49)/t22-,23-,24+,25+,26?,27?,30+,31-,32+,33+,34-,35-,36-,37-,41-,42+,43+,44-/m0/s1" "computed SMILES=O=C(O)CC(=O)OC1C(O)COC(OC2C(O)CC3(C)C(CCC4(C)C3CC=C5C6CC(C)(C)CCC6(C(=O)OC7OC(CO)C(O)C(O)C7O)CCC54C)C2(C)C)C1O" "license=License CC-BY-NC-SA 4.0 International" "author=Plant Biology, The Noble Foundation, Ardmore, OK, US/Dennis Fine, Daniel Wherritt, and Lloyd Sumner" "ionization=ESI" "collision energy 2=84.4678" "peak width=0.012" "date=2014-11-13 01:08:40+01:00" "column=Waters Acquity BEH C18 1.7um x 2.1 x 150 mm" "retention time=960.18" "raw data file=C:\Data\2014Nov12_A-17 aerial root MS MSMS\A-17 root MSMS_1-A,3_01_1217.d" "computed mass accuracy=1.1276110835101605" "computed mass error=-9.600959999715997E-4" "SPLASH=splash10-0udr-0000150090-a8843926d028031c8986" "submitter=Aiko Barsch (Bruker)" "MoNA Rating=4.583333333333334"
Num Peaks: 6
471.3456 22.222222
585.3772 81.981982
586.3811 7.507508
629.3617 7.107107
851.4376 100.000000
852.4385 42.442442


Name: 3-((3'-Malonyl)Xyl)-28-Glu-2-hydroxy oleanolic acid
Synon: $:00in-source
DB#: MetaboBASE1230
InChIKey: SEQLVCABILROHV-BAEYDANMSA-N
Instrument_type: LC-ESI-TOF
Instrument: impact HD
Ion_mode: N
Formula: C44H68O16
MW: 852
ExactMass: 852.450736096
Comments: "SMILES=[C@H]1([C@@H](C(C2[C@](C1)(C1[C@@](CC2)([C@]2(C(=CC1)[C@H]1[C@@](CC2)(CCC(C1)(C)C)C(=O)O[C@H]1[C@@H]([C@H]([C@@H]([C@H](O1)CO)O)O)O)C)C)C)(C)C)O[C@@H]1OC[C@H]([C@@H]([C@H]1O)OC(=O)CC(=O)O)O)O" "InChI=InChI=1S/C44H68O16/c1-39(2)12-14-44(38(55)60-37-32(53)31(52)30(51)25(19-45)57-37)15-13-42(6)21(22(44)17-39)8-9-27-41(5)18-23(46)35(40(3,4)26(41)10-11-43(27,42)7)59-36-33(54)34(24(47)20-56-36)58-29(50)16-28(48)49/h8,22-27,30-37,45-47,51-54H,9-20H2,1-7H3,(H,48,49)/t22-,23-,24+,25+,26?,27?,30+,31-,32+,33+,34-,35-,36-,37-,41-,42+,43+,44-/m0/s1" "computed SMILES=O=C(O)CC(=O)OC1C(O)COC(OC2C(O)CC3(C)C(CCC4(C)C3CC=C5C6CC(C)(C)CCC6(C(=O)OC7OC(CO)C(O)C(O)C7O)CCC54C)C2(C)C)C1O" "license=License CC-BY-NC-SA 4.0 International" "author=Plant Biology, The Noble Foundation, Ardmore, OK, US/Dennis Fine, Daniel Wherritt, and Lloyd Sumner" "ionization=ESI" "peak width=0.014" "date=2014-11-13 01:08:40+01:00" "column=Waters Acquity BEH C18 1.7um x 2.1 x 150 mm" "retention time=960.18" "raw data file=C:\Data\2014Nov12_A-17 aerial root MS MSMS\A-17 root MSMS_1-A,3_01_1217.d" "SPLASH=splash10-0udi-0000000091-ea416321f100f73fadd3" "submitter=Aiko Barsch (Bruker)" "MoNA Rating=3.888888888888889"
Num Peaks: 34
220.1463 2.002002
221.1545 2.302302
236.0914 0.100100
236.1036 6.006006
293.1734 2.302302
851.4425 100.000000
851.9457 1.901902
852.4462 45.945946
852.9430 0.500501
853.4486 6.906907
854.4530 5.205205
873.4319 3.303303
873.9366 1.801802
895.4349 11.111111
895.9294 0.800801
896.4346 6.306306
897.3998 0.700701
897.4434 2.302302
897.9824 0.200200
909.4824 6.906907
917.4106 10.310310
918.4160 5.505506
919.4233 0.100100
966.4799 2.302302
966.9840 2.302302
967.4841 1.701702
967.8777 0.100100
967.9788 0.600601
985.3981 4.704705
986.4000 0.300300
1083.5238 1.301301
1099.5323 2.402402
1100.5369 1.601602
1127.5286 1.201201


Name: 3-Glu(1-3)Glu-28-Xyl(1-4)Rha(1-2)Ara zanhic acid
Synon: $:00in-source
DB#: MetaboBASE1231
InChIKey: GXDXOYYVPOQAPN-NVEWTADNSA-N
Instrument_type: LC-ESI-TOF
Instrument: impact HD
Ion_mode: N
Collision_energy: 10
Formula: C58H92O29
MW: 1252
ExactMass: 1252.572426924
Comments: "SMILES=[C@H]1([C@@H]([C@@](C2[C@](C1)(C1[C@@](CC2)([C@]2(C(=CC1)[C@H]1[C@@]([C@@H](C2)O)(CCC(C1)(C)C)C(=O)O[C@H]1[C@@H]([C@H]([C@H](CO1)O)O)O[C@H]1[C@@H]([C@@H]([C@H]([C@@H](O1)C)O[C@H]1[C@@H]([C@H]([C@@H](CO1)O)O)O)O)O)C)C)C)(C)C(=O)O)O[C@@H]1O[C@@H]([C@H]([C@@H]([C@H]1O)O[C@@H]1O[C@@H]([C@H]([C@@H]([C@H]1O)O)O)CO)O)CO)O" "InChI=InChI=1S/C58H92O29/c1-21-42(83-46-38(71)32(65)25(62)19-78-46)37(70)40(73)47(80-21)85-44-33(66)26(63)20-79-50(44)87-52(77)58-13-12-53(2,3)14-23(58)22-8-9-29-54(4)15-24(61)45(57(7,51(75)76)30(54)10-11-55(29,5)56(22,6)16-31(58)64)86-49-41(74)43(35(68)28(18-60)82-49)84-48-39(72)36(69)34(67)27(17-59)81-48/h8,21,23-50,59-74H,9-20H2,1-7H3,(H,75,76)/t21-,23-,24-,25+,26-,27+,28+,29?,30?,31+,32-,33-,34+,35+,36-,37-,38+,39+,40+,41+,42-,43-,44+,45-,46-,47-,48-,49-,50-,54+,55+,56+,57-,58+/m0/s1" "computed SMILES=O=C(O)C1(C)C(OC2OC(CO)C(O)C(OC3OC(CO)C(O)C(O)C3O)C2O)C(O)CC4(C)C5CC=C6C7CC(C)(C)CCC7(C(=O)OC8OCC(O)C(O)C8OC9OC(C)C(OC%10OCC(O)C(O)C%10O)C(O)C9O)C(O)CC6(C)C5(C)CCC14" "license=License CC-BY-NC-SA 4.0 International" "author=Plant Biology, The Noble Foundation, Ardmore, OK, US/Dennis Fine, Daniel Wherritt, and Lloyd Sumner" "ionization=ESI" "peak width=0.022" "date=2015-02-04 01:41:50+01:00" "column=Waters Acquity BEH C18 1.7um x 2.1 x 150 mm" "retention time=700.2" "raw data file=C:\Data\2015Mar17 R108 A17 root aerial for poster\A17 aerial" "SPLASH=splash10-0udi-0091001000-2eef0b4a56e3b5318858" "submitter=Aiko Barsch (Bruker)" "MoNA Rating=4.444444444444445"
Num Peaks: 18
625.2800 11.211211
625.7813 5.205205
648.2841 8.108108
651.1358 5.605606
666.0181 5.305305
1224.5601 10.310310
1236.5588 10.310310
1237.0648 12.212212
1237.5627 9.409409
1251.5624 100.000000
1252.5659 67.567568
1253.5673 29.429429
1254.5673 5.605606
1290.5443 10.410410
1319.5499 13.113113
1320.5468 5.805806
1397.6150 12.012012
1398.6227 7.907908


Name: 3-Glu(1-3)Glu-28-Xyl(1-4)Rha(1-2)Ara zanhic acid
Synon: $:00in-source
DB#: MetaboBASE1232
InChIKey: GXDXOYYVPOQAPN-NVEWTADNSA-N
Precursor_type: [M-H]-
Spectrum_type: MS2
PrecursorMZ: 1251.57
Instrument_type: LC-ESI-TOF
Instrument: impact HD
Ion_mode: N
Collision_energy: 65.6843
Formula: C58H92O29
MW: 1252
ExactMass: 1252.572426924
Comments: "SMILES=[C@H]1([C@@H]([C@@](C2[C@](C1)(C1[C@@](CC2)([C@]2(C(=CC1)[C@H]1[C@@]([C@@H](C2)O)(CCC(C1)(C)C)C(=O)O[C@H]1[C@@H]([C@H]([C@H](CO1)O)O)O[C@H]1[C@@H]([C@@H]([C@H]([C@@H](O1)C)O[C@H]1[C@@H]([C@H]([C@@H](CO1)O)O)O)O)O)C)C)C)(C)C(=O)O)O[C@@H]1O[C@@H]([C@H]([C@@H]([C@H]1O)O[C@@H]1O[C@@H]([C@H]([C@@H]([C@H]1O)O)O)CO)O)CO)O" "InChI=InChI=1S/C58H92O29/c1-21-42(83-46-38(71)32(65)25(62)19-78-46)37(70)40(73)47(80-21)85-44-33(66)26(63)20-79-50(44)87-52(77)58-13-12-53(2,3)14-23(58)22-8-9-29-54(4)15-24(61)45(57(7,51(75)76)30(54)10-11-55(29,5)56(22,6)16-31(58)64)86-49-41(74)43(35(68)28(18-60)82-49)84-48-39(72)36(69)34(67)27(17-59)81-48/h8,21,23-50,59-74H,9-20H2,1-7H3,(H,75,76)/t21-,23-,24-,25+,26-,27+,28+,29?,30?,31+,32-,33-,34+,35+,36-,37-,38+,39+,40+,41+,42-,43-,44+,45-,46-,47-,48-,49-,50-,54+,55+,56+,57-,58+/m0/s1" "computed SMILES=O=C(O)C1(C)C(OC2OC(CO)C(O)C(OC3OC(CO)C(O)C(O)C3O)C2O)C(O)CC4(C)C5CC=C6C7CC(C)(C)CCC7(C(=O)OC8OCC(O)C(O)C8OC9OC(C)C(OC%10OCC(O)C(O)C%10O)C(O)C9O)C(O)CC6(C)C5(C)CCC14" "license=License CC-BY-NC-SA 4.0 International" "author=Plant Biology, The Noble Foundation, Ardmore, OK, US/Dennis Fine, Daniel Wherritt, and Lloyd Sumner" "ionization=ESI" "collision energy 2=109.474" "peak width=0.018" "date=2014-02-20 15:54:38+01:00" "column=Waters Acquity BEH C18 1.7um x 2.1 x 150 mm" "retention time=699" "raw data file=G:\Sumner Lab Data Management Workspace Jun2013\Projects\NSF-JST Metabolomics Nov2011-Sep2014\UPLC-MS-MSMS\Chan Man Ha\CCR1 20634 leaf WT-1 MSMS.d" "computed mass accuracy=3.874394560454236" "computed mass error=0.004849076000027708" "SPLASH=splash10-0udi-0291300000-8ea339e6e9086e9f16a6" "submitter=Aiko Barsch (Bruker)" "MoNA Rating=4.583333333333334"
Num Peaks: 8
113.0244 41.241241
161.0459 9.609610
337.1147 30.930931
455.3177 53.953954
456.3217 17.717718
1251.5714 100.000000
1252.5763 56.556557
1253.5741 18.218218


Name: 3-Glu(1-3)Glu-28-Xyl(1-4)Rha(1-2)Ara zanhic acid
Synon: $:00in-source
DB#: MetaboBASE1233
InChIKey: GXDXOYYVPOQAPN-NVEWTADNSA-N
Instrument_type: LC-ESI-TOF
Instrument: impact HD
Ion_mode: N
Formula: C58H92O29
MW: 1252
ExactMass: 1252.5724269240002
Comments: "SMILES=[C@H]1([C@@H]([C@@](C2[C@](C1)(C1[C@@](CC2)([C@]2(C(=CC1)[C@H]1[C@@]([C@@H](C2)O)(CCC(C1)(C)C)C(=O)O[C@H]1[C@@H]([C@H]([C@H](CO1)O)O)O[C@H]1[C@@H]([C@@H]([C@H]([C@@H](O1)C)O[C@H]1[C@@H]([C@H]([C@@H](CO1)O)O)O)O)O)C)C)C)(C)C(=O)O)O[C@@H]1O[C@@H]([C@H]([C@@H]([C@H]1O)O[C@@H]1O[C@@H]([C@H]([C@@H]([C@H]1O)O)O)CO)O)CO)O" "InChI=InChI=1S/C58H92O29/c1-21-42(83-46-38(71)32(65)25(62)19-78-46)37(70)40(73)47(80-21)85-44-33(66)26(63)20-79-50(44)87-52(77)58-13-12-53(2,3)14-23(58)22-8-9-29-54(4)15-24(61)45(57(7,51(75)76)30(54)10-11-55(29,5)56(22,6)16-31(58)64)86-49-41(74)43(35(68)28(18-60)82-49)84-48-39(72)36(69)34(67)27(17-59)81-48/h8,21,23-50,59-74H,9-20H2,1-7H3,(H,75,76)/t21-,23-,24-,25+,26-,27+,28+,29?,30?,31+,32-,33-,34+,35+,36-,37-,38+,39+,40+,41+,42-,43-,44+,45-,46-,47-,48-,49-,50-,54+,55+,56+,57-,58+/m0/s1" "computed SMILES=O=C(O)C1(C)C(OC2OC(CO)C(O)C(OC3OC(CO)C(O)C(O)C3O)C2O)C(O)CC4(C)C5CC=C6C7CC(C)(C)CCC7(C(=O)OC8OCC(O)C(O)C8OC9OC(C)C(OC%10OCC(O)C(O)C%10O)C(O)C9O)C(O)CC6(C)C5(C)CCC14" "license=License CC-BY-NC-SA 4.0 International" "author=Plant Biology, The Noble Foundation, Ardmore, OK, US/Dennis Fine, Daniel Wherritt, and Lloyd Sumner" "ionization=ESI" "peak width=0.017" "date=2014-02-20 15:54:38+01:00" "column=Waters Acquity BEH C18 1.7um x 2.1 x 150 mm" "retention time=699" "raw data file=G:\Sumner Lab Data Management Workspace Jun2013\Projects\NSF-JST Metabolomics Nov2011-Sep2014\UPLC-MS-MSMS\Chan Man Ha\CCR1 20634 leaf WT-1 MSMS.d" "SPLASH=splash10-0udi-0090000000-7f03a961dea8b61c9080" "submitter=Aiko Barsch (Bruker)" "MoNA Rating=3.888888888888889"
Num Peaks: 14
1251.5699 100.000000
1252.0720 27.127127
1252.5728 69.869870
1253.0757 10.210210
1253.5752 20.720721
1254.5856 3.403403
1319.5468 2.602603
1669.4259 3.903904
1669.7634 6.506507
1670.0945 6.006006
1670.4338 4.104104
1878.3545 4.204204
1878.8639 5.005005
1879.3683 3.603604


Name: 3-(Glu(1-3)Glu)-28-(Rha(4-O-acetyl)(1-2)Ara) Zanhic acid
Synon: $:00in-source
DB#: MetaboBASE1234
InChIKey: BFDLDIKIPJXHON-QLFUKLNHSA-N
Precursor_type: [M-2H]-
Spectrum_type: MS2
PrecursorMZ: 580.265
Instrument_type: LC-ESI-TOF
Instrument: impact HD
Ion_mode: N
Collision_energy: 54.0141
Formula: C55H86O26
MW: 1162
ExactMass: 1162.5407328719998
Comments: "SMILES=[C@H]1([C@@H]([C@@](C2[C@](C1)(C1[C@@](CC2)([C@]2(C(=CC1)[C@H]1[C@@]([C@@H](C2)O)(CCC(C1)(C)C)C(=O)O[C@H]1[C@@H]([C@H]([C@H](CO1)O)O)O[C@H]1[C@@H]([C@@H]([C@H]([C@@H](O1)C)OC(=O)C)O)O)C)C)C)(C)C(=O)O)O[C@@H]1O[C@@H]([C@H]([C@@H]([C@H]1O)O[C@@H]1O[C@@H]([C@H]([C@@H]([C@H]1O)O)O)CO)O)CO)O" "InChI=InChI=1S/C55H86O26/c1-21-40(75-22(2)58)36(66)38(68)44(74-21)79-42-32(62)26(60)20-73-47(42)81-49(72)55-14-13-50(3,4)15-24(55)23-9-10-29-51(5)16-25(59)43(54(8,48(70)71)30(51)11-12-52(29,6)53(23,7)17-31(55)61)80-46-39(69)41(34(64)28(19-57)77-46)78-45-37(67)35(65)33(63)27(18-56)76-45/h9,21,24-47,56-57,59-69H,10-20H2,1-8H3,(H,70,71)/t21-,24-,25-,26-,27+,28+,29?,30?,31+,32-,33+,34+,35-,36-,37+,38+,39+,40-,41-,42+,43-,44-,45-,46-,47-,51+,52+,53+,54-,55+/m0/s1" "computed SMILES=O=C(O)C1(C)C(OC2OC(CO)C(O)C(OC3OC(CO)C(O)C(O)C3O)C2O)C(O)CC4(C)C1CCC5(C)C4CC=C6C7CC(C)(C)CCC7(C(=O)OC8OCC(O)C(O)C8OC9OC(C)C(OC(=O)C)C(O)C9O)C(O)CC65C" "license=License CC-BY-NC-SA 4.0 International" "author=Plant Biology, The Noble Foundation, Ardmore, OK, US/Dennis Fine, Daniel Wherritt, and Lloyd Sumner" "ionization=ESI" "peak width=0.024" "date=2015-04-22 20:32:33+02:00" "column=Waters Acquity BEH C18 1.7um x 2.1 x 150 mm" "retention time=806.4" "raw data file=G:\Sumner Lab Data Management Workspace Jun2013\Projects\NSF-JST Metabolomics Nov2011-Sep2014\UPLC-MS-MSMS\Bonnie Watson\2015Apr22_BW21_MSMS_1-D,1_01_1932.d" "computed mass accuracy=3.2908481471907645" "computed mass error=0.0019095640001296488" "SPLASH=splash10-08fu-0907800000-6adf2157e5bc0d1bcf5d" "submitter=Aiko Barsch (Bruker)" "MoNA Rating=4.583333333333334"
Num Peaks: 14
101.023 3.303303
113.024 100.000000
114.027 4.604605
119.033 1.101101
375.269 2.902903
375.305 1.201201
391.300 40.440440
392.301 11.311311
393.315 29.629630
394.320 9.209209
409.309 7.507508
455.315 65.865866
456.319 22.622623
457.324 1.101101


Name: 3-(Glu(1-3)Glu)-28-(Rha(4-O-acetyl)(1-2)Ara) Zanhic acid
Synon: $:00in-source
DB#: MetaboBASE1235
InChIKey: BFDLDIKIPJXHON-QLFUKLNHSA-N
Precursor_type: [M-H]-
Spectrum_type: MS2
PrecursorMZ: 1161.536
Instrument_type: LC-ESI-TOF
Instrument: impact HD
Ion_mode: N
Collision_energy: 83.0788
Formula: C55H86O26
MW: 1162
ExactMass: 1162.540732872
Comments: "SMILES=[C@H]1([C@@H]([C@@](C2[C@](C1)(C1[C@@](CC2)([C@]2(C(=CC1)[C@H]1[C@@]([C@@H](C2)O)(CCC(C1)(C)C)C(=O)O[C@H]1[C@@H]([C@H]([C@H](CO1)O)O)O[C@H]1[C@@H]([C@@H]([C@H]([C@@H](O1)C)OC(=O)C)O)O)C)C)C)(C)C(=O)O)O[C@@H]1O[C@@H]([C@H]([C@@H]([C@H]1O)O[C@@H]1O[C@@H]([C@H]([C@@H]([C@H]1O)O)O)CO)O)CO)O" "InChI=InChI=1S/C55H86O26/c1-21-40(75-22(2)58)36(66)38(68)44(74-21)79-42-32(62)26(60)20-73-47(42)81-49(72)55-14-13-50(3,4)15-24(55)23-9-10-29-51(5)16-25(59)43(54(8,48(70)71)30(51)11-12-52(29,6)53(23,7)17-31(55)61)80-46-39(69)41(34(64)28(19-57)77-46)78-45-37(67)35(65)33(63)27(18-56)76-45/h9,21,24-47,56-57,59-69H,10-20H2,1-8H3,(H,70,71)/t21-,24-,25-,26-,27+,28+,29?,30?,31+,32-,33+,34+,35-,36-,37+,38+,39+,40-,41-,42+,43-,44-,45-,46-,47-,51+,52+,53+,54-,55+/m0/s1" "computed SMILES=O=C(O)C1(C)C(OC2OC(CO)C(O)C(OC3OC(CO)C(O)C(O)C3O)C2O)C(O)CC4(C)C1CCC5(C)C4CC=C6C7CC(C)(C)CCC7(C(=O)OC8OCC(O)C(O)C8OC9OC(C)C(OC(=O)C)C(O)C9O)C(O)CC65C" "license=License CC-BY-NC-SA 4.0 International" "author=Plant Biology, The Noble Foundation, Ardmore, OK, US/Dennis Fine, Daniel Wherritt, and Lloyd Sumner" "ionization=ESI" "peak width=0.024" "date=2015-04-22 20:32:33+02:00" "column=Waters Acquity BEH C18 1.7um x 2.1 x 150 mm" "retention time=806.4" "raw data file=G:\Sumner Lab Data Management Workspace Jun2013\Projects\NSF-JST Metabolomics Nov2011-Sep2014\UPLC-MS-MSMS\Bonnie Watson\2015Apr22_BW21_MSMS_1-D,1_01_1932.d" "computed mass accuracy=2.1894525869798978" "computed mass error=0.0025431280000702827" "SPLASH=splash10-08fr-0900500000-9f94adcf84b1cf1c9753" "submitter=Aiko Barsch (Bruker)" "MoNA Rating=4.583333333333334"
Num Peaks: 36
101.024 4.704705
102.027 0.100100
113.025 100.000000
114.028 5.605606
115.029 0.500501
115.033 0.200200
119.035 5.305305
125.023 0.100100
127.038 0.100100
131.035 1.401401
143.035 2.602603
145.051 0.500501
149.045 0.800801
161.045 14.214214
162.047 0.700701
179.055 3.203203
205.071 2.102102
206.076 0.100100
247.082 2.502503
289.092 0.200200
375.307 0.200200
391.301 1.901902
392.305 0.300300
393.316 1.801802
394.318 0.500501
409.302 0.200200
409.313 0.400400
437.307 1.301301
438.307 0.200200
455.268 0.100100
455.317 61.561562
456.320 17.817818
457.323 2.702703
497.324 0.200200
499.307 0.100100
2152.749 0.100100


Name: 3-(Glu(1-3)Glu)-28-(Rha(4-O-acetyl)(1-2)Ara) Zanhic acid
Synon: $:00in-source
DB#: MetaboBASE1236
InChIKey: BFDLDIKIPJXHON-QLFUKLNHSA-N
Instrument_type: LC-ESI-TOF
Instrument: impact HD
Ion_mode: N
Collision_energy: 10
Formula: C55H86O26
MW: 1162
ExactMass: 1162.540732872
Comments: "SMILES=[C@H]1([C@@H]([C@@](C2[C@](C1)(C1[C@@](CC2)([C@]2(C(=CC1)[C@H]1[C@@]([C@@H](C2)O)(CCC(C1)(C)C)C(=O)O[C@H]1[C@@H]([C@H]([C@H](CO1)O)O)O[C@H]1[C@@H]([C@@H]([C@H]([C@@H](O1)C)OC(=O)C)O)O)C)C)C)(C)C(=O)O)O[C@@H]1O[C@@H]([C@H]([C@@H]([C@H]1O)O[C@@H]1O[C@@H]([C@H]([C@@H]([C@H]1O)O)O)CO)O)CO)O" "InChI=InChI=1S/C55H86O26/c1-21-40(75-22(2)58)36(66)38(68)44(74-21)79-42-32(62)26(60)20-73-47(42)81-49(72)55-14-13-50(3,4)15-24(55)23-9-10-29-51(5)16-25(59)43(54(8,48(70)71)30(51)11-12-52(29,6)53(23,7)17-31(55)61)80-46-39(69)41(34(64)28(19-57)77-46)78-45-37(67)35(65)33(63)27(18-56)76-45/h9,21,24-47,56-57,59-69H,10-20H2,1-8H3,(H,70,71)/t21-,24-,25-,26-,27+,28+,29?,30?,31+,32-,33+,34+,35-,36-,37+,38+,39+,40-,41-,42+,43-,44-,45-,46-,47-,51+,52+,53+,54-,55+/m0/s1" "computed SMILES=O=C(O)C1(C)C(OC2OC(CO)C(O)C(OC3OC(CO)C(O)C(O)C3O)C2O)C(O)CC4(C)C1CCC5(C)C4CC=C6C7CC(C)(C)CCC7(C(=O)OC8OCC(O)C(O)C8OC9OC(C)C(OC(=O)C)C(O)C9O)C(O)CC65C" "license=License CC-BY-NC-SA 4.0 International" "author=Plant Biology, The Noble Foundation, Ardmore, OK, US/Dennis Fine, Daniel Wherritt, and Lloyd Sumner" "ionization=ESI" "peak width=0.02" "date=2015-02-06 00:51:17+01:00" "column=Waters Acquity BEH C18 1.7um x 2.1 x 150 mm" "retention time=805.8" "raw data file=C:\Data\2015Mar17 R108 A17 root aerial for poster\R108 aerial" "SPLASH=splash10-03di-0910041000-8ad6c0286f3b8f0ec6d8" "submitter=Aiko Barsch (Bruker)" "MoNA Rating=4.444444444444445"
Num Peaks: 102
247.0814 0.500501
289.0923 2.202202
319.1029 0.500501
329.2328 0.400400
420.2084 4.804805
420.7097 2.202202
421.2115 1.201201
559.2587 3.603604
559.7605 2.202202
560.2615 0.500501
580.2656 65.065065
580.7668 39.739740
581.2674 16.616617
581.7685 4.704705
582.2709 1.301301
591.2555 1.001001
591.7558 0.300300
603.2675 12.812813
603.7689 8.308308
604.2701 3.503504
604.7706 1.001001
614.2580 5.205205
614.7599 3.203203
615.2612 1.401401
615.7523 0.100100
622.2405 1.101101
622.7413 0.700701
629.7219 1.501502
630.2245 1.301301
630.7276 0.200200
637.2585 0.800801
637.7616 0.200200
841.4220 2.302302
842.4250 1.301301
1161.3593 0.100100
1161.3947 0.100100
1161.5338 100.000000
1162.0378 46.446446
1162.5372 71.671672
1163.0396 17.217217
1163.5385 23.623624
1164.0438 2.602603
1164.5406 5.705706
1165.5438 0.900901
1183.5424 0.800801
1184.0492 0.900901
1184.5413 0.800801
1185.0461 0.300300
1187.9890 1.001001
1188.4852 1.201201
1188.9904 0.500501
1195.5293 3.903904
1196.0283 4.804805
1196.5298 3.303303
1197.0302 1.601602
1197.5314 0.500501
1203.5027 0.500501
1204.0143 0.800801
1211.4984 1.901902
1211.9966 1.901902
1212.4996 1.501502
1212.9984 0.700701
1213.4916 0.100100
1220.5010 2.202202
1221.0033 2.802803
1221.5063 2.402402
1222.0040 1.501502
1222.5045 0.700701
1229.5176 5.405405
1230.0229 0.400400
1230.5198 3.703704
1231.5188 1.901902
1231.9929 0.600601
1232.4940 0.800801
1232.9866 0.100100
1260.4467 0.900901
1261.4556 1.501502
1262.4553 0.800801
1279.4646 0.500501
1549.0499 0.800801
1549.3834 2.102102
1549.7196 2.702703
1550.0520 2.402402
1550.3898 1.801802
1550.7258 1.001001
1551.0424 0.100100
1551.3975 0.100100
1556.7128 0.400400
1557.0448 0.400400
1557.3832 0.200200
1742.8002 3.903904
1743.3046 7.307307
1743.8080 7.407407
1744.3077 5.105105
1744.8101 2.902903
1745.3068 1.301301
1753.7819 0.300300
1754.2898 0.900901
1754.7896 1.101101
1755.2936 0.600601
1937.5725 0.400400
1937.8846 0.300300


Name: 3-(Glu(1-3)Glu)-28-(Rha(4-O-acetyl)(1-2)Ara) Zanhic acid
Synon: $:00in-source
DB#: MetaboBASE1237
InChIKey: BFDLDIKIPJXHON-QLFUKLNHSA-N
Instrument_type: LC-ESI-TOF
Instrument: impact HD
Ion_mode: N
Formula: C55H86O26
MW: 1162
ExactMass: 1162.5407328719998
Comments: "SMILES=[C@H]1([C@@H]([C@@](C2[C@](C1)(C1[C@@](CC2)([C@]2(C(=CC1)[C@H]1[C@@]([C@@H](C2)O)(CCC(C1)(C)C)C(=O)O[C@H]1[C@@H]([C@H]([C@H](CO1)O)O)O[C@H]1[C@@H]([C@@H]([C@H]([C@@H](O1)C)OC(=O)C)O)O)C)C)C)(C)C(=O)O)O[C@@H]1O[C@@H]([C@H]([C@@H]([C@H]1O)O[C@@H]1O[C@@H]([C@H]([C@@H]([C@H]1O)O)O)CO)O)CO)O" "InChI=InChI=1S/C55H86O26/c1-21-40(75-22(2)58)36(66)38(68)44(74-21)79-42-32(62)26(60)20-73-47(42)81-49(72)55-14-13-50(3,4)15-24(55)23-9-10-29-51(5)16-25(59)43(54(8,48(70)71)30(51)11-12-52(29,6)53(23,7)17-31(55)61)80-46-39(69)41(34(64)28(19-57)77-46)78-45-37(67)35(65)33(63)27(18-56)76-45/h9,21,24-47,56-57,59-69H,10-20H2,1-8H3,(H,70,71)/t21-,24-,25-,26-,27+,28+,29?,30?,31+,32-,33+,34+,35-,36-,37+,38+,39+,40-,41-,42+,43-,44-,45-,46-,47-,51+,52+,53+,54-,55+/m0/s1" "computed SMILES=O=C(O)C1(C)C(OC2OC(CO)C(O)C(OC3OC(CO)C(O)C(O)C3O)C2O)C(O)CC4(C)C1CCC5(C)C4CC=C6C7CC(C)(C)CCC7(C(=O)OC8OCC(O)C(O)C8OC9OC(C)C(OC(=O)C)C(O)C9O)C(O)CC65C" "license=License CC-BY-NC-SA 4.0 International" "author=Plant Biology, The Noble Foundation, Ardmore, OK, US/Dennis Fine, Daniel Wherritt, and Lloyd Sumner" "ionization=ESI" "peak width=0.017" "date=2015-04-22 20:32:33+02:00" "column=Waters Acquity BEH C18 1.7um x 2.1 x 150 mm" "retention time=806.4" "raw data file=G:\Sumner Lab Data Management Workspace Jun2013\Projects\NSF-JST Metabolomics Nov2011-Sep2014\UPLC-MS-MSMS\Bonnie Watson\2015Apr22_BW21_MSMS_1-D,1_01_1932.d" "SPLASH=splash10-03di-0900040200-0c0da1c1543570c8a930" "submitter=Aiko Barsch (Bruker)" "MoNA Rating=3.888888888888889"
Num Peaks: 104
289.0921 1.601602
420.2080 3.803804
420.7111 1.801802
421.2119 0.500501
559.2584 2.802803
559.7587 1.701702
580.2653 50.450450
580.7664 31.631632
581.2677 13.213213
581.7680 3.703704
603.2670 9.309309
603.7684 5.605606
604.2699 2.202202
604.7702 0.800801
614.2568 2.002002
614.7592 1.101101
622.2405 1.001001
622.7432 0.600601
841.4221 2.102102
1124.5165 1.001001
1125.0194 1.101101
1125.5214 0.700701
1126.0210 0.400400
1161.3297 0.200200
1161.3682 0.100100
1161.5365 100.000000
1162.0386 59.059059
1162.2792 0.200200
1162.4196 0.100100
1162.5393 75.175175
1163.0414 22.622623
1163.4341 0.100100
1163.5410 23.423423
1164.0428 3.303303
1164.5430 4.704705
1165.0500 0.100100
1183.5471 0.600601
1184.0521 0.700701
1184.5455 0.700701
1185.0515 0.300300
1188.4935 0.700701
1188.9872 0.500501
1195.5247 2.702703
1196.0310 3.303303
1196.5345 2.302302
1197.0334 1.201201
1198.5430 0.500501
1199.0498 0.600601
1203.5051 0.800801
1204.0144 1.101101
1204.5114 0.100100
1211.4933 1.201201
1212.0004 1.101101
1212.5061 0.200200
1220.5022 1.701702
1221.0027 1.701702
1221.4991 1.501502
1222.0009 0.900901
1222.4926 0.100100
1229.5203 2.102102
1230.0197 0.300300
1230.5209 1.501502
1231.5114 0.100100
1549.0537 2.602603
1549.3883 5.905906
1549.7256 7.207207
1550.0583 7.407407
1550.3945 5.105105
1550.7277 3.103103
1551.0577 1.501502
1551.3929 0.800801
1556.3672 0.500501
1556.6771 0.100100
1556.7189 0.900901
1557.0479 1.201201
1557.3895 1.101101
1557.7194 0.800801
1558.0568 0.500501
1558.3721 0.100100
1742.8096 9.309309
1743.3136 16.116116
1743.5380 0.100100
1743.8168 16.316316
1744.0530 0.100100
1744.3164 11.411411
1744.6816 0.100100
1744.8179 6.506507
1745.3168 3.003003
1745.8210 1.401401
1746.3204 0.300300
1753.8062 0.600601
1754.3030 1.301301
1754.8069 1.501502
1755.3019 1.001001
1936.5820 0.800801
1936.9070 1.701702
1937.2373 2.902903
1937.5758 3.203203
1937.9131 3.003003
1938.2438 2.102102
1938.5796 1.301301
1938.9167 0.800801
1939.2480 0.400400
1939.5623 0.200200


Name: 3-Rha(1-2)Ara(1-2)GluA-22-DDMP Soyasaponenol B
Synon: $:00in-source
DB#: MetaboBASE1238
InChIKey: JNXGVLRHSYOTKM-DDSBHCDJSA-N
Spectrum_type: MS2
PrecursorMZ: 1037.533
Instrument_type: LC-ESI-TOF
Instrument: impact HD
Ion_mode: N
Collision_energy: 76.8786
Formula: C42H64O12
MW: 760
ExactMass: 760.4397774879999
Comments: "SMILES=C1[C@@H]([C@@](C2[C@](C1)(C1[C@@](CC2)([C@]2(C(=CC1)[C@H]1[C@@](CC2)([C@@H](CC(C1)(C)C)OC1OC(=C(C(=O)C1)O)C)C)C)C)C)(CO)C)O[C@@H]1O[C@@H]([C@H]([C@@H]([C@H]1O)O)O)C(=O)O" "InChI=InChI=1S/C42H64O12/c1-21-30(45)24(44)17-29(51-21)52-28-19-37(2,3)18-23-22-9-10-26-39(5)13-12-27(53-36-33(48)31(46)32(47)34(54-36)35(49)50)40(6,20-43)25(39)11-14-42(26,8)41(22,7)16-15-38(23,28)4/h9,23,25-29,31-34,36,43,45-48H,10-20H2,1-8H3,(H,49,50)/t23-,25?,26?,27-,28+,29?,31-,32-,33+,34-,36+,38+,39-,40+,41+,42+/m0/s1" "computed SMILES=O=C(O)C1OC(OC2CCC3(C)C4CC=C5C6CC(C)(C)CC(OC7OC(=C(O)C(=O)C7)C)C6(C)CCC5(C)C4(C)CCC3C2(C)CO)C(O)C(O)C1O" "license=License CC-BY-NC-SA 4.0 International" "author=Plant Biology, The Noble Foundation, Ardmore, OK, US/Dennis Fine, Daniel Wherritt, and Lloyd Sumner" "ionization=ESI" "peak width=0.021" "date=2015-04-22 20:32:33+02:00" "column=Waters Acquity BEH C18 1.7um x 2.1 x 150 mm" "retention time=1144.8" "raw data file=G:\Sumner Lab Data Management Workspace Jun2013\Projects\NSF-JST Metabolomics Nov2011-Sep2014\UPLC-MS-MSMS\Bonnie Watson\2015Apr22_BW21_MSMS_1-D,1_01_1932.d" "SPLASH=splash10-000i-9710010001-4d41ea20d68cd5712f83" "submitter=Aiko Barsch (Bruker)" "MoNA Rating=3.125"
Num Peaks: 37
99.0083 19.319319
101.0239 6.806807
103.0394 2.502503
112.0157 2.602603
113.0244 53.153153
114.0263 1.101101
115.0395 8.408408
119.0352 1.801802
125.0239 21.521522
129.0191 1.001001
131.0343 25.425425
132.0408 1.401401
139.0029 5.405405
143.0348 20.620621
145.0515 2.202202
157.0142 10.410410
163.0597 11.011011
205.0709 25.025025
206.0767 0.700701
247.0794 3.603604
435.1103 1.201201
453.1173 0.700701
457.3645 3.103103
535.3787 2.602603
581.3862 0.900901
583.3989 29.629630
584.4012 10.710711
697.4268 7.907908
741.4198 11.911912
742.4167 1.301301
891.4796 1.501502
937.4868 2.002002
937.5154 13.513514
938.5114 6.506507
1037.5294 100.000000
1038.5321 60.060060
1039.5327 18.018018


Name: 3-Rha(1-2)Ara(1-2)GluA-22-DDMP Soyasaponenol B
Synon: $:00in-source
DB#: MetaboBASE1239
InChIKey: JNXGVLRHSYOTKM-DDSBHCDJSA-N
Instrument_type: LC-ESI-TOF
Instrument: impact HD
Ion_mode: N
Formula: C42H64O12
MW: 760
ExactMass: 760.4397774879999
Comments: "SMILES=C1[C@@H]([C@@](C2[C@](C1)(C1[C@@](CC2)([C@]2(C(=CC1)[C@H]1[C@@](CC2)([C@@H](CC(C1)(C)C)OC1OC(=C(C(=O)C1)O)C)C)C)C)C)(CO)C)O[C@@H]1O[C@@H]([C@H]([C@@H]([C@H]1O)O)O)C(=O)O" "InChI=InChI=1S/C42H64O12/c1-21-30(45)24(44)17-29(51-21)52-28-19-37(2,3)18-23-22-9-10-26-39(5)13-12-27(53-36-33(48)31(46)32(47)34(54-36)35(49)50)40(6,20-43)25(39)11-14-42(26,8)41(22,7)16-15-38(23,28)4/h9,23,25-29,31-34,36,43,45-48H,10-20H2,1-8H3,(H,49,50)/t23-,25?,26?,27-,28+,29?,31-,32-,33+,34-,36+,38+,39-,40+,41+,42+/m0/s1" "computed SMILES=O=C(O)C1OC(OC2CCC3(C)C4CC=C5C6CC(C)(C)CC(OC7OC(=C(O)C(=O)C7)C)C6(C)CCC5(C)C4(C)CCC3C2(C)CO)C(O)C(O)C1O" "license=License CC-BY-NC-SA 4.0 International" "author=Plant Biology, The Noble Foundation, Ardmore, OK, US/Dennis Fine, Daniel Wherritt, and Lloyd Sumner" "ionization=ESI" "peak width=0.018" "date=2015-04-22 20:32:33+02:00" "column=Waters Acquity BEH C18 1.7um x 2.1 x 150 mm" "retention time=1144.8" "raw data file=G:\Sumner Lab Data Management Workspace Jun2013\Projects\NSF-JST Metabolomics Nov2011-Sep2014\UPLC-MS-MSMS\Bonnie Watson\2015Apr22_BW21_MSMS_1-D,1_01_1932.d" "SPLASH=splash10-000i-9000010000-c5d33d4240999140b24d" "submitter=Aiko Barsch (Bruker)" "MoNA Rating=3.888888888888889"
Num Peaks: 42
1037.5330 100.000000
1038.3927 0.100100
1038.5359 61.961962
1039.5371 23.523524
1040.5394 6.406406
1053.5264 2.602603
1054.5302 1.701702
1067.5420 3.203203
1068.5471 1.901902
1071.5410 1.101101
1073.5121 2.202202
1083.5350 6.006006
1084.5414 3.603604
1105.5195 6.106106
1106.5206 3.903904
1155.4595 2.302302
1156.4659 0.300300
1167.4901 2.502503
1168.4908 0.300300
1556.8044 2.202202
1557.3051 4.204204
1557.8082 3.703704
1558.3059 2.802803
1558.8131 1.401401
1559.3137 0.500501
1571.8074 1.801802
1572.3126 3.503504
1572.8093 3.503504
1573.3180 2.302302
1573.8175 1.201201
1574.3069 0.700701
1587.3242 1.001001
1587.8230 0.900901
1588.3151 0.600601
2076.0720 2.502503
2076.5911 0.800801
2077.0896 3.403403
2077.5796 0.600601
2078.0835 2.102102
2106.6006 0.100100
2107.0950 1.501502
2107.5542 0.100100


Name: 4'-O-(GlcA(1-2)GlcA) Apigenin
Synon: $:00in-source
DB#: MetaboBASE1240
InChIKey: NZZPSBRODDDVIU-DBFWEQBMSA-N
Instrument_type: LC-ESI-TOF
Instrument: impact HD
Ion_mode: N
Formula: C27H26O17
MW: 622
ExactMass: 622.116999372
Comments: "SMILES=c1(cc(c2c(c1)oc(cc2=O)c1ccc(cc1)O[C@@H]1O[C@@H]([C@H]([C@@H]([C@H]1O[C@H]1[C@@H]([C@H]([C@@H]([C@H](O1)C(=O)O)O)O)O)O)O)C(=O)O)O)O" "InChI=InChI=1S/C27H26O17/c28-9-5-11(29)15-12(30)7-13(41-14(15)6-9)8-1-3-10(4-2-8)40-27-23(19(34)18(33)22(43-27)25(38)39)44-26-20(35)16(31)17(32)21(42-26)24(36)37/h1-7,16-23,26-29,31-35H,(H,36,37)(H,38,39)/t16-,17-,18-,19-,20+,21-,22-,23+,26-,27+/m0/s1" "computed SMILES=O=C(O)C1OC(OC2C(O)C(O)C(OC2OC=3C=CC(=CC3)C=4OC=5C=C(O)C=C(O)C5C(=O)C4)C(=O)O)C(O)C(O)C1O" "license=License CC-BY-NC-SA 4.0 International" "author=Plant Biology, The Noble Foundation, Ardmore, OK, US/Dennis Fine, Daniel Wherritt, and Lloyd Sumner" "ionization=ESI" "peak width=0.014" "date=2015-04-28 00:51:35+02:00" "column=Waters Acquity BEH C18 1.7um x 2.1 x 150 mm" "retention time=300.24" "raw data file=C:\Data\Noble-Bruker MS libr eval complex mix\Data\Noble data\31Mar15_extended gradient\A17_A-Rt mix Noble27Apr15\2015Apr_A17AR 1-1mix Bremen_2-B,2_05_1980.d" "SPLASH=splash10-00di-0001009000-364472ab852bcf37d856" "submitter=Aiko Barsch (Bruker)" "MoNA Rating=3.888888888888889"
Num Peaks: 27
269.0444 8.608609
270.0476 0.200200
351.0562 27.927928
352.0588 4.004004
353.0612 0.200200
399.1635 1.201201
621.1104 100.000000
622.0555 0.100100
622.1132 32.832833
623.1153 8.808809
624.1176 2.402402
639.1929 14.314314
640.0815 0.800801
640.1957 5.105105
640.5806 0.200200
641.0879 0.200200
641.1998 2.002002
643.0905 10.910911
644.0931 4.204204
645.0954 0.500501
721.0323 4.404404
722.0356 1.801802
723.0394 0.500501
1243.2271 4.904905
1243.7184 0.200200
1244.2261 3.203203
1245.2355 0.800801


Name: 4'-O-(GlcA(1-2)GlcA) Apigenin
Synon: $:00in-source
DB#: MetaboBASE1241
InChIKey: NZZPSBRODDDVIU-DBFWEQBMSA-N
Instrument_type: LC-ESI-TOF
Instrument: impact HD
Ion_mode: N
Formula: C27H26O17
MW: 622
ExactMass: 622.116999372
Comments: "SMILES=c1(cc(c2c(c1)oc(cc2=O)c1ccc(cc1)O[C@@H]1O[C@@H]([C@H]([C@@H]([C@H]1O[C@H]1[C@@H]([C@H]([C@@H]([C@H](O1)C(=O)O)O)O)O)O)O)C(=O)O)O)O" "InChI=InChI=1S/C27H26O17/c28-9-5-11(29)15-12(30)7-13(41-14(15)6-9)8-1-3-10(4-2-8)40-27-23(19(34)18(33)22(43-27)25(38)39)44-26-20(35)16(31)17(32)21(42-26)24(36)37/h1-7,16-23,26-29,31-35H,(H,36,37)(H,38,39)/t16-,17-,18-,19-,20+,21-,22-,23+,26-,27+/m0/s1" "computed SMILES=O=C(O)C1OC(OC2C(O)C(O)C(OC2OC=3C=CC(=CC3)C=4OC=5C=C(O)C=C(O)C5C(=O)C4)C(=O)O)C(O)C(O)C1O" "license=License CC-BY-NC-SA 4.0 International" "author=Plant Biology, The Noble Foundation, Ardmore, OK, US/Dennis Fine, Daniel Wherritt, and Lloyd Sumner" "ionization=ESI" "peak width=0.026" "date=2015-04-28 00:51:35+02:00" "column=Waters Acquity BEH C18 1.7um x 2.1 x 150 mm" "retention time=300.24" "raw data file=C:\Data\Noble-Bruker MS libr eval complex mix\Data\Noble data\31Mar15_extended gradient\A17_A-Rt mix Noble27Apr15\2015Apr_A17AR 1-1mix Bremen_2-B,2_05_1980.d" "SPLASH=splash10-00di-0000009000-a2c3a75bd2886ab4a562" "submitter=Aiko Barsch (Bruker)" "MoNA Rating=3.888888888888889"
Num Peaks: 22
269.045 6.006006
351.057 17.317317
352.059 2.402402
387.204 1.301301
417.118 3.303303
613.177 23.623624
614.182 7.407407
615.187 1.701702
621.111 100.000000
622.114 32.632633
623.117 8.508509
624.117 1.601602
635.157 2.102102
639.194 2.702703
643.092 16.016016
644.096 5.105105
645.095 1.701702
705.062 1.801802
711.078 1.701702
721.034 3.603604
1243.227 3.903904
1244.228 2.402402


Name: 4'-O-(GlcA(1-2)GlcA) Apigenin
Synon: $:00in-source
DB#: MetaboBASE1242
InChIKey: NZZPSBRODDDVIU-DBFWEQBMSA-N
Precursor_type: [M-H]-
Spectrum_type: MS2
PrecursorMZ: 621.1104
Instrument_type: LC-ESI-TOF
Instrument: impact HD
Ion_mode: N
Collision_energy: 42.0426
Formula: C27H26O17
MW: 622
ExactMass: 622.116999372
Comments: "SMILES=c1(cc(c2c(c1)oc(cc2=O)c1ccc(cc1)O[C@@H]1O[C@@H]([C@H]([C@@H]([C@H]1O[C@H]1[C@@H]([C@H]([C@@H]([C@H](O1)C(=O)O)O)O)O)O)O)C(=O)O)O)O" "InChI=InChI=1S/C27H26O17/c28-9-5-11(29)15-12(30)7-13(41-14(15)6-9)8-1-3-10(4-2-8)40-27-23(19(34)18(33)22(43-27)25(38)39)44-26-20(35)16(31)17(32)21(42-26)24(36)37/h1-7,16-23,26-29,31-35H,(H,36,37)(H,38,39)/t16-,17-,18-,19-,20+,21-,22-,23+,26-,27+/m0/s1" "computed SMILES=O=C(O)C1OC(OC2C(O)C(O)C(OC2OC=3C=CC(=CC3)C=4OC=5C=C(O)C=C(O)C5C(=O)C4)C(=O)O)C(O)C(O)C1O" "license=License CC-BY-NC-SA 4.0 International" "author=Plant Biology, The Noble Foundation, Ardmore, OK, US/Dennis Fine, Daniel Wherritt, and Lloyd Sumner" "ionization=ESI" "collision energy 2=70.0711" "peak width=0.018" "date=2015-04-28 00:51:35+02:00" "column=Waters Acquity BEH C18 1.7um x 2.1 x 150 mm" "retention time=300.24" "raw data file=C:\Data\Noble-Bruker MS libr eval complex mix\Data\Noble data\31Mar15_extended gradient\A17_A-Rt mix Noble27Apr15\2015Apr_A17AR 1-1mix Bremen_2-B,2_05_1980.d" "computed mass accuracy=1.0893844315998227" "computed mass error=6.766280000647384E-4" "SPLASH=splash10-0i00-0985000000-bc0ca647c8fda0bf2219" "submitter=Aiko Barsch (Bruker)" "MoNA Rating=4.583333333333334"
Num Peaks: 17
99.0072 13.313313
101.0247 1.301301
103.0027 7.407407
113.0237 62.262262
114.0266 0.700701
115.0024 2.902903
117.0193 1.501502
131.0346 1.301301
157.0143 4.604605
175.0235 14.714715
193.0340 30.330330
235.0449 5.005005
269.0442 100.000000
270.0475 12.812813
289.0568 8.808809
351.0558 65.965966
352.0593 6.306306


Name: 5-Glc tricin
Synon: $:00in-source
DB#: MetaboBASE1243
InChIKey: FLSOTPIEFVBPBU-LDBVRRDLSA-N
Instrument_type: LC-ESI-TOF
Instrument: impact HD
Ion_mode: N
Formula: C23H24O12
MW: 492
ExactMass: 492.12677620799997
Comments: "SMILES=c1(cc(c2c(c1)oc(cc2=O)c1cc(c(c(c1)OC)O)OC)O[C@@H]1O[C@@H]([C@H]([C@@H]([C@H]1O)O)O)CO)O" "InChI=InChI=1S/C23H24O12/c1-31-15-3-9(4-16(32-2)19(15)27)12-7-11(26)18-13(33-12)5-10(25)6-14(18)34-23-22(30)21(29)20(28)17(8-24)35-23/h3-7,17,20-25,27-30H,8H2,1-2H3/t17-,20-,21+,22-,23-/m1/s1" "computed SMILES=O=C1C=C(OC2=CC(O)=CC(OC3OC(CO)C(O)C(O)C3O)=C12)C=4C=C(OC)C(O)=C(OC)C4" "license=License CC-BY-NC-SA 4.0 International" "author=Plant Biology, The Noble Foundation, Ardmore, OK, US/Dennis Fine, Daniel Wherritt, and Lloyd Sumner" "ionization=ESI" "peak width=0.021" "date=2015-04-28 00:51:35+02:00" "column=Waters Acquity BEH C18 1.7um x 2.1 x 150 mm" "retention time=375.6" "raw data file=C:\Data\Noble-Bruker MS libr eval complex mix\Data\Noble data\31Mar15_extended gradient\A17_A-Rt mix Noble27Apr15\2015Apr_A17AR 1-1mix Bremen_2-B,2_05_1980.d" "SPLASH=splash10-0006-0000900000-521af3b9ba496dcbf384" "submitter=Aiko Barsch (Bruker)" "MoNA Rating=3.888888888888889"
Num Peaks: 19
270.0500 2.702703
270.0931 0.300300
271.0603 0.100100
409.1065 0.100100
409.2073 1.401401
409.2299 0.100100
490.7992 0.100100
490.8402 0.200200
490.9271 0.200200
490.9901 0.100100
491.0737 0.900901
491.1196 100.000000
491.5557 0.200200
491.8256 0.100100
492.0202 0.100100
492.0581 0.200200
492.0833 0.200200
492.1220 21.421421
493.1252 1.101101


Name: 5-Glc tricin
Synon: $:00in-source
DB#: MetaboBASE1244
InChIKey: FLSOTPIEFVBPBU-LDBVRRDLSA-N
Instrument_type: LC-ESI-TOF
Instrument: impact HD
Ion_mode: N
Formula: C23H24O12
MW: 492
ExactMass: 492.12677620799997
Comments: "SMILES=c1(cc(c2c(c1)oc(cc2=O)c1cc(c(c(c1)OC)O)OC)O[C@@H]1O[C@@H]([C@H]([C@@H]([C@H]1O)O)O)CO)O" "InChI=InChI=1S/C23H24O12/c1-31-15-3-9(4-16(32-2)19(15)27)12-7-11(26)18-13(33-12)5-10(25)6-14(18)34-23-22(30)21(29)20(28)17(8-24)35-23/h3-7,17,20-25,27-30H,8H2,1-2H3/t17-,20-,21+,22-,23-/m1/s1" "computed SMILES=O=C1C=C(OC2=CC(O)=CC(OC3OC(CO)C(O)C(O)C3O)=C12)C=4C=C(OC)C(O)=C(OC)C4" "license=License CC-BY-NC-SA 4.0 International" "author=Plant Biology, The Noble Foundation, Ardmore, OK, US/Dennis Fine, Daniel Wherritt, and Lloyd Sumner" "ionization=ESI" "peak width=0.012" "date=2015-04-28 00:51:35+02:00" "column=Waters Acquity BEH C18 1.7um x 2.1 x 150 mm" "retention time=375.6" "raw data file=C:\Data\Noble-Bruker MS libr eval complex mix\Data\Noble data\31Mar15_extended gradient\A17_A-Rt mix Noble27Apr15\2015Apr_A17AR 1-1mix Bremen_2-B,2_05_1980.d" "SPLASH=splash10-0006-0000900002-2e9617c9413f92c200b7" "submitter=Aiko Barsch (Bruker)" "MoNA Rating=3.888888888888889"
Num Peaks: 28
116.9281 1.001001
271.0605 0.500501
406.1982 0.600601
490.1116 10.310310
491.1205 100.000000
492.1233 28.728729
493.1254 6.306306
494.1266 1.101101
590.0364 1.201201
591.0398 0.300300
621.0778 0.900901
622.0748 0.100100
623.1606 0.600601
636.0402 0.800801
982.2363 2.402402
983.2467 26.726727
984.2501 14.414414
985.2521 5.105105
986.2524 1.401401
987.2429 0.100100
1005.2263 2.002002
1006.2322 1.001001
1007.2338 0.200200
1474.3646 1.001001
1475.3772 6.406406
1476.3734 4.704705
1477.3778 2.102102
1478.3840 0.800801


Name: 5-Glc tricin
Synon: $:00in-source
DB#: MetaboBASE1245
InChIKey: FLSOTPIEFVBPBU-LDBVRRDLSA-N
Precursor_type: [M-H]-
Spectrum_type: MS2
PrecursorMZ: 491.1205
Instrument_type: LC-ESI-TOF
Instrument: impact HD
Ion_mode: N
Collision_energy: 37.0017
Formula: C23H24O12
MW: 492
ExactMass: 492.12677620799997
Comments: "SMILES=c1(cc(c2c(c1)oc(cc2=O)c1cc(c(c(c1)OC)O)OC)O[C@@H]1O[C@@H]([C@H]([C@@H]([C@H]1O)O)O)CO)O" "InChI=InChI=1S/C23H24O12/c1-31-15-3-9(4-16(32-2)19(15)27)12-7-11(26)18-13(33-12)5-10(25)6-14(18)34-23-22(30)21(29)20(28)17(8-24)35-23/h3-7,17,20-25,27-30H,8H2,1-2H3/t17-,20-,21+,22-,23-/m1/s1" "computed SMILES=O=C1C=C(OC2=CC(O)=CC(OC3OC(CO)C(O)C(O)C3O)=C12)C=4C=C(OC)C(O)=C(OC)C4" "license=License CC-BY-NC-SA 4.0 International" "author=Plant Biology, The Noble Foundation, Ardmore, OK, US/Dennis Fine, Daniel Wherritt, and Lloyd Sumner" "ionization=ESI" "collision energy 2=61.6696" "peak width=0.016" "date=2015-04-28 00:51:35+02:00" "column=Waters Acquity BEH C18 1.7um x 2.1 x 150 mm" "retention time=375.6" "raw data file=C:\Data\Noble-Bruker MS libr eval complex mix\Data\Noble data\31Mar15_extended gradient\A17_A-Rt mix Noble27Apr15\2015Apr_A17AR 1-1mix Bremen_2-B,2_05_1980.d" "computed mass accuracy=2.0357366471486866" "computed mass error=9.997920000159866E-4" "SPLASH=splash10-004i-0059000000-ac143d50ef411d55bbfa" "submitter=Aiko Barsch (Bruker)" "MoNA Rating=4.583333333333334"
Num Peaks: 53
107.0123 0.200200
151.0027 1.001001
161.0243 0.200200
215.0306 0.300300
226.0267 1.901902
227.0333 3.103103
228.0384 0.400400
229.0155 0.200200
239.0338 0.100100
241.0501 0.700701
242.0216 0.700701
242.0504 0.200200
243.0291 5.705706
244.0335 0.700701
253.0100 0.100100
255.0287 2.502503
256.0366 0.300300
257.0421 0.100100
269.0449 0.500501
270.0165 2.202202
270.0474 0.100100
271.0245 29.529530
272.0276 4.404404
283.0228 0.300300
284.0316 1.101101
285.0399 6.406406
285.0755 0.400400
286.0444 0.900901
297.0387 0.800801
299.0194 42.442442
300.0231 11.411411
300.0629 0.600601
301.0281 1.501502
312.0248 0.300300
313.0344 7.407407
314.0425 27.027027
315.0476 7.007007
316.0521 1.001001
327.0484 0.900901
328.0578 2.302302
329.0665 100.000000
330.0692 19.119119
331.0707 2.502503
343.0782 0.200200
371.0768 2.002002
372.0778 0.300300
447.0934 1.001001
461.0711 1.701702
475.0878 3.303303
476.0951 2.302302
477.0953 0.500501
491.1171 7.707708
492.1219 2.002002


Name: 7-GlcA tricin
Synon: $:00in-source
DB#: MetaboBASE1246
InChIKey: HJWFFBNADKDQPV-KHYDEXNFSA-N
Precursor_type: [M-H]-
Spectrum_type: MS2
PrecursorMZ: 505.0992
Instrument_type: LC-ESI-TOF
Instrument: impact HD
Ion_mode: N
Collision_energy: 37.692
Formula: C23H22O13
MW: 506
ExactMass: 506.106040764
Comments: "SMILES=c1(cc(c2c(c1)oc(cc2=O)c1cc(c(c(c1)OC)O)OC)O)O[C@@H]1O[C@@H]([C@H]([C@@H]([C@H]1O)O)O)C(=O)O" "InChI=InChI=1S/C23H22O13/c1-32-14-3-8(4-15(33-2)17(14)26)12-7-11(25)16-10(24)5-9(6-13(16)35-12)34-23-20(29)18(27)19(28)21(36-23)22(30)31/h3-7,18-21,23-24,26-29H,1-2H3,(H,30,31)/t18-,19-,20+,21-,23+/m0/s1" "computed SMILES=O=C(O)C1OC(OC2=CC(O)=C3C(=O)C=C(OC3=C2)C=4C=C(OC)C(O)=C(OC)C4)C(O)C(O)C1O" "license=License CC-BY-NC-SA 4.0 International" "author=Plant Biology, The Noble Foundation, Ardmore, OK, US/Dennis Fine, Daniel Wherritt, and Lloyd Sumner" "ionization=ESI" "collision energy 2=62.82" "peak width=0.017" "date=2015-04-28 00:51:35+02:00" "column=Waters Acquity BEH C18 1.7um x 2.1 x 150 mm" "retention time=426.6" "raw data file=C:\Data\Noble-Bruker MS libr eval complex mix\Data\Noble data\31Mar15_extended gradient\A17_A-Rt mix Noble27Apr15\2015Apr_A17AR 1-1mix Bremen_2-B,2_05_1980.d" "computed mass accuracy=0.8616841998305905" "computed mass error=4.352359999870714E-4" "SPLASH=splash10-0201-0069000000-9f9598c3253b43f12725" "submitter=Aiko Barsch (Bruker)" "MoNA Rating=4.615384615384616"
Num Peaks: 26
99.0075 2.602603
113.0232 6.606607
117.0196 1.001001
227.0336 1.101101
242.0208 1.001001
243.0303 1.401401
268.0364 0.700701
270.0161 1.901902
271.0240 63.463463
272.0277 11.011011
273.0333 0.400400
285.0400 9.009009
286.0428 0.300300
297.0403 0.700701
299.0189 65.365365
300.0229 16.216216
301.0259 0.500501
313.0347 15.715716
314.0417 48.348348
315.0454 8.808809
316.0443 0.300300
327.0499 0.300300
328.0558 4.104104
329.0657 100.000000
330.0692 20.520521
331.0689 1.501502


Name: 7-GlcA tricin
Synon: $:00in-source
DB#: MetaboBASE1247
InChIKey: HJWFFBNADKDQPV-KHYDEXNFSA-N
Precursor_type: [2M-H]-
Spectrum_type: MS2
PrecursorMZ: 1011.205
Instrument_type: LC-ESI-TOF
Instrument: impact HD
Ion_mode: N
Collision_energy: 56.6718
Formula: C23H22O13
MW: 506
ExactMass: 506.106040764
Comments: "SMILES=c1(cc(c2c(c1)oc(cc2=O)c1cc(c(c(c1)OC)O)OC)O)O[C@@H]1O[C@@H]([C@H]([C@@H]([C@H]1O)O)O)C(=O)O" "InChI=InChI=1S/C23H22O13/c1-32-14-3-8(4-15(33-2)17(14)26)12-7-11(25)16-10(24)5-9(6-13(16)35-12)34-23-20(29)18(27)19(28)21(36-23)22(30)31/h3-7,18-21,23-24,26-29H,1-2H3,(H,30,31)/t18-,19-,20+,21-,23+/m0/s1" "computed SMILES=O=C(O)C1OC(OC2=CC(O)=C3C(=O)C=C(OC3=C2)C=4C=C(OC)C(O)=C(OC)C4)C(O)C(O)C1O" "license=License CC-BY-NC-SA 4.0 International" "author=Plant Biology, The Noble Foundation, Ardmore, OK, US/Dennis Fine, Daniel Wherritt, and Lloyd Sumner" "ionization=ESI" "collision energy 2=94.4529" "peak width=0.016" "date=2015-04-28 00:51:35+02:00" "column=Waters Acquity BEH C18 1.7um x 2.1 x 150 mm" "retention time=426.6" "raw data file=C:\Data\Noble-Bruker MS libr eval complex mix\Data\Noble data\31Mar15_extended gradient\A17_A-Rt mix Noble27Apr15\2015Apr_A17AR 1-1mix Bremen_2-B,2_05_1980.d" "computed mass accuracy=0.19231708712799384" "computed mass error=1.9447200008926302E-4" "SPLASH=splash10-01t9-0019000000-73b5245414a08b63304c" "submitter=Aiko Barsch (Bruker)" "MoNA Rating=4.615384615384616"
Num Peaks: 33
99.0075 1.101101
103.0014 0.400400
103.0040 0.100100
113.0236 10.310310
115.0015 0.400400
117.0189 0.500501
129.0181 0.200200
175.0239 3.503504
176.0274 0.100100
270.0205 0.300300
271.0171 0.200200
271.0240 5.905906
272.0290 0.800801
285.0390 3.703704
299.0188 23.323323
300.0241 5.305305
301.0292 0.200200
313.0349 11.311311
314.0415 36.436436
315.0459 6.706707
327.0497 0.400400
328.0573 13.413413
329.0663 100.000000
330.0691 16.416416
331.0457 1.601602
331.0699 2.102102
341.0632 0.700701
371.0749 0.700701
401.0872 0.200200
443.0972 0.600601
504.0954 0.300300
505.0968 9.409409
506.1006 2.802803


Name: 7-GlcA tricin
Synon: $:00in-source
DB#: MetaboBASE1248
InChIKey: HJWFFBNADKDQPV-KHYDEXNFSA-N
Instrument_type: LC-ESI-TOF
Instrument: impact HD
Ion_mode: N
Formula: C23H22O13
MW: 506
ExactMass: 506.10604076399994
Comments: "SMILES=c1(cc(c2c(c1)oc(cc2=O)c1cc(c(c(c1)OC)O)OC)O)O[C@@H]1O[C@@H]([C@H]([C@@H]([C@H]1O)O)O)C(=O)O" "InChI=InChI=1S/C23H22O13/c1-32-14-3-8(4-15(33-2)17(14)26)12-7-11(25)16-10(24)5-9(6-13(16)35-12)34-23-20(29)18(27)19(28)21(36-23)22(30)31/h3-7,18-21,23-24,26-29H,1-2H3,(H,30,31)/t18-,19-,20+,21-,23+/m0/s1" "computed SMILES=O=C(O)C1OC(OC2=CC(O)=C3C(=O)C=C(OC3=C2)C=4C=C(OC)C(O)=C(OC)C4)C(O)C(O)C1O" "license=License CC-BY-NC-SA 4.0 International" "author=Plant Biology, The Noble Foundation, Ardmore, OK, US/Dennis Fine, Daniel Wherritt, and Lloyd Sumner" "ionization=ESI" "peak width=0.014" "date=2015-04-28 00:51:35+02:00" "column=Waters Acquity BEH C18 1.7um x 2.1 x 150 mm" "retention time=426.6" "raw data file=C:\Data\Noble-Bruker MS libr eval complex mix\Data\Noble data\31Mar15_extended gradient\A17_A-Rt mix Noble27Apr15\2015Apr_A17AR 1-1mix Bremen_2-B,2_05_1980.d" "SPLASH=splash10-08fr-9002081000-423610302c0fed7df725" "submitter=Aiko Barsch (Bruker)" "MoNA Rating=3.888888888888889"
Num Peaks: 53
271.0952 0.900901
313.0345 2.302302
313.0706 0.200200
314.0410 0.200200
328.0578 3.203203
329.0660 26.326326
330.0690 4.904905
331.0446 0.300300
331.0712 0.200200
489.0660 4.704705
490.0709 0.400400
503.2479 2.602603
504.0902 7.107107
504.2522 0.900901
505.0356 0.100100
505.0992 100.000000
505.2565 0.100100
506.1017 29.529530
507.0999 6.806807
508.0846 0.300300
508.1034 0.300300
527.0798 4.504505
528.0833 0.400400
549.2555 2.102102
583.1434 2.402402
584.1469 0.200200
588.9891 0.400400
589.0517 1.801802
590.0554 0.200200
605.0232 10.810811
606.0250 3.803804
607.0233 1.701702
608.0239 0.200200
650.0204 2.602603
651.0231 0.500501
967.2116 1.001001
968.2119 0.200200
995.1738 5.005005
996.1765 2.502503
997.1799 1.001001
1010.1956 12.212212
1010.3470 0.200200
1011.2045 76.476476
1011.3403 0.100100
1012.2078 42.142142
1013.2066 16.716717
1014.2056 5.105105
1015.2010 0.800801
1033.1864 6.006006
1034.1892 3.103103
1035.1901 0.800801
1064.1133 1.901902
1065.1217 0.900901


Name: 3-Glc(1-2)Glc(1-2)Glc-28-Api(1-3)Xyl(1-4)[Api(1-3)]Rha(1-2)Ara Zanhic acid
Synon: $:00in-source
DB#: MetaboBASE1249
InChIKey: VNHLGJLOJBJFGV-OMOYKTNYSA-N
Instrument_type: LC-ESI-TOF
Instrument: impact HD
Ion_mode: N
Formula: C74H118O42
MW: 1678
ExactMass: 1678.7097678159998
Comments: "SMILES=[C@H]1([C@@H]([C@@](C2[C@](C1)(C1[C@@](CC2)([C@]2(C(=CC1)[C@H]1[C@@]([C@@H](C2)O)(CCC(C1)(C)C)C(=O)O[C@H]1[C@@H]([C@H]([C@H](CO1)O)O)O[C@H]1[C@@H]([C@@H]([C@H]([C@@H](O1)C)O[C@H]1[C@@H]([C@H]([C@@H](CO1)O)O[C@@H]1OC[C@@]([C@H]1O)(CO)O)O)O[C@@H]1OC[C@]([C@H]1O)(O)CO)O)C)C)C)(C)C(=O)O)O[C@@H]1O[C@@H]([C@H]([C@@H]([C@H]1O[C@@H]1O[C@@H]([C@H]([C@@H]([C@H]1O[C@@H]1O[C@@H]([C@H]([C@@H]([C@H]1O)O)O)CO)O)O)CO)O)O)CO)O" "InChI=InChI=1S/C74H118O42/c1-26-48(109-57-46(92)49(31(82)21-101-57)110-63-54(94)72(99,22-78)24-103-63)50(111-64-55(95)73(100,23-79)25-104-64)47(93)59(105-26)112-51-38(84)30(81)20-102-60(51)116-66(98)74-13-12-67(2,3)14-28(74)27-8-9-35-68(4)15-29(80)56(71(7,65(96)97)36(68)10-11-69(35,5)70(27,6)16-37(74)83)115-62-53(44(90)41(87)34(19-77)108-62)114-61-52(43(89)40(86)33(18-76)107-61)113-58-45(91)42(88)39(85)32(17-75)106-58/h8,26,28-64,75-95,99-100H,9-25H2,1-7H3,(H,96,97)/t26-,28-,29-,30-,31+,32+,33+,34+,35?,36?,37+,38-,39+,40+,41+,42-,43-,44-,45+,46+,47+,48-,49-,50-,51+,52+,53+,54-,55-,56-,57-,58-,59-,60-,61-,62-,63-,64-,68+,69+,70+,71-,72+,73+,74+/m0/s1" "computed SMILES=O=C(O)C1(C)C(OC2OC(CO)C(O)C(O)C2OC3OC(CO)C(O)C(O)C3OC4OC(CO)C(O)C(O)C4O)C(O)CC5(C)C1CCC6(C)C5CC=C7C8CC(C)(C)CCC8(C(=O)OC9OCC(O)C(O)C9OC%10OC(C)C(OC%11OCC(O)C(OC%12OCC(O)(CO)C%12O)C%11O)C(OC%13OCC(O)(CO)C%13O)C%10O)C(O)CC76C" "license=License CC-BY-NC-SA 4.0 International" "author=Plant Biology, The Noble Foundation, Ardmore, OK, US/Dennis Fine, Daniel Wherritt, and Lloyd Sumner" "ionization=ESI" "peak width=0.019" "date=2015-01-15 20:34:31+01:00" "column=Waters Acquity BEH C18 1.7um x 2.1 x 150 mm" "retention time=660.6" "raw data file=C:\Data\Noble-Bruker MS libr eval complex mix\2015Jan15 A-17 aerial MSMS_1-F,4_01_1569.d" "SPLASH=splash10-004i-0000009110-09ca62e7a7e83dffb2f4" "submitter=Aiko Barsch (Bruker)" "MoNA Rating=3.888888888888889"
Num Peaks: 30
477.2380 0.400400
477.3631 1.101101
477.5255 0.800801
557.0016 0.800801
721.2948 2.902903
721.7923 1.801802
722.2964 1.901902
722.8032 0.600601
838.3521 15.715716
838.8494 12.612613
839.3524 7.007007
839.8481 2.402402
1537.6514 3.203203
1538.1453 6.106106
1538.6503 5.005005
1539.1482 2.702703
1539.6499 0.600601
1677.4413 0.500501
1677.6980 100.000000
1678.1893 1.701702
1678.7020 81.081081
1679.1632 0.400400
1679.7007 46.946947
1680.7015 16.316316
1681.7181 4.804805
1745.6860 12.012012
1746.5875 0.400400
1746.6823 8.308308
1747.6738 4.004004
1748.6805 0.700701


Name: 3-Glc(1-2)Glc(1-2)Glc-28-Api(1-3)Xyl(1-4)[Api(1-3)]Rha(1-2)Ara Zanhic acid
Synon: $:00in-source
DB#: MetaboBASE1250
InChIKey: VNHLGJLOJBJFGV-OMOYKTNYSA-N
Precursor_type: [M-H]-
Spectrum_type: MS2
PrecursorMZ: 1677.698
Instrument_type: LC-ESI-TOF
Instrument: impact HD
Ion_mode: N
Collision_energy: 105.924
Formula: C74H118O42
MW: 1678
ExactMass: 1678.7097678159998
Comments: "SMILES=[C@H]1([C@@H]([C@@](C2[C@](C1)(C1[C@@](CC2)([C@]2(C(=CC1)[C@H]1[C@@]([C@@H](C2)O)(CCC(C1)(C)C)C(=O)O[C@H]1[C@@H]([C@H]([C@H](CO1)O)O)O[C@H]1[C@@H]([C@@H]([C@H]([C@@H](O1)C)O[C@H]1[C@@H]([C@H]([C@@H](CO1)O)O[C@@H]1OC[C@@]([C@H]1O)(CO)O)O)O[C@@H]1OC[C@]([C@H]1O)(O)CO)O)C)C)C)(C)C(=O)O)O[C@@H]1O[C@@H]([C@H]([C@@H]([C@H]1O[C@@H]1O[C@@H]([C@H]([C@@H]([C@H]1O[C@@H]1O[C@@H]([C@H]([C@@H]([C@H]1O)O)O)CO)O)O)CO)O)O)CO)O" "InChI=InChI=1S/C74H118O42/c1-26-48(109-57-46(92)49(31(82)21-101-57)110-63-54(94)72(99,22-78)24-103-63)50(111-64-55(95)73(100,23-79)25-104-64)47(93)59(105-26)112-51-38(84)30(81)20-102-60(51)116-66(98)74-13-12-67(2,3)14-28(74)27-8-9-35-68(4)15-29(80)56(71(7,65(96)97)36(68)10-11-69(35,5)70(27,6)16-37(74)83)115-62-53(44(90)41(87)34(19-77)108-62)114-61-52(43(89)40(86)33(18-76)107-61)113-58-45(91)42(88)39(85)32(17-75)106-58/h8,26,28-64,75-95,99-100H,9-25H2,1-7H3,(H,96,97)/t26-,28-,29-,30-,31+,32+,33+,34+,35?,36?,37+,38-,39+,40+,41+,42-,43-,44-,45+,46+,47+,48-,49-,50-,51+,52+,53+,54-,55-,56-,57-,58-,59-,60-,61-,62-,63-,64-,68+,69+,70+,71-,72+,73+,74+/m0/s1" "computed SMILES=O=C(O)C1(C)C(OC2OC(CO)C(O)C(O)C2OC3OC(CO)C(O)C(O)C3OC4OC(CO)C(O)C(O)C4O)C(O)CC5(C)C1CCC6(C)C5CC=C7C8CC(C)(C)CCC8(C(=O)OC9OCC(O)C(O)C9OC%10OC(C)C(OC%11OCC(O)C(OC%12OCC(O)(CO)C%12O)C%11O)C(OC%13OCC(O)(CO)C%13O)C%10O)C(O)CC76C" "license=License CC-BY-NC-SA 4.0 International" "author=Plant Biology, The Noble Foundation, Ardmore, OK, US/Dennis Fine, Daniel Wherritt, and Lloyd Sumner" "ionization=ESI" "peak width=0.018" "date=2015-01-15 20:34:31+01:00" "column=Waters Acquity BEH C18 1.7um x 2.1 x 150 mm" "retention time=660.6" "raw data file=C:\Data\Noble-Bruker MS libr eval complex mix\2015Jan15 A-17 aerial MSMS_1-F,4_01_1569.d" "computed mass accuracy=2.677368632316192" "computed mass error=-0.004491815999699611" "SPLASH=splash10-0fb9-0001209000-ace0ae03da1c3a8eae09" "submitter=Aiko Barsch (Bruker)" "MoNA Rating=4.583333333333334"
Num Peaks: 27
113.0254 1.101101
149.0468 1.401401
221.0652 6.706707
263.0771 9.709710
337.1156 9.109109
383.1165 33.433433
384.1251 2.202202
409.1407 3.103103
455.3151 22.822823
456.3136 4.804805
469.1534 43.443443
470.1552 6.306306
541.1778 21.521522
542.1835 2.302302
601.1974 100.000000
602.2004 23.623624
603.2026 1.801802
673.2183 14.114114
674.2230 4.704705
1003.4775 12.312312
1004.4818 3.903904
1129.5402 9.709710
1677.6920 91.891892
1678.5742 1.901902
1678.6935 71.671672
1679.7064 33.333333
1680.6869 8.608609


Name: 3-((3'-Malonyl)GlcA)-28-Xyl(1-4)Rha(1-2)Ara Medicagenic acid
Synon: $:00in-source
DB#: MetaboBASE1251
InChIKey: IPLMQKWUDWDMPO-USYHJYQFSA-N
Instrument_type: LC-ESI-TOF
Instrument: impact HD
Ion_mode: N
Formula: C55H82O27
MW: 1174
ExactMass: 1174.504347364
Comments: "SMILES=[C@H]1([C@@H]([C@@](C2[C@](C1)(C1[C@@](CC2)([C@]2(C(=CC1)[C@H]1[C@@](CC2)(CCC(C1)(C)C)C(=O)O[C@H]1[C@@H]([C@H]([C@H](CO1)O)O)O[C@H]1[C@@H]([C@@H]([C@H]([C@@H](O1)C)O[C@H]1[C@@H]([C@H]([C@@H](CO1)O)O)O)O)O)C)C)C)(C)C(=O)O)O[C@@H]1O[C@@H]([C@H]([C@@H]([C@H]1O)OC(=O)CC(=O)O)O)C(=O)O)O" "InChI=InChI=1S/C55H82O27/c1-21-38(78-44-34(65)31(62)25(57)19-74-44)33(64)35(66)45(76-21)80-41-32(63)26(58)20-75-47(41)82-49(73)55-14-12-50(2,3)17-23(55)22-8-9-27-51(4)18-24(56)42(54(7,48(71)72)28(51)10-11-53(27,6)52(22,5)13-15-55)81-46-37(68)39(77-30(61)16-29(59)60)36(67)40(79-46)43(69)70/h8,21,23-28,31-42,44-47,56-58,62-68H,9-20H2,1-7H3,(H,59,60)(H,69,70)(H,71,72)/t21-,23-,24-,25+,26-,27?,28?,31-,32-,33-,34+,35+,36-,37+,38-,39-,40-,41+,42-,44-,45-,46-,47-,51+,52+,53+,54-,55-/m0/s1" "computed SMILES=O=C(O)CC(=O)OC1C(O)C(OC(C(=O)O)C1O)OC2C(O)CC3(C)C4CC=C5C6CC(C)(C)CCC6(C(=O)OC7OCC(O)C(O)C7OC8OC(C)C(OC9OCC(O)C(O)C9O)C(O)C8O)CCC5(C)C4(C)CCC3C2(C(=O)O)C" "license=License CC-BY-NC-SA 4.0 International" "author=Plant Biology, The Noble Foundation, Ardmore, OK, US/Dennis Fine, Daniel Wherritt, and Lloyd Sumner" "ionization=ESI" "peak width=0.022" "date=2014-12-08 16:36:29+01:00" "column=Waters Acquity BEH C18 1.7um x 2.1 x 150 mm" "retention time=837.6" "raw data file=C:\Data\2014Dec08_A17_aerial_msms_1-B,1_01_1378.d" "SPLASH=splash10-00di-0900010000-7e7cd588bf41978d7a4c" "submitter=Aiko Barsch (Bruker)" "MoNA Rating=3.888888888888889"
Num Peaks: 26
564.2520 15.315315
564.7549 10.710711
565.2536 5.405405
565.7572 1.901902
815.4779 3.903904
816.4781 1.701702
1109.4736 4.004004
1110.4802 0.300300
1173.4921 100.000000
1173.7323 0.500501
1173.8173 0.400400
1173.8936 0.300300
1174.4962 61.861862
1174.6958 0.400400
1174.7649 0.300300
1175.1340 0.300300
1175.5011 24.424424
1176.5033 7.507508
1177.4878 0.400400
1195.4734 9.909910
1195.9760 0.600601
1196.4775 6.106106
1197.4781 0.600601
1217.4543 2.002002
1217.5426 0.400400
1218.4515 0.400400


Name: 3-((3'-Malonyl)GlcA)-28-Xyl(1-4)Rha(1-2)Ara Medicagenic acid
Synon: $:00in-source
DB#: MetaboBASE1252
InChIKey: IPLMQKWUDWDMPO-USYHJYQFSA-N
Precursor_type: [M-H]-
Spectrum_type: MS2
PrecursorMZ: 1173.492
Instrument_type: LC-ESI-TOF
Instrument: impact HD
Ion_mode: N
Collision_energy: 62.7562
Formula: C55H82O27
MW: 1174
ExactMass: 1174.504347364
Comments: "SMILES=[C@H]1([C@@H]([C@@](C2[C@](C1)(C1[C@@](CC2)([C@]2(C(=CC1)[C@H]1[C@@](CC2)(CCC(C1)(C)C)C(=O)O[C@H]1[C@@H]([C@H]([C@H](CO1)O)O)O[C@H]1[C@@H]([C@@H]([C@H]([C@@H](O1)C)O[C@H]1[C@@H]([C@H]([C@@H](CO1)O)O)O)O)O)C)C)C)(C)C(=O)O)O[C@@H]1O[C@@H]([C@H]([C@@H]([C@H]1O)OC(=O)CC(=O)O)O)C(=O)O)O" "InChI=InChI=1S/C55H82O27/c1-21-38(78-44-34(65)31(62)25(57)19-74-44)33(64)35(66)45(76-21)80-41-32(63)26(58)20-75-47(41)82-49(73)55-14-12-50(2,3)17-23(55)22-8-9-27-51(4)18-24(56)42(54(7,48(71)72)28(51)10-11-53(27,6)52(22,5)13-15-55)81-46-37(68)39(77-30(61)16-29(59)60)36(67)40(79-46)43(69)70/h8,21,23-28,31-42,44-47,56-58,62-68H,9-20H2,1-7H3,(H,59,60)(H,69,70)(H,71,72)/t21-,23-,24-,25+,26-,27?,28?,31-,32-,33-,34+,35+,36-,37+,38-,39-,40-,41+,42-,44-,45-,46-,47-,51+,52+,53+,54-,55-/m0/s1" "computed SMILES=O=C(O)CC(=O)OC1C(O)C(OC(C(=O)O)C1O)OC2C(O)CC3(C)C4CC=C5C6CC(C)(C)CCC6(C(=O)OC7OCC(O)C(O)C7OC8OC(C)C(OC9OCC(O)C(O)C9O)C(O)C8O)CCC5(C)C4(C)CCC3C2(C(=O)O)C" "license=License CC-BY-NC-SA 4.0 International" "author=Plant Biology, The Noble Foundation, Ardmore, OK, US/Dennis Fine, Daniel Wherritt, and Lloyd Sumner" "ionization=ESI" "collision energy 2=104.594" "peak width=0.024" "date=2014-12-08 16:36:29+01:00" "column=Waters Acquity BEH C18 1.7um x 2.1 x 150 mm" "retention time=837.6" "raw data file=C:\Data\2014Dec08_A17_aerial_msms_1-B,1_01_1378.d" "computed mass accuracy=4.3216008290294905" "computed mass error=-0.005071364000059475" "SPLASH=splash10-01t9-0910000000-b299a107a41779224a21" "submitter=Aiko Barsch (Bruker)" "MoNA Rating=4.583333333333334"
Num Peaks: 250
99.018 0.500501
113.009 0.800801
113.024 100.000000
114.028 5.005005
115.003 0.500501
115.029 1.501502
116.929 1.001001
131.036 4.404404
175.025 51.051051
176.027 0.800801
176.032 1.901902
179.595 0.500501
193.032 2.802803
193.037 1.501502
193.042 1.301301
215.585 0.500501
215.711 0.600601
217.051 0.500501
218.952 0.500501
219.017 0.600601
219.163 0.600601
220.741 0.500501
220.959 0.500501
221.669 0.500501
232.037 0.500501
232.116 0.800801
232.177 0.500501
233.753 0.500501
234.654 0.500501
235.046 40.440440
235.074 0.500501
235.087 0.500501
236.047 2.502503
260.263 0.500501
266.657 0.500501
270.313 0.500501
272.539 0.500501
273.084 0.600601
281.658 0.700701
292.589 0.500501
292.630 0.500501
297.376 0.500501
298.806 0.500501
307.121 0.500501
310.850 0.500501
310.937 0.500501
316.749 0.500501
318.049 0.500501
320.886 0.500501
321.134 0.500501
321.545 0.500501
322.240 0.500501
322.362 0.600601
322.772 0.500501
323.073 0.700701
324.328 0.700701
324.494 0.600601
324.910 0.500501
324.988 0.700701
325.003 0.500501
325.146 0.500501
326.041 0.500501
326.209 0.500501
326.862 0.500501
326.912 0.500501
328.141 0.600601
329.128 0.500501
329.367 0.700701
329.408 0.500501
329.816 1.101101
329.944 0.500501
331.015 0.600601
331.103 0.500501
331.237 0.500501
331.938 0.500501
332.190 0.500501
332.849 0.500501
333.052 0.500501
333.101 0.600601
333.263 0.500501
333.880 0.500501
333.982 0.500501
334.998 0.500501
336.121 0.500501
336.232 0.500501
337.115 1.101101
337.819 0.600601
342.688 0.500501
344.013 0.600601
354.699 0.500501
373.268 0.600601
409.135 0.600601
439.319 12.912913
440.322 3.903904
476.049 0.600601
477.920 0.600601
480.753 0.500501
483.304 0.600601
501.317 3.003003
502.322 1.001001
502.339 0.600601
520.247 0.500501
532.254 0.500501
547.098 0.700701
580.387 0.500501
590.297 0.500501
597.910 0.500501
668.901 0.500501
680.538 0.500501
682.239 0.500501
714.891 0.500501
719.039 0.600601
719.352 0.600601
732.159 0.500501
742.172 0.500501
765.731 0.500501
766.906 0.500501
767.702 0.500501
772.533 0.500501
789.303 0.600601
810.967 0.900901
818.822 0.500501
824.487 0.500501
841.144 0.500501
847.937 0.500501
850.380 0.500501
854.766 0.500501
890.300 0.500501
903.368 0.500501
905.621 0.500501
908.354 0.600601
911.461 3.903904
912.464 1.501502
914.454 0.500501
915.806 0.500501
923.736 0.500501
926.580 0.500501
949.100 0.500501
983.623 0.500501
988.296 0.500501
1021.287 0.500501
1025.488 4.004004
1026.447 0.500501
1026.498 1.401401
1038.940 0.600601
1039.338 0.700701
1044.800 0.500501
1052.026 0.500501
1064.059 0.500501
1082.601 0.600601
1087.496 12.812813
1088.496 5.605606
1089.491 1.401401
1095.428 0.500501
1097.191 0.500501
1129.428 0.600601
1129.501 98.398398
1129.805 0.600601
1130.432 0.900901
1130.504 54.454454
1131.505 16.416416
1131.535 1.001001
1131.694 0.600601
1132.493 2.502503
1132.594 1.201201
1149.128 0.600601
1162.599 0.500501
1168.558 0.500501
1175.659 0.500501
1177.283 0.800801
1191.984 0.500501
1207.338 0.500501
1208.835 0.500501
1214.557 0.500501
1225.639 0.500501
1226.552 0.500501
1230.790 0.500501
1236.117 0.500501
1242.890 0.500501
1260.336 0.500501
1261.824 0.500501
1274.321 0.500501
1279.488 0.500501
1280.317 0.500501
1282.547 0.500501
1294.111 0.500501
1317.857 0.500501
1321.876 0.500501
1329.119 0.500501
1346.954 0.500501
1349.224 0.500501
1366.872 0.500501
1375.678 0.500501
1383.771 0.500501
1389.320 0.500501
1406.928 0.500501
1426.239 0.500501
1427.785 0.500501
1433.870 0.500501
1443.311 0.500501
1445.611 0.500501
1455.869 0.600601
1458.362 0.500501
1465.081 0.500501
1465.582 0.500501
1465.794 0.500501
1470.545 0.500501
1470.850 0.500501
1503.589 0.500501
1508.102 0.500501
1565.774 0.500501
1571.594 0.500501
1574.834 0.500501
1576.188 0.500501
1577.065 0.500501
1588.443 0.500501
1596.599 0.500501
1598.797 0.500501
1616.338 0.500501
1618.587 0.500501
1619.057 0.500501
1651.203 0.500501
1654.072 0.500501
1690.929 0.500501
1699.899 0.500501
1715.462 0.500501
1742.121 0.500501
1754.050 0.500501
1754.341 0.600601
1757.903 0.500501
1768.042 0.500501
1769.226 0.500501
1782.540 0.500501
1783.479 0.500501
1786.403 0.500501
1790.861 0.500501
1803.083 0.500501
1803.747 0.500501
1808.662 0.500501
1814.517 0.700701
1843.034 0.500501
1899.099 0.500501
1904.236 0.500501
1906.491 0.500501
1913.258 0.500501
1917.932 0.500501
1926.071 0.500501
1940.246 0.500501
1968.634 0.500501
1970.986 0.500501


Name: 4'-O-GlcA-7-O-GlcA Apigenin
Synon: $:00in-source
DB#: MetaboBASE1253
InChIKey: QBUOTXXACHDTNW-MWBUVXCNSA-N
Instrument_type: LC-ESI-TOF
Instrument: impact HD
Ion_mode: N
Formula: C27H26O17
MW: 622
ExactMass: 622.116999372
Comments: "SMILES=c1(cc(c2c(c1)oc(cc2=O)c1ccc(cc1)O[C@@H]1O[C@@H]([C@H]([C@@H]([C@H]1O)O)O)C(=O)O)O)O[C@@H]1O[C@@H]([C@H]([C@@H]([C@H]1O)O)O)C(=O)O" "InChI=InChI=1S/C27H26O17/c28-11-5-10(41-27-21(35)17(31)19(33)23(44-27)25(38)39)6-14-15(11)12(29)7-13(42-14)8-1-3-9(4-2-8)40-26-20(34)16(30)18(32)22(43-26)24(36)37/h1-7,16-23,26-28,30-35H,(H,36,37)(H,38,39)/t16-,17-,18-,19-,20+,21+,22-,23-,26+,27+/m0/s1" "computed SMILES=O=C(O)C1OC(OC=2C=CC(=CC2)C=3OC4=CC(OC5OC(C(=O)O)C(O)C(O)C5O)=CC(O)=C4C(=O)C3)C(O)C(O)C1O" "license=License CC-BY-NC-SA 4.0 International" "author=Plant Biology, The Noble Foundation, Ardmore, OK, US/Dennis Fine, Daniel Wherritt, and Lloyd Sumner" "ionization=ESI" "peak width=0.024" "date=2014-11-20 08:02:12+01:00" "column=Waters Acquity BEH C18 1.7um x 2.1 x 150 mm" "retention time=228.6" "raw data file=C:\Data\2014Nov12_A-17 aerial root MS MSMS\A-17 aeial better  MSMS_1-A,2_01_1297.d" "SPLASH=splash10-00di-0010109000-5ef74fd33e05d43d494d" "submitter=Aiko Barsch (Bruker)" "MoNA Rating=3.888888888888889"
Num Peaks: 16
269.041 22.222222
270.045 3.803804
433.117 5.105105
433.212 1.201201
445.081 3.303303
479.123 12.212212
480.126 3.103103
621.109 100.000000
622.112 30.230230
623.114 8.208208
643.090 32.432432
644.092 9.809810
645.094 2.502503
1243.219 6.106106
1244.222 3.903904
1245.223 1.201201


Name: 4'-O-GlcA-7-O-GlcA Apigenin
Synon: $:00in-source
DB#: MetaboBASE1254
InChIKey: QBUOTXXACHDTNW-MWBUVXCNSA-N
Precursor_type: [M-H]-
Spectrum_type: MS2
PrecursorMZ: 621.109
Instrument_type: LC-ESI-TOF
Instrument: impact HD
Ion_mode: N
Collision_energy: 42.0417
Formula: C27H26O17
MW: 622
ExactMass: 622.116999372
Comments: "SMILES=c1(cc(c2c(c1)oc(cc2=O)c1ccc(cc1)O[C@@H]1O[C@@H]([C@H]([C@@H]([C@H]1O)O)O)C(=O)O)O)O[C@@H]1O[C@@H]([C@H]([C@@H]([C@H]1O)O)O)C(=O)O" "InChI=InChI=1S/C27H26O17/c28-11-5-10(41-27-21(35)17(31)19(33)23(44-27)25(38)39)6-14-15(11)12(29)7-13(42-14)8-1-3-9(4-2-8)40-26-20(34)16(30)18(32)22(43-26)24(36)37/h1-7,16-23,26-28,30-35H,(H,36,37)(H,38,39)/t16-,17-,18-,19-,20+,21+,22-,23-,26+,27+/m0/s1" "computed SMILES=O=C(O)C1OC(OC=2C=CC(=CC2)C=3OC4=CC(OC5OC(C(=O)O)C(O)C(O)C5O)=CC(O)=C4C(=O)C3)C(O)C(O)C1O" "license=License CC-BY-NC-SA 4.0 International" "author=Plant Biology, The Noble Foundation, Ardmore, OK, US/Dennis Fine, Daniel Wherritt, and Lloyd Sumner" "ionization=ESI" "collision energy 2=70.0695" "peak width=0.028" "date=2014-11-20 08:02:12+01:00" "column=Waters Acquity BEH C18 1.7um x 2.1 x 150 mm" "retention time=228.6" "raw data file=C:\Data\2014Nov12_A-17 aerial root MS MSMS\A-17 aeial better  MSMS_1-A,2_01_1297.d" "computed mass accuracy=1.1646458188899103" "computed mass error=-7.233719999248933E-4" "SPLASH=splash10-014i-0190000000-3e29bdb833c91b7f9a87" "submitter=Aiko Barsch (Bruker)" "MoNA Rating=4.583333333333334"
Num Peaks: 250
99.002 1.101101
101.016 0.100100
102.996 0.700701
103.000 0.100100
107.007 0.200200
113.028 7.007007
114.031 0.200200
115.007 0.200200
117.022 1.301301
133.013 0.100100
150.999 0.200200
157.005 0.100100
175.010 0.100100
175.016 1.001001
225.038 0.200200
225.048 1.001001
225.056 0.100100
227.022 0.500501
227.030 0.200200
228.028 0.200200
255.021 0.500501
268.028 0.200200
269.041 100.000000
269.080 0.100100
270.044 15.415415
271.028 0.200200
271.048 1.901902
297.033 0.200200
311.043 0.100100
311.053 0.800801
312.050 0.100100
323.047 0.100100
341.077 0.100100
353.073 0.100100
445.076 0.900901
524.481 0.100100
555.526 0.100100
655.758 0.200200
751.346 0.200200
765.564 0.200200
770.011 0.100100
779.298 0.100100
818.389 0.100100
836.877 0.100100
842.788 0.200200
842.941 0.200200
848.215 0.200200
863.215 0.100100
887.241 0.200200
891.602 0.100100
896.143 0.200200
902.671 0.100100
921.921 0.100100
982.189 0.100100
984.674 0.200200
1004.232 0.100100
1009.093 0.100100
1009.676 0.200200
1024.559 0.100100
1040.624 0.200200
1043.410 0.200200
1047.069 0.100100
1072.193 0.200200
1082.664 0.100100
1084.332 0.200200
1097.402 0.100100
1100.297 0.100100
1113.183 0.100100
1116.614 0.200200
1120.650 0.100100
1133.070 0.200200
1145.232 0.100100
1145.953 0.200200
1149.295 0.200200
1149.482 0.200200
1151.045 0.100100
1154.992 0.300300
1156.640 0.200200
1169.175 0.200200
1172.816 0.100100
1182.326 0.100100
1192.527 0.100100
1200.729 0.100100
1203.759 0.200200
1222.122 0.100100
1228.969 0.100100
1232.265 0.100100
1234.423 0.100100
1246.977 0.100100
1248.990 0.100100
1251.574 0.100100
1253.585 0.100100
1265.067 0.200200
1265.395 0.200200
1266.674 0.100100
1268.860 0.200200
1271.373 0.200200
1278.168 0.100100
1279.221 0.100100
1287.392 0.300300
1304.926 0.100100
1306.769 0.100100
1333.588 0.100100
1335.978 0.100100
1360.832 0.100100
1366.984 0.200200
1385.382 0.100100
1385.983 0.100100
1415.353 0.100100
1415.804 0.100100
1415.911 0.100100
1418.092 0.100100
1423.296 0.100100
1424.847 0.100100
1425.002 0.100100
1428.870 0.100100
1430.406 0.200200
1436.701 0.100100
1447.894 0.100100
1455.578 0.100100
1459.960 0.200200
1461.373 0.100100
1471.771 0.100100
1472.133 0.100100
1478.888 0.200200
1489.748 0.200200
1493.982 0.200200
1499.829 0.100100
1500.978 0.100100
1505.273 0.100100
1511.008 0.100100
1511.509 0.100100
1514.150 0.200200
1514.289 0.100100
1519.357 0.100100
1519.825 0.200200
1534.766 0.200200
1539.755 0.100100
1543.726 0.100100
1543.954 0.100100
1546.428 0.100100
1547.172 0.200200
1550.508 0.200200
1555.177 0.100100
1555.633 0.100100
1558.174 0.100100
1558.261 0.200200
1560.582 0.100100
1573.556 0.100100
1577.813 0.100100
1579.476 0.100100
1583.186 0.300300
1583.813 0.100100
1590.219 0.100100
1591.305 0.200200
1598.124 0.200200
1604.382 0.100100
1607.521 0.200200
1608.629 0.200200
1611.156 0.300300
1611.975 0.100100
1620.645 0.100100
1621.088 0.100100
1627.961 0.100100
1634.672 0.100100
1640.615 0.200200
1641.122 0.100100
1644.866 0.200200
1647.013 0.100100
1649.005 0.200200
1652.990 0.200200
1653.590 0.100100
1667.175 0.200200
1676.158 0.200200
1676.756 0.100100
1682.387 0.200200
1683.250 0.200200
1685.667 0.200200
1693.194 0.100100
1718.077 0.200200
1718.767 0.100100
1719.417 0.100100
1719.510 0.100100
1728.924 0.100100
1729.619 0.200200
1731.993 0.100100
1733.023 0.200200
1740.073 0.200200
1745.863 0.200200
1748.352 0.100100
1749.579 0.100100
1751.277 0.100100
1751.912 0.200200
1757.188 0.100100
1758.910 0.100100
1764.908 0.100100
1770.890 0.100100
1776.798 0.100100
1777.893 0.100100
1781.551 0.100100
1782.842 0.100100
1785.528 0.100100
1787.405 0.200200
1789.016 0.200200
1792.548 0.200200
1806.203 0.100100
1807.835 0.200200
1812.656 0.100100
1814.069 0.100100
1815.689 0.100100
1819.545 0.100100
1822.252 0.100100
1827.359 0.200200
1828.549 0.200200
1832.779 0.100100
1832.959 0.100100
1858.588 0.100100
1859.870 0.100100
1863.891 0.100100
1864.813 0.100100
1869.254 0.100100
1870.763 0.100100
1872.299 0.200200
1875.042 0.100100
1876.460 0.200200
1877.491 0.300300
1879.494 0.200200
1886.096 0.100100
1886.488 0.300300
1896.557 0.200200
1900.980 0.100100
1903.767 0.200200
1905.351 0.100100
1911.416 0.200200
1917.588 0.100100
1918.083 0.100100
1937.501 0.100100
1937.851 0.200200
1939.175 0.100100
1942.770 0.100100
1945.232 0.100100
1950.800 0.100100
1961.300 0.300300
1963.030 0.100100
1971.555 0.200200
1975.923 0.100100
1981.793 0.100100
1982.027 0.200200
1989.284 0.200200
1996.909 0.200200

